Bi La Sn C  O  H                        
   1.00000000000000     
    29.0000000000000000    0.0000000000000000    0.0000000000000000
     0.2488180851000000   28.9989325590000000    0.0000000000000000
    -0.0631677343000000   -0.4515975666000000   28.9964147692999994
   Bi   La   Sn   C    O    H 
    22    23    23     1     2     1
Selective dynamics
Direct
  0.7596107110844380  0.4789131798384828  0.3987235246211253   T   T   T
  0.6472127649629157  0.6847385145387442  0.5508972482548782   T   T   T
  0.3600917100997638  0.4573557755848903  0.4292979876734647   T   T   T
  0.5509620213400940  0.7132685459761374  0.5839799010941863   T   T   T
  0.5915029568994470  0.5209714444905416  0.5841479689498996   F   F   F
  0.6403967355817145  0.6803809810297472  0.4454521491681973   T   T   T
  0.6951565845453347  0.5205146499189908  0.6541172617934661   T   T   T
  0.4866860785406604  0.7009865249241853  0.4983261996304244   T   T   T
  0.5004839460855024  0.5502791173970252  0.5477141156400123   F   F   F
  0.3265173666778316  0.4856148549404496  0.5760648840591981   T   T   T
  0.3819735798614091  0.6099200335962531  0.5358431491431943   T   T   T
  0.6667129484492236  0.4827404655721850  0.5105018184570156   F   F   F
  0.5763997220267569  0.4263140504383500  0.5448328182496311   F   F   F
  0.6699804147641634  0.3738161282118680  0.5064379802287783   T   T   T
  0.4634572272136702  0.3385311173379739  0.4980546098292413   T   T   T
  0.6484934028780529  0.5775373212088155  0.4602701624361103   F   F   F
  0.5564835084502039  0.4354689471881720  0.7502952293141689   T   T   T
  0.5963824545661617  0.3501602819422214  0.6684446143030002   T   T   T
  0.4934126754113763  0.2995409956292541  0.4088019660910338   T   T   T
  0.6602666821513152  0.6167605415126625  0.6675264583022041   T   T   T
  0.4917673731137622  0.4102850098115590  0.3056913787359707   T   T   T
  0.6220200712284711  0.3167947930187568  0.5727156134064406   T   T   T
  0.5394781360727303  0.6837042122632436  0.4041292513125835   T   T   T
  0.3907773202215216  0.4139875332568488  0.5284678260985942   T   T   T
  0.6275632989423270  0.5522514618573617  0.2822791875881653   T   T   T
  0.4720996243427813  0.4764519148540993  0.6916152950067552   T   T   T
  0.5683115009887700  0.5094300495444983  0.4784716241115703   F   F   F
  0.4203210565129183  0.5084107200613417  0.5018573595042781   F   F   F
  0.4523946306855536  0.4010469640460310  0.4059850585131359   T   T   T
  0.5635108156595634  0.3492219820074502  0.3528527234374015   T   T   T
  0.4120022469819846  0.5404023855229921  0.6106846878504053   T   T   T
  0.5989619185342442  0.4424232626682110  0.3044462887332601   T   T   T
  0.4545223430504798  0.5996183385387268  0.3632743383071719   T   T   T
  0.4177887798277796  0.4864396400520083  0.3406855182631616   T   T   T
  0.6604263435655714  0.4264470203375061  0.6046122945115036   T   T   T
  0.6736186573371198  0.5786150318498399  0.5643570279361976   T   T   T
  0.5258424612842540  0.5094029716428020  0.3278960315963020   T   T   T
  0.5667086116347689  0.3573635176558132  0.4693139885325474   T   T   T
  0.3154788609411238  0.5406385500996104  0.4921990865783352   T   T   T
  0.6604747427700061  0.4297389814200927  0.4153433762362846   T   T   T
  0.5660841929594156  0.6261437171197244  0.5094829013827464   F   F   F
  0.5950638228197400  0.5279152056099722  0.6899230580956076   T   T   T
  0.4702180560249589  0.6423520734928490  0.5873606103602043   T   T   T
  0.4619282174648251  0.6031290763222760  0.4632588348058782   T   T   T
  0.7164074141715376  0.5744130575785975  0.3833677671326080   T   T   T
  0.5499310510395361  0.5822218838566187  0.4076968008106903   F   F   F
  0.4794126430662260  0.5072205383607624  0.4190535757241776   F   F   F
  0.6950671190541768  0.4816065394885235  0.3242345535311404   T   T   T
  0.7520821566239199  0.4298395036081379  0.4876254754070440   T   T   T
  0.7482290546085960  0.5381069202391777  0.4854776698474611   T   T   T
  0.7484696195197182  0.4899198807857145  0.5727303561504845   T   T   T
  0.6461128510667853  0.4344614158062260  0.7090142994910094   T   T   T
  0.5769984479125104  0.7435114311333119  0.4927088743093506   T   T   T
  0.6192554540844384  0.5183157687966542  0.3801816896793397   F   F   F
  0.5060275363125931  0.5634670604463103  0.6504229353261116   T   T   T
  0.4922009500451665  0.4366758245867572  0.4933013002826740   F   F   F
  0.5608844484509063  0.4404139570509003  0.6454865549417619   F   F   F
  0.5785210733460440  0.6170350259417159  0.6133629450089129   T   T   T
  0.5437136796047626  0.6173482575489749  0.3121845944556509   T   T   T
  0.6267303630541960  0.6249077079638156  0.3606284252727295   T   T   T
  0.3761934756946100  0.5567695982441493  0.4131007120236299   T   T   T
  0.4723078164089713  0.4557257050327763  0.5877273803360978   F   F   F
  0.7274520352351910  0.6351510088947906  0.4846136281117620   T   T   T
  0.4972477686698674  0.3731659807506995  0.6874705732653346   T   T   T
  0.3835760603846263  0.4404397212809937  0.6408505835261408   T   T   T
  0.5544592502646992  0.4379899399457940  0.4037542370104745   F   F   F
  0.4362095794236985  0.3617598787899375  0.6100614850057323   T   T   T
  0.5279462922737386  0.3488454724917061  0.5780359919228496   T   T   T
  0.4869192784746242  0.3136267149637180  0.7353597318958479   T   T   T
  0.5034083753913823  0.3084666615243327  0.7736971618375104   T   T   T
  0.4575255568324262  0.2819697492919794  0.7151210359654997   T   T   T
  0.4537151710777424  0.2567592621260995  0.7371971662097994   T   T   T
 
  0.00000000E+00  0.00000000E+00  0.00000000E+00
  0.00000000E+00  0.00000000E+00  0.00000000E+00
  0.00000000E+00  0.00000000E+00  0.00000000E+00
  0.00000000E+00  0.00000000E+00  0.00000000E+00
  0.00000000E+00  0.00000000E+00  0.00000000E+00
  0.00000000E+00  0.00000000E+00  0.00000000E+00
  0.00000000E+00  0.00000000E+00  0.00000000E+00
  0.00000000E+00  0.00000000E+00  0.00000000E+00
  0.00000000E+00  0.00000000E+00  0.00000000E+00
  0.00000000E+00  0.00000000E+00  0.00000000E+00
  0.00000000E+00  0.00000000E+00  0.00000000E+00
  0.00000000E+00  0.00000000E+00  0.00000000E+00
  0.00000000E+00  0.00000000E+00  0.00000000E+00
  0.00000000E+00  0.00000000E+00  0.00000000E+00
  0.00000000E+00  0.00000000E+00  0.00000000E+00
  0.00000000E+00  0.00000000E+00  0.00000000E+00
  0.00000000E+00  0.00000000E+00  0.00000000E+00
  0.00000000E+00  0.00000000E+00  0.00000000E+00
  0.00000000E+00  0.00000000E+00  0.00000000E+00
  0.00000000E+00  0.00000000E+00  0.00000000E+00
  0.00000000E+00  0.00000000E+00  0.00000000E+00
  0.00000000E+00  0.00000000E+00  0.00000000E+00
  0.00000000E+00  0.00000000E+00  0.00000000E+00
  0.00000000E+00  0.00000000E+00  0.00000000E+00
  0.00000000E+00  0.00000000E+00  0.00000000E+00
  0.00000000E+00  0.00000000E+00  0.00000000E+00
  0.00000000E+00  0.00000000E+00  0.00000000E+00
  0.00000000E+00  0.00000000E+00  0.00000000E+00
  0.00000000E+00  0.00000000E+00  0.00000000E+00
  0.00000000E+00  0.00000000E+00  0.00000000E+00
  0.00000000E+00  0.00000000E+00  0.00000000E+00
  0.00000000E+00  0.00000000E+00  0.00000000E+00
  0.00000000E+00  0.00000000E+00  0.00000000E+00
  0.00000000E+00  0.00000000E+00  0.00000000E+00
  0.00000000E+00  0.00000000E+00  0.00000000E+00
  0.00000000E+00  0.00000000E+00  0.00000000E+00
  0.00000000E+00  0.00000000E+00  0.00000000E+00
  0.00000000E+00  0.00000000E+00  0.00000000E+00
  0.00000000E+00  0.00000000E+00  0.00000000E+00
  0.00000000E+00  0.00000000E+00  0.00000000E+00
  0.00000000E+00  0.00000000E+00  0.00000000E+00
  0.00000000E+00  0.00000000E+00  0.00000000E+00
  0.00000000E+00  0.00000000E+00  0.00000000E+00
  0.00000000E+00  0.00000000E+00  0.00000000E+00
  0.00000000E+00  0.00000000E+00  0.00000000E+00
  0.00000000E+00  0.00000000E+00  0.00000000E+00
  0.00000000E+00  0.00000000E+00  0.00000000E+00
  0.00000000E+00  0.00000000E+00  0.00000000E+00
  0.00000000E+00  0.00000000E+00  0.00000000E+00
  0.00000000E+00  0.00000000E+00  0.00000000E+00
  0.00000000E+00  0.00000000E+00  0.00000000E+00
  0.00000000E+00  0.00000000E+00  0.00000000E+00
  0.00000000E+00  0.00000000E+00  0.00000000E+00
  0.00000000E+00  0.00000000E+00  0.00000000E+00
  0.00000000E+00  0.00000000E+00  0.00000000E+00
  0.00000000E+00  0.00000000E+00  0.00000000E+00
  0.00000000E+00  0.00000000E+00  0.00000000E+00
  0.00000000E+00  0.00000000E+00  0.00000000E+00
  0.00000000E+00  0.00000000E+00  0.00000000E+00
  0.00000000E+00  0.00000000E+00  0.00000000E+00
  0.00000000E+00  0.00000000E+00  0.00000000E+00
  0.00000000E+00  0.00000000E+00  0.00000000E+00
  0.00000000E+00  0.00000000E+00  0.00000000E+00
  0.00000000E+00  0.00000000E+00  0.00000000E+00
  0.00000000E+00  0.00000000E+00  0.00000000E+00
  0.00000000E+00  0.00000000E+00  0.00000000E+00
  0.00000000E+00  0.00000000E+00  0.00000000E+00
  0.00000000E+00  0.00000000E+00  0.00000000E+00
  0.00000000E+00  0.00000000E+00  0.00000000E+00
  0.00000000E+00  0.00000000E+00  0.00000000E+00
  0.00000000E+00  0.00000000E+00  0.00000000E+00
  0.00000000E+00  0.00000000E+00  0.00000000E+00
