Bi La Sn C  O  H                        
   1.00000000000000     
    29.0000000000000000    0.0000000000000000    0.0000000000000000
     0.2488180851000000   28.9989325590000000    0.0000000000000000
    -0.0631677343000000   -0.4515975666000000   28.9964147692999994
   Bi   La   Sn   C    O    H 
    22    23    23     1     2     1
Selective dynamics
Direct
  0.7590941293327912  0.4796465611372104  0.3995455488403054   T   T   T
  0.6465915145393614  0.6845556793955239  0.5521452703170454   T   T   T
  0.3606052929454086  0.4582476821541274  0.4281862224146295   T   T   T
  0.5493646747453174  0.7128653879904236  0.5851872837029127   T   T   T
  0.5915029568994470  0.5209714444905416  0.5841479689498996   F   F   F
  0.6395068774466498  0.6799896989887300  0.4452666810616117   T   T   T
  0.6967344638250461  0.5239162935306515  0.6548213598563759   T   T   T
  0.4863231159718229  0.7007852123238810  0.5003831359290518   T   T   T
  0.5004839460855024  0.5502791173970252  0.5477141156400123   F   F   F
  0.3248882905217415  0.4857423998110802  0.5751664716763828   T   T   T
  0.3812953574971445  0.6099106350070191  0.5346894085526998   T   T   T
  0.6667129484492236  0.4827404655721850  0.5105018184570156   F   F   F
  0.5763997220267569  0.4263140504383500  0.5448328182496311   F   F   F
  0.6691471838331206  0.3758820731115009  0.5070100760732146   T   T   T
  0.4644062860614339  0.3392987815841578  0.4998836979399546   T   T   T
  0.6484934028780529  0.5775373212088155  0.4602701624361103   F   F   F
  0.5582390364793283  0.4386560258624818  0.7501265083694173   T   T   T
  0.6048994946084216  0.3511711721859148  0.6672553579852384   T   T   T
  0.4919465033348894  0.2991589840097202  0.4101248039552159   T   T   T
  0.6593403331153377  0.6191941359709163  0.6660100053213954   T   T   T
  0.4912817407343493  0.4107633587861605  0.3053902203949970   T   T   T
  0.6273655280020409  0.3167430175411139  0.5736653596281022   T   T   T
  0.5383540037579733  0.6835982755752252  0.4051020532720633   T   T   T
  0.3905476330564118  0.4154530970431699  0.5270256328622027   T   T   T
  0.6265176448916773  0.5517089455874243  0.2821662282268165   T   T   T
  0.4717796357225174  0.4698564133467863  0.6920117902431865   T   T   T
  0.5683115009887700  0.5094300495444983  0.4784716241115703   F   F   F
  0.4203210565129183  0.5084107200613417  0.5018573595042781   F   F   F
  0.4524066528966653  0.4009089023535946  0.4058671975158725   T   T   T
  0.5613963016114160  0.3489380901235250  0.3531925953658038   T   T   T
  0.4106599972251619  0.5398297969932053  0.6095227550418882   T   T   T
  0.6004190062320321  0.4397250224256617  0.3060433555968921   T   T   T
  0.4546732147832040  0.6001157812785018  0.3638613513317789   T   T   T
  0.4186601816851551  0.4879072291424513  0.3393757974951792   T   T   T
  0.6616202363880399  0.4299801701442531  0.6048470238088633   T   T   T
  0.6727133806332404  0.5787909426663644  0.5639888668454218   T   T   T
  0.5257320611845134  0.5096832345344537  0.3282171287521682   T   T   T
  0.5668863453758105  0.3567703753445169  0.4693991782895531   T   T   T
  0.3150030058295649  0.5405529645756609  0.4911953827923868   T   T   T
  0.6609656960491134  0.4294329092839224  0.4149810412683641   T   T   T
  0.5660841929594156  0.6261437171197244  0.5094829013827464   F   F   F
  0.5959976349870649  0.5288989321083543  0.6895882738833333   T   T   T
  0.4688096930848643  0.6409118845793659  0.5884894657027332   T   T   T
  0.4630514195734577  0.6031240583513849  0.4640456164920608   T   T   T
  0.7161699208807267  0.5749339804085082  0.3836036771767721   T   T   T
  0.5499310510395361  0.5822218838566187  0.4076968008106903   F   F   F
  0.4794126430662260  0.5072205383607624  0.4190535757241776   F   F   F
  0.6952566203878043  0.4824399695920394  0.3240823355544770   T   T   T
  0.7528614566176814  0.4307020140980758  0.4881362463941589   T   T   T
  0.7485058866678369  0.5399107206889225  0.4859073811169867   T   T   T
  0.7488341148510497  0.4917797247387520  0.5723722993895740   T   T   T
  0.6474366464123531  0.4367877843309022  0.7090910382031398   T   T   T
  0.5770416779752801  0.7429727941626955  0.4940182503101163   T   T   T
  0.6192554540844384  0.5183157687966542  0.3801816896793397   F   F   F
  0.5048422892646977  0.5586556297450196  0.6499268321809430   T   T   T
  0.4922009500451665  0.4366758245867572  0.4933013002826740   F   F   F
  0.5608844484509063  0.4404139570509003  0.6454865549417619   F   F   F
  0.5763309631387655  0.6162484855567433  0.6136017223607807   T   T   T
  0.5433148186035028  0.6176595530783128  0.3121411172775720   T   T   T
  0.6265784197112499  0.6252840191336515  0.3596746645039569   T   T   T
  0.3764499645928082  0.5569886734096688  0.4127211532799066   T   T   T
  0.4723078164089713  0.4557257050327763  0.5877273803360978   F   F   F
  0.7264253999850248  0.6365100582358374  0.4853065394690564   T   T   T
  0.5051867333728020  0.3670656857762870  0.6820220710996172   T   T   T
  0.3820582284163926  0.4403195142414072  0.6396228595588829   T   T   T
  0.5544592502646992  0.4379899399457940  0.4037542370104745   F   F   F
  0.4373911948263645  0.3640084902813820  0.6084955283536623   T   T   T
  0.5312718055224178  0.3413622075678097  0.5801678662622025   T   T   T
  0.5220812144242889  0.2642887063867467  0.5906930087261091   T   T   T
  0.5110550299243813  0.2459171450330431  0.6266894415829993   T   T   T
  0.5327857943449789  0.2384429638911144  0.5514287693175844   T   T   T
  0.5296422809351425  0.2057351866823641  0.5597379208774964   T   T   T
 
  0.00000000E+00  0.00000000E+00  0.00000000E+00
  0.00000000E+00  0.00000000E+00  0.00000000E+00
  0.00000000E+00  0.00000000E+00  0.00000000E+00
  0.00000000E+00  0.00000000E+00  0.00000000E+00
  0.00000000E+00  0.00000000E+00  0.00000000E+00
  0.00000000E+00  0.00000000E+00  0.00000000E+00
  0.00000000E+00  0.00000000E+00  0.00000000E+00
  0.00000000E+00  0.00000000E+00  0.00000000E+00
  0.00000000E+00  0.00000000E+00  0.00000000E+00
  0.00000000E+00  0.00000000E+00  0.00000000E+00
  0.00000000E+00  0.00000000E+00  0.00000000E+00
  0.00000000E+00  0.00000000E+00  0.00000000E+00
  0.00000000E+00  0.00000000E+00  0.00000000E+00
  0.00000000E+00  0.00000000E+00  0.00000000E+00
  0.00000000E+00  0.00000000E+00  0.00000000E+00
  0.00000000E+00  0.00000000E+00  0.00000000E+00
  0.00000000E+00  0.00000000E+00  0.00000000E+00
  0.00000000E+00  0.00000000E+00  0.00000000E+00
  0.00000000E+00  0.00000000E+00  0.00000000E+00
  0.00000000E+00  0.00000000E+00  0.00000000E+00
  0.00000000E+00  0.00000000E+00  0.00000000E+00
  0.00000000E+00  0.00000000E+00  0.00000000E+00
  0.00000000E+00  0.00000000E+00  0.00000000E+00
  0.00000000E+00  0.00000000E+00  0.00000000E+00
  0.00000000E+00  0.00000000E+00  0.00000000E+00
  0.00000000E+00  0.00000000E+00  0.00000000E+00
  0.00000000E+00  0.00000000E+00  0.00000000E+00
  0.00000000E+00  0.00000000E+00  0.00000000E+00
  0.00000000E+00  0.00000000E+00  0.00000000E+00
  0.00000000E+00  0.00000000E+00  0.00000000E+00
  0.00000000E+00  0.00000000E+00  0.00000000E+00
  0.00000000E+00  0.00000000E+00  0.00000000E+00
  0.00000000E+00  0.00000000E+00  0.00000000E+00
  0.00000000E+00  0.00000000E+00  0.00000000E+00
  0.00000000E+00  0.00000000E+00  0.00000000E+00
  0.00000000E+00  0.00000000E+00  0.00000000E+00
  0.00000000E+00  0.00000000E+00  0.00000000E+00
  0.00000000E+00  0.00000000E+00  0.00000000E+00
  0.00000000E+00  0.00000000E+00  0.00000000E+00
  0.00000000E+00  0.00000000E+00  0.00000000E+00
  0.00000000E+00  0.00000000E+00  0.00000000E+00
  0.00000000E+00  0.00000000E+00  0.00000000E+00
  0.00000000E+00  0.00000000E+00  0.00000000E+00
  0.00000000E+00  0.00000000E+00  0.00000000E+00
  0.00000000E+00  0.00000000E+00  0.00000000E+00
  0.00000000E+00  0.00000000E+00  0.00000000E+00
  0.00000000E+00  0.00000000E+00  0.00000000E+00
  0.00000000E+00  0.00000000E+00  0.00000000E+00
  0.00000000E+00  0.00000000E+00  0.00000000E+00
  0.00000000E+00  0.00000000E+00  0.00000000E+00
  0.00000000E+00  0.00000000E+00  0.00000000E+00
  0.00000000E+00  0.00000000E+00  0.00000000E+00
  0.00000000E+00  0.00000000E+00  0.00000000E+00
  0.00000000E+00  0.00000000E+00  0.00000000E+00
  0.00000000E+00  0.00000000E+00  0.00000000E+00
  0.00000000E+00  0.00000000E+00  0.00000000E+00
  0.00000000E+00  0.00000000E+00  0.00000000E+00
  0.00000000E+00  0.00000000E+00  0.00000000E+00
  0.00000000E+00  0.00000000E+00  0.00000000E+00
  0.00000000E+00  0.00000000E+00  0.00000000E+00
  0.00000000E+00  0.00000000E+00  0.00000000E+00
  0.00000000E+00  0.00000000E+00  0.00000000E+00
  0.00000000E+00  0.00000000E+00  0.00000000E+00
  0.00000000E+00  0.00000000E+00  0.00000000E+00
  0.00000000E+00  0.00000000E+00  0.00000000E+00
  0.00000000E+00  0.00000000E+00  0.00000000E+00
  0.00000000E+00  0.00000000E+00  0.00000000E+00
  0.00000000E+00  0.00000000E+00  0.00000000E+00
  0.00000000E+00  0.00000000E+00  0.00000000E+00
  0.00000000E+00  0.00000000E+00  0.00000000E+00
  0.00000000E+00  0.00000000E+00  0.00000000E+00
  0.00000000E+00  0.00000000E+00  0.00000000E+00
