Bi La Sn C  O  H                        
   1.00000000000000     
    29.0000000000000000    0.0000000000000000    0.0000000000000000
     0.2488180851000000   28.9989325590000000    0.0000000000000000
    -0.0631677343000000   -0.4515975666000000   28.9964147692999994
   Bi   La   Sn   C    O    H 
    22    23    23     1     2     1
Selective dynamics
Direct
  0.7605277593608968  0.4767257969656734  0.3993107726402584   T   T   T
  0.6474874340890986  0.6843928654787274  0.5519542872940324   T   T   T
  0.3619421275222912  0.4579638689299361  0.4267717693731020   T   T   T
  0.5513071575067542  0.7133443988018471  0.5843307399337538   T   T   T
  0.5915029568994470  0.5209714444905416  0.5841479689498996   F   F   F
  0.6406243989155223  0.6808502239611159  0.4461234468389756   T   T   T
  0.6959997437859786  0.5218354016522605  0.6539073870612772   T   T   T
  0.4869531605523821  0.7017678113509447  0.4990937745555261   T   T   T
  0.5004839460855024  0.5502791173970252  0.5477141156400123   F   F   F
  0.3275225072628649  0.4864434216303701  0.5754558620886303   T   T   T
  0.3829368598248461  0.6087465403696406  0.5363931667639600   T   T   T
  0.6667129484492236  0.4827404655721850  0.5105018184570156   F   F   F
  0.5763997220267569  0.4263140504383500  0.5448328182496311   F   F   F
  0.6688867156013982  0.3741893142909412  0.5070652690323736   T   T   T
  0.4631076805327964  0.3384850471425274  0.4977508843098533   T   T   T
  0.6484934028780529  0.5775373212088155  0.4602701624361103   F   F   F
  0.5568947905280288  0.4360617122831509  0.7497302591725166   T   T   T
  0.5980523750331982  0.3506349761233413  0.6697623825715575   T   T   T
  0.4938830222443142  0.2991316446658802  0.4082987718822723   T   T   T
  0.6606663323165413  0.6177878665777307  0.6665571627445573   T   T   T
  0.4938320931436410  0.4095014764131992  0.3061735756752545   T   T   T
  0.6223242226937062  0.3173360466037710  0.5744138870698162   T   T   T
  0.5401742376526727  0.6840070868126368  0.4045486136444427   T   T   T
  0.3903693512503117  0.4153987742440776  0.5261855018668248   T   T   T
  0.6301382082251729  0.5521434785129794  0.2830477974379102   T   T   T
  0.4722437020496915  0.4764704488520770  0.6923253122447707   T   T   T
  0.5683115009887700  0.5094300495444983  0.4784716241115703   F   F   F
  0.4203210565129183  0.5084107200613417  0.5018573595042781   F   F   F
  0.4534515897331896  0.4006042819525648  0.4054202907598336   T   T   T
  0.5658810881794530  0.3484918796082546  0.3541058501444501   T   T   T
  0.4125179581414459  0.5400911448692164  0.6116720333142182   T   T   T
  0.5999067080260715  0.4417937648440945  0.3047960745076854   T   T   T
  0.4557510467551363  0.6002825988729888  0.3620404047466962   T   T   T
  0.4202462598451625  0.4869047040308572  0.3380178198450848   T   T   T
  0.6609712781779309  0.4278318002403390  0.6047409880066732   T   T   T
  0.6736154303610741  0.5784515951758200  0.5639485586361582   T   T   T
  0.5265990358900813  0.5094387566247650  0.3278862590295086   T   T   T
  0.5664431465708680  0.3570740279392822  0.4691622189584906   T   T   T
  0.3127507160749458  0.5413632924815472  0.4894431993882532   T   T   T
  0.6602148095214351  0.4293246288174327  0.4157225053677475   T   T   T
  0.5660841929594156  0.6261437171197244  0.5094829013827464   F   F   F
  0.5960047993756635  0.5281708288243835  0.6899145160399094   T   T   T
  0.4704952986368213  0.6423062533237964  0.5877604020509104   T   T   T
  0.4630225670461819  0.6039357333987587  0.4637583428811781   T   T   T
  0.7173414451057196  0.5724652405022820  0.3839102798352466   T   T   T
  0.5499310510395361  0.5822218838566187  0.4076968008106903   F   F   F
  0.4794126430662260  0.5072205383607624  0.4190535757241776   F   F   F
  0.6958464036815671  0.4798604791289454  0.3249578619099227   T   T   T
  0.7517082331813066  0.4286227069006541  0.4882386994292386   T   T   T
  0.7487139700438009  0.5377026745588133  0.4854872308093180   T   T   T
  0.7491691193998430  0.4897996909468263  0.5722419175867356   T   T   T
  0.6466280864344928  0.4349502674930754  0.7088333210297113   T   T   T
  0.5774120117579167  0.7437806570483065  0.4933134807158423   T   T   T
  0.6192554540844384  0.5183157687966542  0.3801816896793397   F   F   F
  0.5063219619580435  0.5630785925376881  0.6509682581360856   T   T   T
  0.4922009500451665  0.4366758245867572  0.4933013002826740   F   F   F
  0.5608844484509063  0.4404139570509003  0.6454865549417619   F   F   F
  0.5782226702797503  0.6167153861513682  0.6133796394095337   T   T   T
  0.5464786036264825  0.6175610437440375  0.3130861653651872   T   T   T
  0.6294726118943362  0.6249249250812677  0.3614535528405610   T   T   T
  0.3792037307726728  0.5554207255568937  0.4113933082214266   T   T   T
  0.4723078164089713  0.4557257050327763  0.5877273803360978   F   F   F
  0.7274760252304142  0.6346338946651239  0.4846724613631562   T   T   T
  0.4982005175166119  0.3732673625992612  0.6820099267085437   T   T   T
  0.3836859552607586  0.4395951690883545  0.6398855200913234   T   T   T
  0.5544592502646992  0.4379899399457940  0.4037542370104745   F   F   F
  0.4331472005814282  0.3605789714368886  0.6061273397695408   T   T   T
  0.5277537929015371  0.3489455792111443  0.5781682462000808   T   T   T
  0.2407054514624224  0.5648394277945836  0.4475989378591482   T   T   T
  0.2292081579955932  0.5532204790379942  0.4882850378166160   T   T   T
  0.2063807391787930  0.5778411921501736  0.4189672171291324   T   T   T
  0.1768587915935341  0.5759191488972546  0.4359618176955123   T   T   T
 
  0.00000000E+00  0.00000000E+00  0.00000000E+00
  0.00000000E+00  0.00000000E+00  0.00000000E+00
  0.00000000E+00  0.00000000E+00  0.00000000E+00
  0.00000000E+00  0.00000000E+00  0.00000000E+00
  0.00000000E+00  0.00000000E+00  0.00000000E+00
  0.00000000E+00  0.00000000E+00  0.00000000E+00
  0.00000000E+00  0.00000000E+00  0.00000000E+00
  0.00000000E+00  0.00000000E+00  0.00000000E+00
  0.00000000E+00  0.00000000E+00  0.00000000E+00
  0.00000000E+00  0.00000000E+00  0.00000000E+00
  0.00000000E+00  0.00000000E+00  0.00000000E+00
  0.00000000E+00  0.00000000E+00  0.00000000E+00
  0.00000000E+00  0.00000000E+00  0.00000000E+00
  0.00000000E+00  0.00000000E+00  0.00000000E+00
  0.00000000E+00  0.00000000E+00  0.00000000E+00
  0.00000000E+00  0.00000000E+00  0.00000000E+00
  0.00000000E+00  0.00000000E+00  0.00000000E+00
  0.00000000E+00  0.00000000E+00  0.00000000E+00
  0.00000000E+00  0.00000000E+00  0.00000000E+00
  0.00000000E+00  0.00000000E+00  0.00000000E+00
  0.00000000E+00  0.00000000E+00  0.00000000E+00
  0.00000000E+00  0.00000000E+00  0.00000000E+00
  0.00000000E+00  0.00000000E+00  0.00000000E+00
  0.00000000E+00  0.00000000E+00  0.00000000E+00
  0.00000000E+00  0.00000000E+00  0.00000000E+00
  0.00000000E+00  0.00000000E+00  0.00000000E+00
  0.00000000E+00  0.00000000E+00  0.00000000E+00
  0.00000000E+00  0.00000000E+00  0.00000000E+00
  0.00000000E+00  0.00000000E+00  0.00000000E+00
  0.00000000E+00  0.00000000E+00  0.00000000E+00
  0.00000000E+00  0.00000000E+00  0.00000000E+00
  0.00000000E+00  0.00000000E+00  0.00000000E+00
  0.00000000E+00  0.00000000E+00  0.00000000E+00
  0.00000000E+00  0.00000000E+00  0.00000000E+00
  0.00000000E+00  0.00000000E+00  0.00000000E+00
  0.00000000E+00  0.00000000E+00  0.00000000E+00
  0.00000000E+00  0.00000000E+00  0.00000000E+00
  0.00000000E+00  0.00000000E+00  0.00000000E+00
  0.00000000E+00  0.00000000E+00  0.00000000E+00
  0.00000000E+00  0.00000000E+00  0.00000000E+00
  0.00000000E+00  0.00000000E+00  0.00000000E+00
  0.00000000E+00  0.00000000E+00  0.00000000E+00
  0.00000000E+00  0.00000000E+00  0.00000000E+00
  0.00000000E+00  0.00000000E+00  0.00000000E+00
  0.00000000E+00  0.00000000E+00  0.00000000E+00
  0.00000000E+00  0.00000000E+00  0.00000000E+00
  0.00000000E+00  0.00000000E+00  0.00000000E+00
  0.00000000E+00  0.00000000E+00  0.00000000E+00
  0.00000000E+00  0.00000000E+00  0.00000000E+00
  0.00000000E+00  0.00000000E+00  0.00000000E+00
  0.00000000E+00  0.00000000E+00  0.00000000E+00
  0.00000000E+00  0.00000000E+00  0.00000000E+00
  0.00000000E+00  0.00000000E+00  0.00000000E+00
  0.00000000E+00  0.00000000E+00  0.00000000E+00
  0.00000000E+00  0.00000000E+00  0.00000000E+00
  0.00000000E+00  0.00000000E+00  0.00000000E+00
  0.00000000E+00  0.00000000E+00  0.00000000E+00
  0.00000000E+00  0.00000000E+00  0.00000000E+00
  0.00000000E+00  0.00000000E+00  0.00000000E+00
  0.00000000E+00  0.00000000E+00  0.00000000E+00
  0.00000000E+00  0.00000000E+00  0.00000000E+00
  0.00000000E+00  0.00000000E+00  0.00000000E+00
  0.00000000E+00  0.00000000E+00  0.00000000E+00
  0.00000000E+00  0.00000000E+00  0.00000000E+00
  0.00000000E+00  0.00000000E+00  0.00000000E+00
  0.00000000E+00  0.00000000E+00  0.00000000E+00
  0.00000000E+00  0.00000000E+00  0.00000000E+00
  0.00000000E+00  0.00000000E+00  0.00000000E+00
  0.00000000E+00  0.00000000E+00  0.00000000E+00
  0.00000000E+00  0.00000000E+00  0.00000000E+00
  0.00000000E+00  0.00000000E+00  0.00000000E+00
  0.00000000E+00  0.00000000E+00  0.00000000E+00
