Bi La Sn C  O  H                        
   1.00000000000000     
    29.0000000000000000    0.0000000000000000    0.0000000000000000
     0.2488180851000000   28.9989325590000000    0.0000000000000000
    -0.0631677343000000   -0.4515975666000000   28.9964147692999994
   Bi   La   Sn   C    O    H 
    22    23    23     1     2     1
Selective dynamics
Direct
  0.7585135763207037  0.4788427396891933  0.4036660335715123   T   T   T
  0.6479338124523047  0.6822971010553849  0.5533676873088976   T   T   T
  0.3594883359615554  0.4579245187566833  0.4289679473181035   T   T   T
  0.5513393657861876  0.7129440831089714  0.5847538642521903   T   T   T
  0.5915029568994470  0.5209714444905416  0.5841479689498996   F   F   F
  0.6418760210606074  0.6807704335959663  0.4472262939128610   T   T   T
  0.6980462875213777  0.5236558135514495  0.6567470612134420   T   T   T
  0.4867527978986140  0.7014661724669590  0.4999049642904952   T   T   T
  0.5004839460855024  0.5502791173970252  0.5477141156400123   F   F   F
  0.3253823084491614  0.4863414490092780  0.5749504957240233   T   T   T
  0.3823840961331069  0.6103039473625018  0.5357656574473988   T   T   T
  0.6667129484492236  0.4827404655721850  0.5105018184570156   F   F   F
  0.5763997220267569  0.4263140504383500  0.5448328182496311   F   F   F
  0.6677042677128023  0.3733410116860115  0.5068988514823768   T   T   T
  0.4624254428816113  0.3380286456069743  0.4994584136161436   T   T   T
  0.6484934028780529  0.5775373212088155  0.4602701624361103   F   F   F
  0.5602274644090858  0.4384894122540563  0.7499371906512358   T   T   T
  0.6049054703065588  0.3518065033532856  0.6683285126872394   T   T   T
  0.4921806179548976  0.2982484559976027  0.4099091220436707   T   T   T
  0.6598701680487573  0.6200404881615892  0.6656026265031010   T   T   T
  0.4928056532439935  0.4091511170049481  0.3067717754759489   T   T   T
  0.6212749120433018  0.3151438617108903  0.5727974978806700   T   T   T
  0.5403883277365505  0.6835733296028851  0.4054631933002718   T   T   T
  0.3906024080481036  0.4152162406932248  0.5281292687112097   T   T   T
  0.6305967618141672  0.5524452942575010  0.2833624443755832   T   T   T
  0.4721264458539995  0.4708011804568651  0.6922865100829586   T   T   T
  0.5683115009887700  0.5094300495444983  0.4784716241115703   F   F   F
  0.4203210565129183  0.5084107200613417  0.5018573595042781   F   F   F
  0.4523972606187456  0.4003990972161314  0.4068952105497519   T   T   T
  0.5638399613882470  0.3483382388361952  0.3552314662850284   T   T   T
  0.4113833109797621  0.5402079940536760  0.6104354625442125   T   T   T
  0.6004723203236184  0.4415464028228743  0.3049506397535750   T   T   T
  0.4553995362162512  0.5993838770976015  0.3628444770018907   T   T   T
  0.4185462678967471  0.4852947511603376  0.3402803743898686   T   T   T
  0.6622772289387346  0.4287132116565801  0.6039603381366249   T   T   T
  0.6747896506201447  0.5763929297341185  0.5646756623653193   T   T   T
  0.5265636118824298  0.5088929929699880  0.3276271912140757   T   T   T
  0.5648648631397831  0.3571540318592377  0.4691324633837775   T   T   T
  0.3161178665114726  0.5417699030389028  0.4915350229354668   T   T   T
  0.6596341885420378  0.4295432410769847  0.4168410615385427   T   T   T
  0.5660841929594156  0.6261437171197244  0.5094829013827464   F   F   F
  0.5970553234386962  0.5292970600739469  0.6892746491948022   T   T   T
  0.4703156693772473  0.6416810705094245  0.5886599865496359   T   T   T
  0.4627277749747259  0.6035885107084488  0.4640096220015511   T   T   T
  0.7170936180432297  0.5738973632342006  0.3844685096070001   T   T   T
  0.5499310510395361  0.5822218838566187  0.4076968008106903   F   F   F
  0.4794126430662260  0.5072205383607624  0.4190535757241776   F   F   F
  0.6961309031168529  0.4803291612727126  0.3260711316444218   T   T   T
  0.7519042755822793  0.4287913613640325  0.4923666959980317   T   T   T
  0.7500537952415857  0.5372042659401283  0.4900794888345463   T   T   T
  0.7500919397507426  0.4865815818972154  0.5778275086062177   T   T   T
  0.6491388691930129  0.4376353579287179  0.7076525100896922   T   T   T
  0.5775678410535140  0.7428232758839409  0.4938093408844310   T   T   T
  0.6192554540844384  0.5183157687966542  0.3801816896793397   F   F   F
  0.5056330176924902  0.5595244506699273  0.6502940909108424   T   T   T
  0.4922009500451665  0.4366758245867572  0.4933013002826740   F   F   F
  0.5608844484509063  0.4404139570509003  0.6454865549417619   F   F   F
  0.5771830936943947  0.6161572234781189  0.6135977139423301   T   T   T
  0.5457343919180693  0.6163218346707144  0.3129003676275836   T   T   T
  0.6280198168564775  0.6254574406236363  0.3621708929257947   T   T   T
  0.3776862786346092  0.5558875098306684  0.4121868732964070   T   T   T
  0.4723078164089713  0.4557257050327763  0.5877273803360978   F   F   F
  0.7282830108390442  0.6333911267091556  0.4857411128173902   T   T   T
  0.5051293133329569  0.3688419307162625  0.6845220869780737   T   T   T
  0.3815035152996262  0.4416131745046773  0.6408083242771138   T   T   T
  0.5544592502646992  0.4379899399457940  0.4037542370104745   F   F   F
  0.4347323129821626  0.3638107809877251  0.6114790871953226   T   T   T
  0.5277363845133084  0.3495095654634996  0.5790231823979964   T   T   T
  0.8225370161953903  0.5148079315052380  0.5849657320768388   T   T   T
  0.8406246910100004  0.5395621028779228  0.5564116629987490   T   T   T
  0.8452671668770464  0.5009203330275305  0.6240010859209684   T   T   T
  0.8763425701676295  0.5144641197291542  0.6231222089569607   T   T   T
 
  0.00000000E+00  0.00000000E+00  0.00000000E+00
  0.00000000E+00  0.00000000E+00  0.00000000E+00
  0.00000000E+00  0.00000000E+00  0.00000000E+00
  0.00000000E+00  0.00000000E+00  0.00000000E+00
  0.00000000E+00  0.00000000E+00  0.00000000E+00
  0.00000000E+00  0.00000000E+00  0.00000000E+00
  0.00000000E+00  0.00000000E+00  0.00000000E+00
  0.00000000E+00  0.00000000E+00  0.00000000E+00
  0.00000000E+00  0.00000000E+00  0.00000000E+00
  0.00000000E+00  0.00000000E+00  0.00000000E+00
  0.00000000E+00  0.00000000E+00  0.00000000E+00
  0.00000000E+00  0.00000000E+00  0.00000000E+00
  0.00000000E+00  0.00000000E+00  0.00000000E+00
  0.00000000E+00  0.00000000E+00  0.00000000E+00
  0.00000000E+00  0.00000000E+00  0.00000000E+00
  0.00000000E+00  0.00000000E+00  0.00000000E+00
  0.00000000E+00  0.00000000E+00  0.00000000E+00
  0.00000000E+00  0.00000000E+00  0.00000000E+00
  0.00000000E+00  0.00000000E+00  0.00000000E+00
  0.00000000E+00  0.00000000E+00  0.00000000E+00
  0.00000000E+00  0.00000000E+00  0.00000000E+00
  0.00000000E+00  0.00000000E+00  0.00000000E+00
  0.00000000E+00  0.00000000E+00  0.00000000E+00
  0.00000000E+00  0.00000000E+00  0.00000000E+00
  0.00000000E+00  0.00000000E+00  0.00000000E+00
  0.00000000E+00  0.00000000E+00  0.00000000E+00
  0.00000000E+00  0.00000000E+00  0.00000000E+00
  0.00000000E+00  0.00000000E+00  0.00000000E+00
  0.00000000E+00  0.00000000E+00  0.00000000E+00
  0.00000000E+00  0.00000000E+00  0.00000000E+00
  0.00000000E+00  0.00000000E+00  0.00000000E+00
  0.00000000E+00  0.00000000E+00  0.00000000E+00
  0.00000000E+00  0.00000000E+00  0.00000000E+00
  0.00000000E+00  0.00000000E+00  0.00000000E+00
  0.00000000E+00  0.00000000E+00  0.00000000E+00
  0.00000000E+00  0.00000000E+00  0.00000000E+00
  0.00000000E+00  0.00000000E+00  0.00000000E+00
  0.00000000E+00  0.00000000E+00  0.00000000E+00
  0.00000000E+00  0.00000000E+00  0.00000000E+00
  0.00000000E+00  0.00000000E+00  0.00000000E+00
  0.00000000E+00  0.00000000E+00  0.00000000E+00
  0.00000000E+00  0.00000000E+00  0.00000000E+00
  0.00000000E+00  0.00000000E+00  0.00000000E+00
  0.00000000E+00  0.00000000E+00  0.00000000E+00
  0.00000000E+00  0.00000000E+00  0.00000000E+00
  0.00000000E+00  0.00000000E+00  0.00000000E+00
  0.00000000E+00  0.00000000E+00  0.00000000E+00
  0.00000000E+00  0.00000000E+00  0.00000000E+00
  0.00000000E+00  0.00000000E+00  0.00000000E+00
  0.00000000E+00  0.00000000E+00  0.00000000E+00
  0.00000000E+00  0.00000000E+00  0.00000000E+00
  0.00000000E+00  0.00000000E+00  0.00000000E+00
  0.00000000E+00  0.00000000E+00  0.00000000E+00
  0.00000000E+00  0.00000000E+00  0.00000000E+00
  0.00000000E+00  0.00000000E+00  0.00000000E+00
  0.00000000E+00  0.00000000E+00  0.00000000E+00
  0.00000000E+00  0.00000000E+00  0.00000000E+00
  0.00000000E+00  0.00000000E+00  0.00000000E+00
  0.00000000E+00  0.00000000E+00  0.00000000E+00
  0.00000000E+00  0.00000000E+00  0.00000000E+00
  0.00000000E+00  0.00000000E+00  0.00000000E+00
  0.00000000E+00  0.00000000E+00  0.00000000E+00
  0.00000000E+00  0.00000000E+00  0.00000000E+00
  0.00000000E+00  0.00000000E+00  0.00000000E+00
  0.00000000E+00  0.00000000E+00  0.00000000E+00
  0.00000000E+00  0.00000000E+00  0.00000000E+00
  0.00000000E+00  0.00000000E+00  0.00000000E+00
  0.00000000E+00  0.00000000E+00  0.00000000E+00
  0.00000000E+00  0.00000000E+00  0.00000000E+00
  0.00000000E+00  0.00000000E+00  0.00000000E+00
  0.00000000E+00  0.00000000E+00  0.00000000E+00
  0.00000000E+00  0.00000000E+00  0.00000000E+00
