Bi La Sn C  O  H                        
   1.00000000000000     
    29.0000000000000000    0.0000000000000000    0.0000000000000000
     0.2488180851000000   28.9989325590000000    0.0000000000000000
    -0.0631677343000000   -0.4515975666000000   28.9964147692999994
   Bi   La   Sn   C    O    H 
    22    23    23     1     2     1
Selective dynamics
Direct
  0.7608411692524533  0.4760562886952625  0.3987243991866742   T   T   T
  0.6474785428541231  0.6869740600438362  0.5490704674777408   T   T   T
  0.3598225736764304  0.4587751677542330  0.4275058904978484   T   T   T
  0.5524821172929967  0.7136933322914510  0.5828348812729055   T   T   T
  0.5915029568994470  0.5209714444905416  0.5841479689498996   F   F   F
  0.6389241153243354  0.6797142122871594  0.4438392259712097   T   T   T
  0.6925150736324489  0.5183751869290205  0.6535203302161464   T   T   T
  0.4872553817523722  0.7012716977499827  0.4978288392685414   T   T   T
  0.5004839460855024  0.5502791173970252  0.5477141156400123   F   F   F
  0.3278322599761758  0.4851114102333419  0.5781637001367639   T   T   T
  0.3828469096617383  0.6091213472205694  0.5378106094419360   T   T   T
  0.6667129484492236  0.4827404655721850  0.5105018184570156   F   F   F
  0.5763997220267569  0.4263140504383500  0.5448328182496311   F   F   F
  0.6679992601584603  0.3740297069751055  0.5067370695945597   T   T   T
  0.4603271464672380  0.3375410132909524  0.4942654510961036   T   T   T
  0.6484934028780529  0.5775373212088155  0.4602701624361103   F   F   F
  0.5539328348160628  0.4312677621176552  0.7495271241665531   T   T   T
  0.5910199563800850  0.3481846823399331  0.6664818173561070   T   T   T
  0.4929279371898938  0.3006572451701317  0.4047015967050822   T   T   T
  0.6598288183015227  0.6135654018118947  0.6706546825391484   T   T   T
  0.4920452758230647  0.4105829494035138  0.3053147271928228   T   T   T
  0.6192093291952245  0.3160437776088542  0.5718318410247862   T   T   T
  0.5384429405360540  0.6833845969505046  0.4026857343211789   T   T   T
  0.3896624149976133  0.4156194030358447  0.5252421285141570   T   T   T
  0.6295556541825769  0.5510446690684361  0.2827175769347824   T   T   T
  0.4733615136478138  0.4804798408839934  0.6927553365896822   T   T   T
  0.5683115009887700  0.5094300495444983  0.4784716241115703   F   F   F
  0.4203210565129183  0.5084107200613417  0.5018573595042781   F   F   F
  0.4520882382034031  0.4019830169430011  0.4048633925413742   T   T   T
  0.5652933601437867  0.3501510936542221  0.3518398007371779   T   T   T
  0.4131223650120385  0.5392480962883829  0.6119706039646083   T   T   T
  0.5986957467789082  0.4424740369272785  0.3046317049445517   T   T   T
  0.4547050643733163  0.5999834066391984  0.3632214083594674   T   T   T
  0.4187709239909093  0.4879573035317225  0.3396450770393823   T   T   T
  0.6607873916636280  0.4249143656400703  0.6044887285622184   T   T   T
  0.6779186374606392  0.5814054300162783  0.5650877757593820   T   T   T
  0.5260523730419859  0.5096986749721436  0.3276986114932169   T   T   T
  0.5647374135556983  0.3565467159945669  0.4691229982578508   T   T   T
  0.3162197167265408  0.5402733462537931  0.4938093273351365   T   T   T
  0.6599513625049032  0.4292378067229966  0.4156569858734354   T   T   T
  0.5660841929594156  0.6261437171197244  0.5094829013827464   F   F   F
  0.5937094956979084  0.5257481784546287  0.6915688375723612   T   T   T
  0.4712472000575264  0.6432070974311856  0.5872393679969620   T   T   T
  0.4618094457723770  0.6032570139556040  0.4639601250759801   T   T   T
  0.7161703318324877  0.5714849886903564  0.3817557662044083   T   T   T
  0.5499310510395361  0.5822218838566187  0.4076968008106903   F   F   F
  0.4794126430662260  0.5072205383607624  0.4190535757241776   F   F   F
  0.6954112656767963  0.4783059760834015  0.3243687760372723   T   T   T
  0.7514524211877286  0.4281561015011142  0.4875533969110704   T   T   T
  0.7486551087603638  0.5370909628143907  0.4833595589981203   T   T   T
  0.7483573426243170  0.4898082490840282  0.5710350782617372   T   T   T
  0.6437094618736546  0.4304822780997742  0.7083719044135290   T   T   T
  0.5766978328280709  0.7439676942042902  0.4903757372012787   T   T   T
  0.6192554540844384  0.5183157687966542  0.3801816896793397   F   F   F
  0.5074291331040597  0.5655078944628432  0.6498449324696235   T   T   T
  0.4922009500451665  0.4366758245867572  0.4933013002826740   F   F   F
  0.5608844484509063  0.4404139570509003  0.6454865549417619   F   F   F
  0.5805254646523386  0.6174671607315074  0.6133771436704778   T   T   T
  0.5449587512381265  0.6169041230395997  0.3121381058291490   T   T   T
  0.6279587093335323  0.6243887307122050  0.3599061058584776   T   T   T
  0.3759280288757909  0.5571722263447735  0.4133268890528822   T   T   T
  0.4723078164089713  0.4557257050327763  0.5877273803360978   F   F   F
  0.7278637002491166  0.6344989339493614  0.4790792414311480   T   T   T
  0.4917326951555425  0.3774540156312298  0.6765214526270625   T   T   T
  0.3875516719928778  0.4368155590815245  0.6403988423983814   T   T   T
  0.5544592502646992  0.4379899399457940  0.4037542370104745   F   F   F
  0.4297281491412490  0.3554554090602761  0.6013090611770948   T   T   T
  0.5245490145276491  0.3495432415851069  0.5746411400056890   T   T   T
  0.7331972411971783  0.6438751322413716  0.5885524044763925   T   T   T
  0.7581359670747301  0.6084095781949047  0.5925546919908016   T   T   T
  0.7514346069941872  0.6859968060834594  0.5981669284802759   T   T   T
  0.7839465060044366  0.6813408636176239  0.6073034726511302   T   T   T
 
  0.00000000E+00  0.00000000E+00  0.00000000E+00
  0.00000000E+00  0.00000000E+00  0.00000000E+00
  0.00000000E+00  0.00000000E+00  0.00000000E+00
  0.00000000E+00  0.00000000E+00  0.00000000E+00
  0.00000000E+00  0.00000000E+00  0.00000000E+00
  0.00000000E+00  0.00000000E+00  0.00000000E+00
  0.00000000E+00  0.00000000E+00  0.00000000E+00
  0.00000000E+00  0.00000000E+00  0.00000000E+00
  0.00000000E+00  0.00000000E+00  0.00000000E+00
  0.00000000E+00  0.00000000E+00  0.00000000E+00
  0.00000000E+00  0.00000000E+00  0.00000000E+00
  0.00000000E+00  0.00000000E+00  0.00000000E+00
  0.00000000E+00  0.00000000E+00  0.00000000E+00
  0.00000000E+00  0.00000000E+00  0.00000000E+00
  0.00000000E+00  0.00000000E+00  0.00000000E+00
  0.00000000E+00  0.00000000E+00  0.00000000E+00
  0.00000000E+00  0.00000000E+00  0.00000000E+00
  0.00000000E+00  0.00000000E+00  0.00000000E+00
  0.00000000E+00  0.00000000E+00  0.00000000E+00
  0.00000000E+00  0.00000000E+00  0.00000000E+00
  0.00000000E+00  0.00000000E+00  0.00000000E+00
  0.00000000E+00  0.00000000E+00  0.00000000E+00
  0.00000000E+00  0.00000000E+00  0.00000000E+00
  0.00000000E+00  0.00000000E+00  0.00000000E+00
  0.00000000E+00  0.00000000E+00  0.00000000E+00
  0.00000000E+00  0.00000000E+00  0.00000000E+00
  0.00000000E+00  0.00000000E+00  0.00000000E+00
  0.00000000E+00  0.00000000E+00  0.00000000E+00
  0.00000000E+00  0.00000000E+00  0.00000000E+00
  0.00000000E+00  0.00000000E+00  0.00000000E+00
  0.00000000E+00  0.00000000E+00  0.00000000E+00
  0.00000000E+00  0.00000000E+00  0.00000000E+00
  0.00000000E+00  0.00000000E+00  0.00000000E+00
  0.00000000E+00  0.00000000E+00  0.00000000E+00
  0.00000000E+00  0.00000000E+00  0.00000000E+00
  0.00000000E+00  0.00000000E+00  0.00000000E+00
  0.00000000E+00  0.00000000E+00  0.00000000E+00
  0.00000000E+00  0.00000000E+00  0.00000000E+00
  0.00000000E+00  0.00000000E+00  0.00000000E+00
  0.00000000E+00  0.00000000E+00  0.00000000E+00
  0.00000000E+00  0.00000000E+00  0.00000000E+00
  0.00000000E+00  0.00000000E+00  0.00000000E+00
  0.00000000E+00  0.00000000E+00  0.00000000E+00
  0.00000000E+00  0.00000000E+00  0.00000000E+00
  0.00000000E+00  0.00000000E+00  0.00000000E+00
  0.00000000E+00  0.00000000E+00  0.00000000E+00
  0.00000000E+00  0.00000000E+00  0.00000000E+00
  0.00000000E+00  0.00000000E+00  0.00000000E+00
  0.00000000E+00  0.00000000E+00  0.00000000E+00
  0.00000000E+00  0.00000000E+00  0.00000000E+00
  0.00000000E+00  0.00000000E+00  0.00000000E+00
  0.00000000E+00  0.00000000E+00  0.00000000E+00
  0.00000000E+00  0.00000000E+00  0.00000000E+00
  0.00000000E+00  0.00000000E+00  0.00000000E+00
  0.00000000E+00  0.00000000E+00  0.00000000E+00
  0.00000000E+00  0.00000000E+00  0.00000000E+00
  0.00000000E+00  0.00000000E+00  0.00000000E+00
  0.00000000E+00  0.00000000E+00  0.00000000E+00
  0.00000000E+00  0.00000000E+00  0.00000000E+00
  0.00000000E+00  0.00000000E+00  0.00000000E+00
  0.00000000E+00  0.00000000E+00  0.00000000E+00
  0.00000000E+00  0.00000000E+00  0.00000000E+00
  0.00000000E+00  0.00000000E+00  0.00000000E+00
  0.00000000E+00  0.00000000E+00  0.00000000E+00
  0.00000000E+00  0.00000000E+00  0.00000000E+00
  0.00000000E+00  0.00000000E+00  0.00000000E+00
  0.00000000E+00  0.00000000E+00  0.00000000E+00
  0.00000000E+00  0.00000000E+00  0.00000000E+00
  0.00000000E+00  0.00000000E+00  0.00000000E+00
  0.00000000E+00  0.00000000E+00  0.00000000E+00
  0.00000000E+00  0.00000000E+00  0.00000000E+00
  0.00000000E+00  0.00000000E+00  0.00000000E+00
