Bi La Sn C  O  H                        
   1.00000000000000     
    29.0000000000000000    0.0000000000000000    0.0000000000000000
     0.2488180851000000   28.9989325590000000    0.0000000000000000
    -0.0631677343000000   -0.4515975666000000   28.9964147692999994
   Bi   La   Sn   C    O    H 
    22    23    23     1     2     1
Selective dynamics
Direct
  0.7590851028419781  0.4780903403655645  0.3989184646561961   T   T   T
  0.6467567644376667  0.6846079401904259  0.5518122102991551   T   T   T
  0.3595704152561420  0.4592007447089588  0.4281045144371471   T   T   T
  0.5505300784622679  0.7131332881307443  0.5844848968710740   T   T   T
  0.5915029568994470  0.5209714444905416  0.5841479689498996   F   F   F
  0.6401962919186062  0.6801725377455389  0.4456887276707903   T   T   T
  0.6963296491349448  0.5221410735688338  0.6538817119800028   T   T   T
  0.4864629498949634  0.7007696101936095  0.5001354379068415   T   T   T
  0.5004839460855024  0.5502791173970252  0.5477141156400123   F   F   F
  0.3249474579170164  0.4872417954806560  0.5750790461282118   T   T   T
  0.3824079780253159  0.6106409854964052  0.5355291892494541   T   T   T
  0.6667129484492236  0.4827404655721850  0.5105018184570156   F   F   F
  0.5763997220267569  0.4263140504383500  0.5448328182496311   F   F   F
  0.6671629978532271  0.3745712745266118  0.5074267547114976   T   T   T
  0.4628067691291122  0.3390742815869187  0.5020322795699079   T   T   T
  0.6484934028780529  0.5775373212088155  0.4602701624361103   F   F   F
  0.5575652867874016  0.4391515171473837  0.7493960398377730   T   T   T
  0.6043016224275447  0.3519840759600114  0.6688920951850085   T   T   T
  0.4926708509469228  0.2983053356732326  0.4085846708021183   T   T   T
  0.6607467524604603  0.6185572188641557  0.6660226026620002   T   T   T
  0.4909535535483370  0.4107480669694076  0.3077865471262303   T   T   T
  0.6216598988899675  0.3155070126163657  0.5729584993844896   T   T   T
  0.5387413859632949  0.6835329682771689  0.4046403613113995   T   T   T
  0.3898854412293398  0.4169194930803963  0.5271037237896938   T   T   T
  0.6287401384085101  0.5525174722234132  0.2826288976117455   T   T   T
  0.4712288382364643  0.4708588796918811  0.6917229957739532   T   T   T
  0.5683115009887700  0.5094300495444983  0.4784716241115703   F   F   F
  0.4203210565129183  0.5084107200613417  0.5018573595042781   F   F   F
  0.4517867152018005  0.4001442925035505  0.4078713805066391   T   T   T
  0.5640060646267655  0.3493228874750671  0.3521229098752486   T   T   T
  0.4111959807621910  0.5401992747666641  0.6098844340943628   T   T   T
  0.5979530332041347  0.4424481892606828  0.3044989250156138   T   T   T
  0.4549374251580802  0.6008050006999165  0.3639070193947102   T   T   T
  0.4178022682656581  0.4877227838413195  0.3403798228131982   T   T   T
  0.6612422838001966  0.4292457157215681  0.6050564590357874   T   T   T
  0.6734904820644133  0.5785329558286324  0.5637816393739057   T   T   T
  0.5260740550813034  0.5099469904111164  0.3279367120621430   T   T   T
  0.5649646560395910  0.3568322086912880  0.4686721714120913   T   T   T
  0.3153735017376957  0.5427422796715531  0.4914382026138581   T   T   T
  0.6598668257792905  0.4290412534547335  0.4155840355443569   T   T   T
  0.5660841929594156  0.6261437171197244  0.5094829013827464   F   F   F
  0.5962531048732034  0.5290585563370853  0.6896136176022997   T   T   T
  0.4702472208253532  0.6414524012273962  0.5890202820338125   T   T   T
  0.4627604099730484  0.6030979844516688  0.4637526492345064   T   T   T
  0.7160417689828557  0.5737034297349801  0.3827695776310500   T   T   T
  0.5499310510395361  0.5822218838566187  0.4076968008106903   F   F   F
  0.4794126430662260  0.5072205383607624  0.4190535757241776   F   F   F
  0.6945308974703234  0.4799152906544173  0.3242225453424412   T   T   T
  0.7511488389236477  0.4294193949095074  0.4879669019638769   T   T   T
  0.7484513584837408  0.5378738255860263  0.4846640832890513   T   T   T
  0.7491718025569418  0.4911493193400315  0.5725431424981932   T   T   T
  0.6480065581644681  0.4373610503764592  0.7099488664833212   T   T   T
  0.5770332540812703  0.7431975595789400  0.4930661300669023   T   T   T
  0.6192554540844384  0.5183157687966542  0.3801816896793397   F   F   F
  0.5054804388631936  0.5590964729757278  0.6498802955017944   T   T   T
  0.4922009500451665  0.4366758245867572  0.4933013002826740   F   F   F
  0.5608844484509063  0.4404139570509003  0.6454865549417619   F   F   F
  0.5775869380345799  0.6163499866017522  0.6137481074323904   T   T   T
  0.5439379127521948  0.6175131637609605  0.3121516866185353   T   T   T
  0.6268139055063315  0.6252342130127114  0.3608378200554923   T   T   T
  0.3766598840792003  0.5578909520027836  0.4128439263426935   T   T   T
  0.4723078164089713  0.4557257050327763  0.5877273803360978   F   F   F
  0.7276717962504666  0.6347449884086674  0.4842479355164518   T   T   T
  0.5039912637859576  0.3679125105959557  0.6850905748903494   T   T   T
  0.3810719279878646  0.4408409370476096  0.6395522660890118   T   T   T
  0.5544592502646992  0.4379899399457940  0.4037542370104745   F   F   F
  0.4345434442804125  0.3628706020786132  0.6097472399117109   T   T   T
  0.5286950156525957  0.3493931530344616  0.5809838554335433   T   T   T
  0.4644702623817507  0.2327555066298930  0.3689315304170876   T   T   T
  0.4756279823162660  0.1926370130297411  0.3744675974321954   T   T   T
  0.4286972642910283  0.2458084313445972  0.3404048110406939   T   T   T
  0.4160190303942045  0.2168957860095178  0.3274313402320831   T   T   T
 
  0.00000000E+00  0.00000000E+00  0.00000000E+00
  0.00000000E+00  0.00000000E+00  0.00000000E+00
  0.00000000E+00  0.00000000E+00  0.00000000E+00
  0.00000000E+00  0.00000000E+00  0.00000000E+00
  0.00000000E+00  0.00000000E+00  0.00000000E+00
  0.00000000E+00  0.00000000E+00  0.00000000E+00
  0.00000000E+00  0.00000000E+00  0.00000000E+00
  0.00000000E+00  0.00000000E+00  0.00000000E+00
  0.00000000E+00  0.00000000E+00  0.00000000E+00
  0.00000000E+00  0.00000000E+00  0.00000000E+00
  0.00000000E+00  0.00000000E+00  0.00000000E+00
  0.00000000E+00  0.00000000E+00  0.00000000E+00
  0.00000000E+00  0.00000000E+00  0.00000000E+00
  0.00000000E+00  0.00000000E+00  0.00000000E+00
  0.00000000E+00  0.00000000E+00  0.00000000E+00
  0.00000000E+00  0.00000000E+00  0.00000000E+00
  0.00000000E+00  0.00000000E+00  0.00000000E+00
  0.00000000E+00  0.00000000E+00  0.00000000E+00
  0.00000000E+00  0.00000000E+00  0.00000000E+00
  0.00000000E+00  0.00000000E+00  0.00000000E+00
  0.00000000E+00  0.00000000E+00  0.00000000E+00
  0.00000000E+00  0.00000000E+00  0.00000000E+00
  0.00000000E+00  0.00000000E+00  0.00000000E+00
  0.00000000E+00  0.00000000E+00  0.00000000E+00
  0.00000000E+00  0.00000000E+00  0.00000000E+00
  0.00000000E+00  0.00000000E+00  0.00000000E+00
  0.00000000E+00  0.00000000E+00  0.00000000E+00
  0.00000000E+00  0.00000000E+00  0.00000000E+00
  0.00000000E+00  0.00000000E+00  0.00000000E+00
  0.00000000E+00  0.00000000E+00  0.00000000E+00
  0.00000000E+00  0.00000000E+00  0.00000000E+00
  0.00000000E+00  0.00000000E+00  0.00000000E+00
  0.00000000E+00  0.00000000E+00  0.00000000E+00
  0.00000000E+00  0.00000000E+00  0.00000000E+00
  0.00000000E+00  0.00000000E+00  0.00000000E+00
  0.00000000E+00  0.00000000E+00  0.00000000E+00
  0.00000000E+00  0.00000000E+00  0.00000000E+00
  0.00000000E+00  0.00000000E+00  0.00000000E+00
  0.00000000E+00  0.00000000E+00  0.00000000E+00
  0.00000000E+00  0.00000000E+00  0.00000000E+00
  0.00000000E+00  0.00000000E+00  0.00000000E+00
  0.00000000E+00  0.00000000E+00  0.00000000E+00
  0.00000000E+00  0.00000000E+00  0.00000000E+00
  0.00000000E+00  0.00000000E+00  0.00000000E+00
  0.00000000E+00  0.00000000E+00  0.00000000E+00
  0.00000000E+00  0.00000000E+00  0.00000000E+00
  0.00000000E+00  0.00000000E+00  0.00000000E+00
  0.00000000E+00  0.00000000E+00  0.00000000E+00
  0.00000000E+00  0.00000000E+00  0.00000000E+00
  0.00000000E+00  0.00000000E+00  0.00000000E+00
  0.00000000E+00  0.00000000E+00  0.00000000E+00
  0.00000000E+00  0.00000000E+00  0.00000000E+00
  0.00000000E+00  0.00000000E+00  0.00000000E+00
  0.00000000E+00  0.00000000E+00  0.00000000E+00
  0.00000000E+00  0.00000000E+00  0.00000000E+00
  0.00000000E+00  0.00000000E+00  0.00000000E+00
  0.00000000E+00  0.00000000E+00  0.00000000E+00
  0.00000000E+00  0.00000000E+00  0.00000000E+00
  0.00000000E+00  0.00000000E+00  0.00000000E+00
  0.00000000E+00  0.00000000E+00  0.00000000E+00
  0.00000000E+00  0.00000000E+00  0.00000000E+00
  0.00000000E+00  0.00000000E+00  0.00000000E+00
  0.00000000E+00  0.00000000E+00  0.00000000E+00
  0.00000000E+00  0.00000000E+00  0.00000000E+00
  0.00000000E+00  0.00000000E+00  0.00000000E+00
  0.00000000E+00  0.00000000E+00  0.00000000E+00
  0.00000000E+00  0.00000000E+00  0.00000000E+00
  0.00000000E+00  0.00000000E+00  0.00000000E+00
  0.00000000E+00  0.00000000E+00  0.00000000E+00
  0.00000000E+00  0.00000000E+00  0.00000000E+00
  0.00000000E+00  0.00000000E+00  0.00000000E+00
  0.00000000E+00  0.00000000E+00  0.00000000E+00
