Bi La Sn C  O  H                        
   1.00000000000000     
    29.0000000000000000    0.0000000000000000    0.0000000000000000
     0.2488180851000000   28.9989325590000000    0.0000000000000000
    -0.0631677343000000   -0.4515975666000000   28.9964147692999994
   Bi   La   Sn   C    O    H 
    22    23    23     1     2     1
Selective dynamics
Direct
  0.7588877145174024  0.4793857175598092  0.3997002314401725   T   T   T
  0.6478845814586317  0.6859729359148462  0.5489212926416351   T   T   T
  0.3592976021282663  0.4576770431616529  0.4284205704942092   T   T   T
  0.5510912892524440  0.7139117454536524  0.5830640879793104   T   T   T
  0.5915029568994470  0.5209714444905416  0.5841479689498996   F   F   F
  0.6401359923624401  0.6791963135821176  0.4435533831985913   T   T   T
  0.6883056666241641  0.5169222343887486  0.6481225938783322   T   T   T
  0.4870101564753747  0.7015899755075128  0.4975859943030081   T   T   T
  0.5004839460855024  0.5502791173970252  0.5477141156400123   F   F   F
  0.3287351573984668  0.4849470043807952  0.5789023307211687   T   T   T
  0.3821872260322792  0.6082102148562003  0.5382270867626905   T   T   T
  0.6667129484492236  0.4827404655721850  0.5105018184570156   F   F   F
  0.5763997220267569  0.4263140504383500  0.5448328182496311   F   F   F
  0.6683681670237811  0.3714466885438627  0.5037501609589561   T   T   T
  0.4606721632228775  0.3373028661104081  0.4944895471530444   T   T   T
  0.6484934028780529  0.5775373212088155  0.4602701624361103   F   F   F
  0.5540455010674488  0.4315452411249696  0.7497277990539633   T   T   T
  0.5909638888480355  0.3476301627976953  0.6666341552726630   T   T   T
  0.4931759988720047  0.3005900756620818  0.4050501107389842   T   T   T
  0.6596495119246766  0.6138771930659204  0.6693606813473366   T   T   T
  0.4927265357312277  0.4093041332815118  0.3057974776346409   T   T   T
  0.6202365371499161  0.3153709499320203  0.5719131614433534   T   T   T
  0.5391176106423802  0.6833799550757313  0.4033657699752649   T   T   T
  0.3897666427195531  0.4147085085504860  0.5259053694927806   T   T   T
  0.6280536546698403  0.5515982959248200  0.2822171251614642   T   T   T
  0.4737583983963619  0.4812864576673290  0.6923206137337381   T   T   T
  0.5683115009887700  0.5094300495444983  0.4784716241115703   F   F   F
  0.4203210565129183  0.5084107200613417  0.5018573595042781   F   F   F
  0.4522344902579857  0.4017160503268516  0.4052655782867339   T   T   T
  0.5663000440625068  0.3494650379642193  0.3530375956380839   T   T   T
  0.4137855165917337  0.5391505092801530  0.6129013212685228   T   T   T
  0.5995773441122645  0.4415046851516742  0.3047391034832860   T   T   T
  0.4544844828053519  0.5989167156451182  0.3638303191314333   T   T   T
  0.4185189009146849  0.4862399984428294  0.3405993053180771   T   T   T
  0.6599679843067340  0.4203950099239931  0.6032180142074024   T   T   T
  0.6737143559675729  0.5803815142997182  0.5633172828429752   T   T   T
  0.5258774732304048  0.5089195113773316  0.3277956812603424   T   T   T
  0.5649503485654190  0.3564051621814865  0.4694031428562558   T   T   T
  0.3159618513215552  0.5391510698441254  0.4939738384577056   T   T   T
  0.6596762661170907  0.4295634419511088  0.4147888360532448   T   T   T
  0.5660841929594156  0.6261437171197244  0.5094829013827464   F   F   F
  0.5927501782092534  0.5260963025788485  0.6930165966342215   T   T   T
  0.4706333739183265  0.6433323543076627  0.5868809046367559   T   T   T
  0.4614455493569071  0.6033978515799119  0.4642419163756184   T   T   T
  0.7156733919209847  0.5742315704549502  0.3830904172189246   T   T   T
  0.5499310510395361  0.5822218838566187  0.4076968008106903   F   F   F
  0.4794126430662260  0.5072205383607624  0.4190535757241776   F   F   F
  0.6954038842726945  0.4804161027609316  0.3237698412958154   T   T   T
  0.7507175402490665  0.4269237457571758  0.4859473798729007   T   T   T
  0.7484063389802490  0.5389181965887977  0.4860757018408026   T   T   T
  0.7492621887881851  0.4856933441173538  0.5702837044151147   T   T   T
  0.6436988004611764  0.4304034696257388  0.7076572508395060   T   T   T
  0.5778395124763785  0.7432820456472008  0.4917777159201360   T   T   T
  0.6192554540844384  0.5183157687966542  0.3801816896793397   F   F   F
  0.5078245018970288  0.5669305573406005  0.6499696412929451   T   T   T
  0.4922009500451665  0.4366758245867572  0.4933013002826740   F   F   F
  0.5608844484509063  0.4404139570509003  0.6454865549417619   F   F   F
  0.5800223804120866  0.6183273538951004  0.6129423084366318   T   T   T
  0.5431185491355933  0.6164453436250915  0.3116479601233988   T   T   T
  0.6262305667242920  0.6247372605154704  0.3590999139740009   T   T   T
  0.3753113637597587  0.5565645039942615  0.4133381548450615   T   T   T
  0.4723078164089713  0.4557257050327763  0.5877273803360978   F   F   F
  0.7275622060921833  0.6356470205584600  0.4838578728576011   T   T   T
  0.4921265544481461  0.3778930102337937  0.6777253293320847   T   T   T
  0.3878851696162864  0.4367116695698626  0.6416797673497202   T   T   T
  0.5544592502646992  0.4379899399457940  0.4037542370104745   F   F   F
  0.4312961848657989  0.3559169641374999  0.6021593269455573   T   T   T
  0.5255827210171061  0.3488325178797805  0.5746725123879355   T   T   T
  0.7457498505287071  0.5302051908040379  0.7038408814871451   T   T   T
  0.7603190810477347  0.5678706487611673  0.7156092503000445   T   T   T
  0.7600437601673546  0.4895883730085313  0.7232817451864247   T   T   T
  0.7830052537577510  0.4977214881079067  0.7471621960630298   T   T   T
 
  0.00000000E+00  0.00000000E+00  0.00000000E+00
  0.00000000E+00  0.00000000E+00  0.00000000E+00
  0.00000000E+00  0.00000000E+00  0.00000000E+00
  0.00000000E+00  0.00000000E+00  0.00000000E+00
  0.00000000E+00  0.00000000E+00  0.00000000E+00
  0.00000000E+00  0.00000000E+00  0.00000000E+00
  0.00000000E+00  0.00000000E+00  0.00000000E+00
  0.00000000E+00  0.00000000E+00  0.00000000E+00
  0.00000000E+00  0.00000000E+00  0.00000000E+00
  0.00000000E+00  0.00000000E+00  0.00000000E+00
  0.00000000E+00  0.00000000E+00  0.00000000E+00
  0.00000000E+00  0.00000000E+00  0.00000000E+00
  0.00000000E+00  0.00000000E+00  0.00000000E+00
  0.00000000E+00  0.00000000E+00  0.00000000E+00
  0.00000000E+00  0.00000000E+00  0.00000000E+00
  0.00000000E+00  0.00000000E+00  0.00000000E+00
  0.00000000E+00  0.00000000E+00  0.00000000E+00
  0.00000000E+00  0.00000000E+00  0.00000000E+00
  0.00000000E+00  0.00000000E+00  0.00000000E+00
  0.00000000E+00  0.00000000E+00  0.00000000E+00
  0.00000000E+00  0.00000000E+00  0.00000000E+00
  0.00000000E+00  0.00000000E+00  0.00000000E+00
  0.00000000E+00  0.00000000E+00  0.00000000E+00
  0.00000000E+00  0.00000000E+00  0.00000000E+00
  0.00000000E+00  0.00000000E+00  0.00000000E+00
  0.00000000E+00  0.00000000E+00  0.00000000E+00
  0.00000000E+00  0.00000000E+00  0.00000000E+00
  0.00000000E+00  0.00000000E+00  0.00000000E+00
  0.00000000E+00  0.00000000E+00  0.00000000E+00
  0.00000000E+00  0.00000000E+00  0.00000000E+00
  0.00000000E+00  0.00000000E+00  0.00000000E+00
  0.00000000E+00  0.00000000E+00  0.00000000E+00
  0.00000000E+00  0.00000000E+00  0.00000000E+00
  0.00000000E+00  0.00000000E+00  0.00000000E+00
  0.00000000E+00  0.00000000E+00  0.00000000E+00
  0.00000000E+00  0.00000000E+00  0.00000000E+00
  0.00000000E+00  0.00000000E+00  0.00000000E+00
  0.00000000E+00  0.00000000E+00  0.00000000E+00
  0.00000000E+00  0.00000000E+00  0.00000000E+00
  0.00000000E+00  0.00000000E+00  0.00000000E+00
  0.00000000E+00  0.00000000E+00  0.00000000E+00
  0.00000000E+00  0.00000000E+00  0.00000000E+00
  0.00000000E+00  0.00000000E+00  0.00000000E+00
  0.00000000E+00  0.00000000E+00  0.00000000E+00
  0.00000000E+00  0.00000000E+00  0.00000000E+00
  0.00000000E+00  0.00000000E+00  0.00000000E+00
  0.00000000E+00  0.00000000E+00  0.00000000E+00
  0.00000000E+00  0.00000000E+00  0.00000000E+00
  0.00000000E+00  0.00000000E+00  0.00000000E+00
  0.00000000E+00  0.00000000E+00  0.00000000E+00
  0.00000000E+00  0.00000000E+00  0.00000000E+00
  0.00000000E+00  0.00000000E+00  0.00000000E+00
  0.00000000E+00  0.00000000E+00  0.00000000E+00
  0.00000000E+00  0.00000000E+00  0.00000000E+00
  0.00000000E+00  0.00000000E+00  0.00000000E+00
  0.00000000E+00  0.00000000E+00  0.00000000E+00
  0.00000000E+00  0.00000000E+00  0.00000000E+00
  0.00000000E+00  0.00000000E+00  0.00000000E+00
  0.00000000E+00  0.00000000E+00  0.00000000E+00
  0.00000000E+00  0.00000000E+00  0.00000000E+00
  0.00000000E+00  0.00000000E+00  0.00000000E+00
  0.00000000E+00  0.00000000E+00  0.00000000E+00
  0.00000000E+00  0.00000000E+00  0.00000000E+00
  0.00000000E+00  0.00000000E+00  0.00000000E+00
  0.00000000E+00  0.00000000E+00  0.00000000E+00
  0.00000000E+00  0.00000000E+00  0.00000000E+00
  0.00000000E+00  0.00000000E+00  0.00000000E+00
  0.00000000E+00  0.00000000E+00  0.00000000E+00
  0.00000000E+00  0.00000000E+00  0.00000000E+00
  0.00000000E+00  0.00000000E+00  0.00000000E+00
  0.00000000E+00  0.00000000E+00  0.00000000E+00
  0.00000000E+00  0.00000000E+00  0.00000000E+00
