Bi La Sn C  O  H                        
   1.00000000000000     
    29.0000000000000000    0.0000000000000000    0.0000000000000000
     0.2488180851000000   28.9989325590000000    0.0000000000000000
    -0.0631677343000000   -0.4515975666000000   28.9964147692999994
   Bi   La   Sn   C    O    H 
    22    23    23     1     2     1
Selective dynamics
Direct
  0.7595407954867855  0.4789335969037408  0.3995660952472022   T   T   T
  0.6471050324587702  0.6845064118388646  0.5510004591748642   T   T   T
  0.3615304469748572  0.4584629270718026  0.4261305294415900   T   T   T
  0.5502510976289213  0.7132261182489356  0.5841051096996484   T   T   T
  0.5915029568994470  0.5209714444905416  0.5841479689498996   F   F   F
  0.6402702808384412  0.6797828133985703  0.4451309169551799   T   T   T
  0.6951112281742334  0.5219801087517670  0.6543661795041990   T   T   T
  0.4871669445210988  0.7015038392887203  0.4989467835370625   T   T   T
  0.5004839460855024  0.5502791173970252  0.5477141156400123   F   F   F
  0.3255738880073298  0.4858461244495251  0.5761550082554668   T   T   T
  0.3817326404477436  0.6094202006142370  0.5355055869962538   T   T   T
  0.6667129484492236  0.4827404655721850  0.5105018184570156   F   F   F
  0.5763997220267569  0.4263140504383500  0.5448328182496311   F   F   F
  0.6677005521711253  0.3739143853103961  0.5081146210267802   T   T   T
  0.4620561748475042  0.3391830974018764  0.4988738613666430   T   T   T
  0.6484934028780529  0.5775373212088155  0.4602701624361103   F   F   F
  0.5566766020919374  0.4364106151574094  0.7496605515881842   T   T   T
  0.6039705563103890  0.3490989161551173  0.6743162366676014   T   T   T
  0.4922559820767534  0.2981461377523835  0.4097570516073537   T   T   T
  0.6593331837412856  0.6175128570259314  0.6673719705797070   T   T   T
  0.4916110900119021  0.4103840856918706  0.3047096880606887   T   T   T
  0.6222561439094054  0.3166619975484401  0.5765789165937670   T   T   T
  0.5396256354284679  0.6833942209910410  0.4042272577449812   T   T   T
  0.3890134581220460  0.4165859654816934  0.5251374726129570   T   T   T
  0.6266942764131734  0.5511918978227064  0.2816983893410567   T   T   T
  0.4723670462323140  0.4746375095610990  0.6923076327753542   T   T   T
  0.5683115009887700  0.5094300495444983  0.4784716241115703   F   F   F
  0.4203210565129183  0.5084107200613417  0.5018573595042781   F   F   F
  0.4531320303341822  0.4008026037773048  0.4053198175884444   T   T   T
  0.5615726320397636  0.3490943370088982  0.3533957188545914   T   T   T
  0.4115092891073163  0.5394926251287354  0.6105030948551980   T   T   T
  0.6004730181850699  0.4393760718325326  0.3060990998183325   T   T   T
  0.4551416272180921  0.6005647080545405  0.3636311854753329   T   T   T
  0.4193857751022216  0.4887217376658665  0.3382135316708683   T   T   T
  0.6611403930875794  0.4268146818613679  0.6054478306706290   T   T   T
  0.6734464888914777  0.5788387012833499  0.5643580834976937   T   T   T
  0.5256211353768765  0.5093341732632579  0.3281898684998983   T   T   T
  0.5652619357649730  0.3569715720134688  0.4693165548696161   T   T   T
  0.3158203405513015  0.5399788737708886  0.4913484355965460   T   T   T
  0.6606805799181653  0.4289451348191300  0.4152836740038540   T   T   T
  0.5660841929594156  0.6261437171197244  0.5094829013827464   F   F   F
  0.5949258043599243  0.5278688274867690  0.6899799226402211   T   T   T
  0.4692438934554358  0.6422172624381620  0.5875145211473473   T   T   T
  0.4631454069257934  0.6034702198101772  0.4641397969863893   T   T   T
  0.7167682800699660  0.5746086339130243  0.3839440514526105   T   T   T
  0.5499310510395361  0.5822218838566187  0.4076968008106903   F   F   F
  0.4794126430662260  0.5072205383607624  0.4190535757241776   F   F   F
  0.6951988157534443  0.4824803276603376  0.3248135430641453   T   T   T
  0.7511805945911385  0.4291368951868816  0.4877795312302671   T   T   T
  0.7486774993374926  0.5383220708224515  0.4860557996396084   T   T   T
  0.7483219527869934  0.4899458826930376  0.5724593504892120   T   T   T
  0.6468099273893289  0.4358778903592800  0.7096942674114225   T   T   T
  0.5776817606356477  0.7436947047868762  0.4930711368300082   T   T   T
  0.6192554540844384  0.5183157687966542  0.3801816896793397   F   F   F
  0.5051604423167791  0.5622398336495553  0.6500451044003591   T   T   T
  0.4922009500451665  0.4366758245867572  0.4933013002826740   F   F   F
  0.5608844484509063  0.4404139570509003  0.6454865549417619   F   F   F
  0.5774776772669561  0.6165828641035362  0.6132827201533149   T   T   T
  0.5438060875275795  0.6168560649576712  0.3115424127096549   T   T   T
  0.6269694487816941  0.6244914465084633  0.3596993692740887   T   T   T
  0.3769280742142057  0.5571799797706911  0.4125900920103400   T   T   T
  0.4723078164089713  0.4557257050327763  0.5877273803360978   F   F   F
  0.7272390955818829  0.6352216910116903  0.4849165252868501   T   T   T
  0.5000407386318886  0.3712317559703344  0.6763459112324746   T   T   T
  0.3834793858272502  0.4389881283555727  0.6397736564051071   T   T   T
  0.5544592502646992  0.4379899399457940  0.4037542370104745   F   F   F
  0.4305372676507334  0.3603876750435923  0.6039628574352157   T   T   T
  0.5281258876008965  0.3499553213835020  0.5792377086032452   T   T   T
  0.6631062204805347  0.3170386506349908  0.7233871046913657   T   T   T
  0.6613289753906216  0.3127965005432622  0.7651405387686258   T   T   T
  0.6998353083803304  0.3005778701166459  0.6974472574467495   T   T   T
  0.7216574787493615  0.2861099092901654  0.7192185013864605   T   T   T
 
  0.00000000E+00  0.00000000E+00  0.00000000E+00
  0.00000000E+00  0.00000000E+00  0.00000000E+00
  0.00000000E+00  0.00000000E+00  0.00000000E+00
  0.00000000E+00  0.00000000E+00  0.00000000E+00
  0.00000000E+00  0.00000000E+00  0.00000000E+00
  0.00000000E+00  0.00000000E+00  0.00000000E+00
  0.00000000E+00  0.00000000E+00  0.00000000E+00
  0.00000000E+00  0.00000000E+00  0.00000000E+00
  0.00000000E+00  0.00000000E+00  0.00000000E+00
  0.00000000E+00  0.00000000E+00  0.00000000E+00
  0.00000000E+00  0.00000000E+00  0.00000000E+00
  0.00000000E+00  0.00000000E+00  0.00000000E+00
  0.00000000E+00  0.00000000E+00  0.00000000E+00
  0.00000000E+00  0.00000000E+00  0.00000000E+00
  0.00000000E+00  0.00000000E+00  0.00000000E+00
  0.00000000E+00  0.00000000E+00  0.00000000E+00
  0.00000000E+00  0.00000000E+00  0.00000000E+00
  0.00000000E+00  0.00000000E+00  0.00000000E+00
  0.00000000E+00  0.00000000E+00  0.00000000E+00
  0.00000000E+00  0.00000000E+00  0.00000000E+00
  0.00000000E+00  0.00000000E+00  0.00000000E+00
  0.00000000E+00  0.00000000E+00  0.00000000E+00
  0.00000000E+00  0.00000000E+00  0.00000000E+00
  0.00000000E+00  0.00000000E+00  0.00000000E+00
  0.00000000E+00  0.00000000E+00  0.00000000E+00
  0.00000000E+00  0.00000000E+00  0.00000000E+00
  0.00000000E+00  0.00000000E+00  0.00000000E+00
  0.00000000E+00  0.00000000E+00  0.00000000E+00
  0.00000000E+00  0.00000000E+00  0.00000000E+00
  0.00000000E+00  0.00000000E+00  0.00000000E+00
  0.00000000E+00  0.00000000E+00  0.00000000E+00
  0.00000000E+00  0.00000000E+00  0.00000000E+00
  0.00000000E+00  0.00000000E+00  0.00000000E+00
  0.00000000E+00  0.00000000E+00  0.00000000E+00
  0.00000000E+00  0.00000000E+00  0.00000000E+00
  0.00000000E+00  0.00000000E+00  0.00000000E+00
  0.00000000E+00  0.00000000E+00  0.00000000E+00
  0.00000000E+00  0.00000000E+00  0.00000000E+00
  0.00000000E+00  0.00000000E+00  0.00000000E+00
  0.00000000E+00  0.00000000E+00  0.00000000E+00
  0.00000000E+00  0.00000000E+00  0.00000000E+00
  0.00000000E+00  0.00000000E+00  0.00000000E+00
  0.00000000E+00  0.00000000E+00  0.00000000E+00
  0.00000000E+00  0.00000000E+00  0.00000000E+00
  0.00000000E+00  0.00000000E+00  0.00000000E+00
  0.00000000E+00  0.00000000E+00  0.00000000E+00
  0.00000000E+00  0.00000000E+00  0.00000000E+00
  0.00000000E+00  0.00000000E+00  0.00000000E+00
  0.00000000E+00  0.00000000E+00  0.00000000E+00
  0.00000000E+00  0.00000000E+00  0.00000000E+00
  0.00000000E+00  0.00000000E+00  0.00000000E+00
  0.00000000E+00  0.00000000E+00  0.00000000E+00
  0.00000000E+00  0.00000000E+00  0.00000000E+00
  0.00000000E+00  0.00000000E+00  0.00000000E+00
  0.00000000E+00  0.00000000E+00  0.00000000E+00
  0.00000000E+00  0.00000000E+00  0.00000000E+00
  0.00000000E+00  0.00000000E+00  0.00000000E+00
  0.00000000E+00  0.00000000E+00  0.00000000E+00
  0.00000000E+00  0.00000000E+00  0.00000000E+00
  0.00000000E+00  0.00000000E+00  0.00000000E+00
  0.00000000E+00  0.00000000E+00  0.00000000E+00
  0.00000000E+00  0.00000000E+00  0.00000000E+00
  0.00000000E+00  0.00000000E+00  0.00000000E+00
  0.00000000E+00  0.00000000E+00  0.00000000E+00
  0.00000000E+00  0.00000000E+00  0.00000000E+00
  0.00000000E+00  0.00000000E+00  0.00000000E+00
  0.00000000E+00  0.00000000E+00  0.00000000E+00
  0.00000000E+00  0.00000000E+00  0.00000000E+00
  0.00000000E+00  0.00000000E+00  0.00000000E+00
  0.00000000E+00  0.00000000E+00  0.00000000E+00
  0.00000000E+00  0.00000000E+00  0.00000000E+00
  0.00000000E+00  0.00000000E+00  0.00000000E+00
