Bi La Sn C  O  H                        
   1.00000000000000     
    29.0000000000000000    0.0000000000000000    0.0000000000000000
     0.2488180851000000   28.9989325590000000    0.0000000000000000
    -0.0631677343000000   -0.4515975666000000   28.9964147692999994
   Bi   La   Sn   C    O    H 
    22    23    23     1     2     1
Selective dynamics
Direct
  0.7601639835087004  0.4771473015320957  0.3989460426252863   T   T   T
  0.6465963200916272  0.6846195200628344  0.5523147453085507   T   T   T
  0.3601368917810306  0.4584700894108920  0.4284417143634930   T   T   T
  0.5498842549918027  0.7131217427547926  0.5843714185007063   T   T   T
  0.5915029568994470  0.5209714444905416  0.5841479689498996   F   F   F
  0.6402566054084855  0.6806890101456335  0.4457373778299263   T   T   T
  0.6957516067663918  0.5228404074103686  0.6537160437241251   T   T   T
  0.4866496689292441  0.7016297819852039  0.4990643946249966   T   T   T
  0.5004839460855024  0.5502791173970252  0.5477141156400123   F   F   F
  0.3248433325567719  0.4861642147219458  0.5747516840455601   T   T   T
  0.3815391867960089  0.6102508262643632  0.5348370974188759   T   T   T
  0.6667129484492236  0.4827404655721850  0.5105018184570156   F   F   F
  0.5763997220267569  0.4263140504383500  0.5448328182496311   F   F   F
  0.6683831672001878  0.3739823557534164  0.5059471076520664   T   T   T
  0.4624589476332398  0.3382493063485398  0.4994885295054542   T   T   T
  0.6484934028780529  0.5775373212088155  0.4602701624361103   F   F   F
  0.5591632323097441  0.4367995092629889  0.7493516000831846   T   T   T
  0.6044411838214522  0.3521993900611136  0.6693695806426396   T   T   T
  0.4927705368460417  0.2998100031293531  0.4089536136378167   T   T   T
  0.6596454807742820  0.6189245528494428  0.6659313470574869   T   T   T
  0.4928580442903150  0.4090919747685231  0.3069117362311963   T   T   T
  0.6218185813529244  0.3169745407731335  0.5729624223989481   T   T   T
  0.5395737154639083  0.6834909832642009  0.4044863647650817   T   T   T
  0.3903382448141129  0.4153497708777593  0.5279075561939849   T   T   T
  0.6287204009899802  0.5519178933561583  0.2822750397666210   T   T   T
  0.4715615061311254  0.4710310617197145  0.6919236315413230   T   T   T
  0.5683115009887700  0.5094300495444983  0.4784716241115703   F   F   F
  0.4203210565129183  0.5084107200613417  0.5018573595042781   F   F   F
  0.4522771430962046  0.4009621763824184  0.4076253087359188   T   T   T
  0.5661849178034918  0.3485132553554655  0.3551198080492221   T   T   T
  0.4107553143610988  0.5402521899245135  0.6095255809713042   T   T   T
  0.5997996118601555  0.4418950768678550  0.3056723224531393   T   T   T
  0.4549239171612535  0.5995204177261070  0.3630171961190047   T   T   T
  0.4180967066435476  0.4876858061964397  0.3397538540917626   T   T   T
  0.6611666834421586  0.4288402274837004  0.6040652244859682   T   T   T
  0.6728833482605217  0.5789611203413896  0.5637321869633645   T   T   T
  0.5262309997471234  0.5091096322792423  0.3283823690916119   T   T   T
  0.5654293557575877  0.3567253343709950  0.4699988483157632   T   T   T
  0.3152133823273458  0.5413691264916727  0.4911811039929033   T   T   T
  0.6608237687503160  0.4297985683941403  0.4155360982803837   T   T   T
  0.5660841929594156  0.6261437171197244  0.5094829013827464   F   F   F
  0.5956333015468763  0.5290638014422467  0.6896175451532365   T   T   T
  0.4693717394280035  0.6414731006921471  0.5877791813649491   T   T   T
  0.4631297568483438  0.6036052017980211  0.4639622058120976   T   T   T
  0.7165303556459981  0.5729523119384464  0.3834064086981267   T   T   T
  0.5499310510395361  0.5822218838566187  0.4076968008106903   F   F   F
  0.4794126430662260  0.5072205383607624  0.4190535757241776   F   F   F
  0.6956583902848394  0.4809394586674630  0.3240460652739252   T   T   T
  0.7518271313993263  0.4292447958298965  0.4886083656626078   T   T   T
  0.7484111900750001  0.5379677361614019  0.4847568586201613   T   T   T
  0.7493395500771464  0.4910113607465158  0.5720590991472893   T   T   T
  0.6492425606769198  0.4377883640599962  0.7088019724626957   T   T   T
  0.5773065769777205  0.7437942526481813  0.4934191670340338   T   T   T
  0.6192554540844384  0.5183157687966542  0.3801816896793397   F   F   F
  0.5045085005805290  0.5599972975889818  0.6502583275527473   T   T   T
  0.4922009500451665  0.4366758245867572  0.4933013002826740   F   F   F
  0.5608844484509063  0.4404139570509003  0.6454865549417619   F   F   F
  0.5765902970788510  0.6162439607252913  0.6136193423529774   T   T   T
  0.5444331756977397  0.6162370950070786  0.3123213666188528   T   T   T
  0.6275592609079110  0.6246756774192268  0.3606832321813252   T   T   T
  0.3767212215944018  0.5570831884297003  0.4126452661684878   T   T   T
  0.4723078164089713  0.4557257050327763  0.5877273803360978   F   F   F
  0.7268505317353466  0.6353468572485825  0.4839243579160051   T   T   T
  0.5043349030419810  0.3688795790898989  0.6853278140521927   T   T   T
  0.3808632909830392  0.4416603683872524  0.6406995928987551   T   T   T
  0.5544592502646992  0.4379899399457940  0.4037542370104745   F   F   F
  0.4344820376516849  0.3641813551158173  0.6117116733474547   T   T   T
  0.5275538701470940  0.3496545814450279  0.5793897074325197   T   T   T
  0.4666138823375379  0.3714147719672307  0.2392342923882995   T   T   T
  0.4715589784849802  0.3847892381201264  0.1998269278850146   T   T   T
  0.4469367757744075  0.3294450399903421  0.2487073017817651   T   T   T
  0.4390311723306196  0.3153848417872713  0.2185131043694323   T   T   T
 
  0.00000000E+00  0.00000000E+00  0.00000000E+00
  0.00000000E+00  0.00000000E+00  0.00000000E+00
  0.00000000E+00  0.00000000E+00  0.00000000E+00
  0.00000000E+00  0.00000000E+00  0.00000000E+00
  0.00000000E+00  0.00000000E+00  0.00000000E+00
  0.00000000E+00  0.00000000E+00  0.00000000E+00
  0.00000000E+00  0.00000000E+00  0.00000000E+00
  0.00000000E+00  0.00000000E+00  0.00000000E+00
  0.00000000E+00  0.00000000E+00  0.00000000E+00
  0.00000000E+00  0.00000000E+00  0.00000000E+00
  0.00000000E+00  0.00000000E+00  0.00000000E+00
  0.00000000E+00  0.00000000E+00  0.00000000E+00
  0.00000000E+00  0.00000000E+00  0.00000000E+00
  0.00000000E+00  0.00000000E+00  0.00000000E+00
  0.00000000E+00  0.00000000E+00  0.00000000E+00
  0.00000000E+00  0.00000000E+00  0.00000000E+00
  0.00000000E+00  0.00000000E+00  0.00000000E+00
  0.00000000E+00  0.00000000E+00  0.00000000E+00
  0.00000000E+00  0.00000000E+00  0.00000000E+00
  0.00000000E+00  0.00000000E+00  0.00000000E+00
  0.00000000E+00  0.00000000E+00  0.00000000E+00
  0.00000000E+00  0.00000000E+00  0.00000000E+00
  0.00000000E+00  0.00000000E+00  0.00000000E+00
  0.00000000E+00  0.00000000E+00  0.00000000E+00
  0.00000000E+00  0.00000000E+00  0.00000000E+00
  0.00000000E+00  0.00000000E+00  0.00000000E+00
  0.00000000E+00  0.00000000E+00  0.00000000E+00
  0.00000000E+00  0.00000000E+00  0.00000000E+00
  0.00000000E+00  0.00000000E+00  0.00000000E+00
  0.00000000E+00  0.00000000E+00  0.00000000E+00
  0.00000000E+00  0.00000000E+00  0.00000000E+00
  0.00000000E+00  0.00000000E+00  0.00000000E+00
  0.00000000E+00  0.00000000E+00  0.00000000E+00
  0.00000000E+00  0.00000000E+00  0.00000000E+00
  0.00000000E+00  0.00000000E+00  0.00000000E+00
  0.00000000E+00  0.00000000E+00  0.00000000E+00
  0.00000000E+00  0.00000000E+00  0.00000000E+00
  0.00000000E+00  0.00000000E+00  0.00000000E+00
  0.00000000E+00  0.00000000E+00  0.00000000E+00
  0.00000000E+00  0.00000000E+00  0.00000000E+00
  0.00000000E+00  0.00000000E+00  0.00000000E+00
  0.00000000E+00  0.00000000E+00  0.00000000E+00
  0.00000000E+00  0.00000000E+00  0.00000000E+00
  0.00000000E+00  0.00000000E+00  0.00000000E+00
  0.00000000E+00  0.00000000E+00  0.00000000E+00
  0.00000000E+00  0.00000000E+00  0.00000000E+00
  0.00000000E+00  0.00000000E+00  0.00000000E+00
  0.00000000E+00  0.00000000E+00  0.00000000E+00
  0.00000000E+00  0.00000000E+00  0.00000000E+00
  0.00000000E+00  0.00000000E+00  0.00000000E+00
  0.00000000E+00  0.00000000E+00  0.00000000E+00
  0.00000000E+00  0.00000000E+00  0.00000000E+00
  0.00000000E+00  0.00000000E+00  0.00000000E+00
  0.00000000E+00  0.00000000E+00  0.00000000E+00
  0.00000000E+00  0.00000000E+00  0.00000000E+00
  0.00000000E+00  0.00000000E+00  0.00000000E+00
  0.00000000E+00  0.00000000E+00  0.00000000E+00
  0.00000000E+00  0.00000000E+00  0.00000000E+00
  0.00000000E+00  0.00000000E+00  0.00000000E+00
  0.00000000E+00  0.00000000E+00  0.00000000E+00
  0.00000000E+00  0.00000000E+00  0.00000000E+00
  0.00000000E+00  0.00000000E+00  0.00000000E+00
  0.00000000E+00  0.00000000E+00  0.00000000E+00
  0.00000000E+00  0.00000000E+00  0.00000000E+00
  0.00000000E+00  0.00000000E+00  0.00000000E+00
  0.00000000E+00  0.00000000E+00  0.00000000E+00
  0.00000000E+00  0.00000000E+00  0.00000000E+00
  0.00000000E+00  0.00000000E+00  0.00000000E+00
  0.00000000E+00  0.00000000E+00  0.00000000E+00
  0.00000000E+00  0.00000000E+00  0.00000000E+00
  0.00000000E+00  0.00000000E+00  0.00000000E+00
  0.00000000E+00  0.00000000E+00  0.00000000E+00
