Bi La Sn C  O  H                        
   1.00000000000000     
    29.0000000000000000    0.0000000000000000    0.0000000000000000
     0.2488180851000000   28.9989325590000000    0.0000000000000000
    -0.0631677343000000   -0.4515975666000000   28.9964147692999994
   Bi   La   Sn   C    O    H 
    22    23    23     1     2     1
Selective dynamics
Direct
  0.7586855273956138  0.4786709275006260  0.4003755244106124   T   T   T
  0.6487394068762472  0.6847019028006699  0.5491027372079761   T   T   T
  0.3627769685044715  0.4580081293833240  0.4267722774649806   T   T   T
  0.5522198693834149  0.7139961788036957  0.5834196774420231   T   T   T
  0.5915029568994470  0.5209714444905416  0.5841479689498996   F   F   F
  0.6405831244360727  0.6791776677393361  0.4436092101893852   T   T   T
  0.6956291051902792  0.5189090387369133  0.6535740030695433   T   T   T
  0.4874466536668367  0.7019643512228371  0.4981913402718796   T   T   T
  0.5004839460855024  0.5502791173970252  0.5477141156400123   F   F   F
  0.3288820070030865  0.4855155659554268  0.5797615719567861   T   T   T
  0.3831956054400456  0.6086414867906937  0.5389516006094451   T   T   T
  0.6667129484492236  0.4827404655721850  0.5105018184570156   F   F   F
  0.5763997220267569  0.4263140504383500  0.5448328182496311   F   F   F
  0.6667510442623287  0.3734421653743752  0.5060218447488349   T   T   T
  0.4568468420981880  0.3350803254507164  0.4949174180968242   T   T   T
  0.6484934028780529  0.5775373212088155  0.4602701624361103   F   F   F
  0.5540581868141212  0.4341255662842904  0.7496859519807108   T   T   T
  0.5887896853340219  0.3479066758461373  0.6665888138993261   T   T   T
  0.4920897023150591  0.2984867601553822  0.4061946303795546   T   T   T
  0.6614591862311223  0.6147806021102914  0.6684161037737142   T   T   T
  0.4893086998442230  0.4132056657307220  0.3019272510365547   T   T   T
  0.6176880596437740  0.3168953702436872  0.5720840588946641   T   T   T
  0.5400059092932128  0.6838920867755343  0.4035404715537996   T   T   T
  0.3896671895585385  0.4159347953876981  0.5258508872466938   T   T   T
  0.6270666728027665  0.5513767944640893  0.2816212659990783   T   T   T
  0.4737571229932849  0.4821634773300937  0.6929383720517251   T   T   T
  0.5683115009887700  0.5094300495444983  0.4784716241115703   F   F   F
  0.4203210565129183  0.5084107200613417  0.5018573595042781   F   F   F
  0.4546759683187892  0.4016634121055196  0.4039546967452747   T   T   T
  0.5593482046497378  0.3512940675185320  0.3499741772033534   T   T   T
  0.4145700140050741  0.5392462379134194  0.6133217270499915   T   T   T
  0.5996446646236594  0.4411347690991925  0.3053024135391557   T   T   T
  0.4546517329846437  0.6008164227094840  0.3640715476074011   T   T   T
  0.4178803765323030  0.4906323780627888  0.3373521781989017   T   T   T
  0.6604964835546847  0.4249351421553516  0.6043573780918441   T   T   T
  0.6740833912873585  0.5784018256158519  0.5642804577364522   T   T   T
  0.5259526493446199  0.5095142652860390  0.3283083546401449   T   T   T
  0.5624516710518143  0.3560125189486776  0.4695853177191185   T   T   T
  0.3178342327953901  0.5393604124089981  0.4942683880000281   T   T   T
  0.6599124302479263  0.4291507733627757  0.4150256590355109   T   T   T
  0.5660841929594156  0.6261437171197244  0.5094829013827464   F   F   F
  0.5965017898605999  0.5258611069633279  0.6902801332889998   T   T   T
  0.4718392274587436  0.6432997078812884  0.5875500908449386   T   T   T
  0.4618833314340936  0.6035568510514218  0.4644314855873726   T   T   T
  0.7165728923653025  0.5743198266624393  0.3839127745066626   T   T   T
  0.5499310510395361  0.5822218838566187  0.4076968008106903   F   F   F
  0.4794126430662260  0.5072205383607624  0.4190535757241776   F   F   F
  0.6951855877721002  0.4820497790213644  0.3244253022795394   T   T   T
  0.7507187387202140  0.4276096222508279  0.4877265702774521   T   T   T
  0.7488751007604160  0.5384011779443764  0.4865397142049177   T   T   T
  0.7487786860137219  0.4879696895442972  0.5721184617723447   T   T   T
  0.6430870777878553  0.4283319150249300  0.7082508879652354   T   T   T
  0.5786516968705647  0.7430403020298556  0.4921969694579381   T   T   T
  0.6192554540844384  0.5183157687966542  0.3801816896793397   F   F   F
  0.5092531570098834  0.5660321700320902  0.6499153733107961   T   T   T
  0.4922009500451665  0.4366758245867572  0.4933013002826740   F   F   F
  0.5608844484509063  0.4404139570509003  0.6454865549417619   F   F   F
  0.5809035785682188  0.6182844071743384  0.6127509171523216   T   T   T
  0.5435382489531597  0.6171092141231572  0.3121436312155835   T   T   T
  0.6273544438641381  0.6242628304214433  0.3589516153036429   T   T   T
  0.3760912911465368  0.5572191658032284  0.4132296597063272   T   T   T
  0.4723078164089713  0.4557257050327763  0.5877273803360978   F   F   F
  0.7277177727057318  0.6353047689116776  0.4844993361724695   T   T   T
  0.4894919825593799  0.3792958350696983  0.6762520562837232   T   T   T
  0.3885832655659927  0.4365864532686597  0.6416913868205607   T   T   T
  0.5544592502646992  0.4379899399457940  0.4037542370104745   F   F   F
  0.4273299119507765  0.3541698634476695  0.6018992057438624   T   T   T
  0.5217798826504756  0.3504951345556542  0.5739133400490946   T   T   T
  0.4286495142805037  0.2595452018199406  0.5093764468111935   T   T   T
  0.4475629687499310  0.2262628956869789  0.5263840730995788   T   T   T
  0.3833888692407759  0.2588151182610837  0.4941119251421149   T   T   T
  0.3718879522396906  0.2273239854255073  0.4988543749256018   T   T   T
 
  0.00000000E+00  0.00000000E+00  0.00000000E+00
  0.00000000E+00  0.00000000E+00  0.00000000E+00
  0.00000000E+00  0.00000000E+00  0.00000000E+00
  0.00000000E+00  0.00000000E+00  0.00000000E+00
  0.00000000E+00  0.00000000E+00  0.00000000E+00
  0.00000000E+00  0.00000000E+00  0.00000000E+00
  0.00000000E+00  0.00000000E+00  0.00000000E+00
  0.00000000E+00  0.00000000E+00  0.00000000E+00
  0.00000000E+00  0.00000000E+00  0.00000000E+00
  0.00000000E+00  0.00000000E+00  0.00000000E+00
  0.00000000E+00  0.00000000E+00  0.00000000E+00
  0.00000000E+00  0.00000000E+00  0.00000000E+00
  0.00000000E+00  0.00000000E+00  0.00000000E+00
  0.00000000E+00  0.00000000E+00  0.00000000E+00
  0.00000000E+00  0.00000000E+00  0.00000000E+00
  0.00000000E+00  0.00000000E+00  0.00000000E+00
  0.00000000E+00  0.00000000E+00  0.00000000E+00
  0.00000000E+00  0.00000000E+00  0.00000000E+00
  0.00000000E+00  0.00000000E+00  0.00000000E+00
  0.00000000E+00  0.00000000E+00  0.00000000E+00
  0.00000000E+00  0.00000000E+00  0.00000000E+00
  0.00000000E+00  0.00000000E+00  0.00000000E+00
  0.00000000E+00  0.00000000E+00  0.00000000E+00
  0.00000000E+00  0.00000000E+00  0.00000000E+00
  0.00000000E+00  0.00000000E+00  0.00000000E+00
  0.00000000E+00  0.00000000E+00  0.00000000E+00
  0.00000000E+00  0.00000000E+00  0.00000000E+00
  0.00000000E+00  0.00000000E+00  0.00000000E+00
  0.00000000E+00  0.00000000E+00  0.00000000E+00
  0.00000000E+00  0.00000000E+00  0.00000000E+00
  0.00000000E+00  0.00000000E+00  0.00000000E+00
  0.00000000E+00  0.00000000E+00  0.00000000E+00
  0.00000000E+00  0.00000000E+00  0.00000000E+00
  0.00000000E+00  0.00000000E+00  0.00000000E+00
  0.00000000E+00  0.00000000E+00  0.00000000E+00
  0.00000000E+00  0.00000000E+00  0.00000000E+00
  0.00000000E+00  0.00000000E+00  0.00000000E+00
  0.00000000E+00  0.00000000E+00  0.00000000E+00
  0.00000000E+00  0.00000000E+00  0.00000000E+00
  0.00000000E+00  0.00000000E+00  0.00000000E+00
  0.00000000E+00  0.00000000E+00  0.00000000E+00
  0.00000000E+00  0.00000000E+00  0.00000000E+00
  0.00000000E+00  0.00000000E+00  0.00000000E+00
  0.00000000E+00  0.00000000E+00  0.00000000E+00
  0.00000000E+00  0.00000000E+00  0.00000000E+00
  0.00000000E+00  0.00000000E+00  0.00000000E+00
  0.00000000E+00  0.00000000E+00  0.00000000E+00
  0.00000000E+00  0.00000000E+00  0.00000000E+00
  0.00000000E+00  0.00000000E+00  0.00000000E+00
  0.00000000E+00  0.00000000E+00  0.00000000E+00
  0.00000000E+00  0.00000000E+00  0.00000000E+00
  0.00000000E+00  0.00000000E+00  0.00000000E+00
  0.00000000E+00  0.00000000E+00  0.00000000E+00
  0.00000000E+00  0.00000000E+00  0.00000000E+00
  0.00000000E+00  0.00000000E+00  0.00000000E+00
  0.00000000E+00  0.00000000E+00  0.00000000E+00
  0.00000000E+00  0.00000000E+00  0.00000000E+00
  0.00000000E+00  0.00000000E+00  0.00000000E+00
  0.00000000E+00  0.00000000E+00  0.00000000E+00
  0.00000000E+00  0.00000000E+00  0.00000000E+00
  0.00000000E+00  0.00000000E+00  0.00000000E+00
  0.00000000E+00  0.00000000E+00  0.00000000E+00
  0.00000000E+00  0.00000000E+00  0.00000000E+00
  0.00000000E+00  0.00000000E+00  0.00000000E+00
  0.00000000E+00  0.00000000E+00  0.00000000E+00
  0.00000000E+00  0.00000000E+00  0.00000000E+00
  0.00000000E+00  0.00000000E+00  0.00000000E+00
  0.00000000E+00  0.00000000E+00  0.00000000E+00
  0.00000000E+00  0.00000000E+00  0.00000000E+00
  0.00000000E+00  0.00000000E+00  0.00000000E+00
  0.00000000E+00  0.00000000E+00  0.00000000E+00
  0.00000000E+00  0.00000000E+00  0.00000000E+00
