Bi La Sn C  O  H                        
   1.00000000000000     
    29.0000000000000000    0.0000000000000000    0.0000000000000000
     0.2488180851000000   28.9989325590000000    0.0000000000000000
    -0.0631677343000000   -0.4515975666000000   28.9964147692999994
   Bi   La   Sn   C    O    H 
    22    23    23     1     2     1
Selective dynamics
Direct
  0.7593826101015682  0.4792678336022146  0.3985943991116798   T   T   T
  0.6474963033190348  0.6849911155144165  0.5497543670633467   T   T   T
  0.3605623883477080  0.4580200039837051  0.4285039683897465   T   T   T
  0.5506520572529762  0.7134442661665910  0.5831538695463713   T   T   T
  0.5915029568994470  0.5209714444905416  0.5841479689498996   F   F   F
  0.6394444658376655  0.6797054134285330  0.4442990583332757   T   T   T
  0.6945678020238307  0.5195408919725951  0.6543453666981859   T   T   T
  0.4867404364652782  0.7014469756829360  0.4983699499493764   T   T   T
  0.5004839460855024  0.5502791173970252  0.5477141156400123   F   F   F
  0.3256792390909869  0.4854207987567983  0.5767399180832261   T   T   T
  0.3817489033620153  0.6096495646330183  0.5358763317122432   T   T   T
  0.6667129484492236  0.4827404655721850  0.5105018184570156   F   F   F
  0.5763997220267569  0.4263140504383500  0.5448328182496311   F   F   F
  0.6700186629393290  0.3731070203032533  0.5052554612072455   T   T   T
  0.4625723665427890  0.3385396728883153  0.4982964882332989   T   T   T
  0.6484934028780529  0.5775373212088155  0.4602701624361103   F   F   F
  0.5577893317068999  0.4336697165543913  0.7497292396337423   T   T   T
  0.5989178634056980  0.3491561065637871  0.6673763153513811   T   T   T
  0.4930689567907437  0.2993066728619338  0.4087815132269325   T   T   T
  0.6601265710491060  0.6155555263687081  0.6679050209115899   T   T   T
  0.4913436913170258  0.4101182906311522  0.3052570931393845   T   T   T
  0.6227912112999620  0.3157319996144061  0.5715658537084238   T   T   T
  0.5385383203488840  0.6834647050999836  0.4034756261901651   T   T   T
  0.3899830843060137  0.4152725475773676  0.5271862773302959   T   T   T
  0.6268348708474503  0.5512086067775043  0.2818683621962385   T   T   T
  0.4726072132338310  0.4766343614239663  0.6939782185035082   T   T   T
  0.5683115009887700  0.5094300495444983  0.4784716241115703   F   F   F
  0.4203210565129183  0.5084107200613417  0.5018573595042781   F   F   F
  0.4525574815059795  0.4008277679540097  0.4057038501647749   T   T   T
  0.5628802524294135  0.3495169065772593  0.3528529169537390   T   T   T
  0.4117719716309903  0.5396258083584904  0.6102003042104116   T   T   T
  0.5997639286095965  0.4405948947020642  0.3050663376880056   T   T   T
  0.4543982173890802  0.5995181815966993  0.3635207195659912   T   T   T
  0.4182878940278912  0.4872706928600779  0.3399197476136253   T   T   T
  0.6614787318850660  0.4258862141091987  0.6030041417766646   T   T   T
  0.6735091528035327  0.5790524778937645  0.5641752050864136   T   T   T
  0.5256727723269405  0.5090731142178292  0.3280629005322963   T   T   T
  0.5662258486202473  0.3570863212627197  0.4693953851336674   T   T   T
  0.3152603663220989  0.5404682913049580  0.4926768893381849   T   T   T
  0.6606523512256705  0.4297162937875302  0.4151744801993942   T   T   T
  0.5660841929594156  0.6261437171197244  0.5094829013827464   F   F   F
  0.5940426345521937  0.5280945937834666  0.6904945876683909   T   T   T
  0.4697336152652892  0.6424075827449170  0.5869975293894192   T   T   T
  0.4622458383119095  0.6033797982427058  0.4638456524330776   T   T   T
  0.7158569060886399  0.5744649212273055  0.3826820384278528   T   T   T
  0.5499310510395361  0.5822218838566187  0.4076968008106903   F   F   F
  0.4794126430662260  0.5072205383607624  0.4190535757241776   F   F   F
  0.6949983195878585  0.4814355427504408  0.3236724505738408   T   T   T
  0.7519857689273995  0.4302375162431004  0.4875700005076933   T   T   T
  0.7481953350110577  0.5381932674592297  0.4846357338428106   T   T   T
  0.7482399755395317  0.4912706197398692  0.5724822991033476   T   T   T
  0.6466418338641908  0.4346398050346341  0.7070711081041701   T   T   T
  0.5771683776094255  0.7437957417208547  0.4920679312720580   T   T   T
  0.6192554540844384  0.5183157687966542  0.3801816896793397   F   F   F
  0.5059710930441839  0.5641743201676697  0.6510539436655668   T   T   T
  0.4922009500451665  0.4366758245867572  0.4933013002826740   F   F   F
  0.5608844484509063  0.4404139570509003  0.6454865549417619   F   F   F
  0.5782751110241520  0.6169970418103922  0.6135036135829421   T   T   T
  0.5430108114290325  0.6165045086235688  0.3116593186525095   T   T   T
  0.6263449020817661  0.6248719193745487  0.3591980092210518   T   T   T
  0.3759333193470858  0.5568103920760470  0.4132871615121466   T   T   T
  0.4723078164089713  0.4557257050327763  0.5877273803360978   F   F   F
  0.7269710932241753  0.6351765287269197  0.4837650997013531   T   T   T
  0.5004197266369325  0.3721900494009670  0.6829805204574259   T   T   T
  0.3844576503790767  0.4395602813136342  0.6400399144103670   T   T   T
  0.5544592502646992  0.4379899399457940  0.4037542370104745   F   F   F
  0.4351883868424984  0.3609368395135598  0.6067742897157546   T   T   T
  0.5288613453963328  0.3482325893829868  0.5775903673385498   T   T   T
  0.4892430531970856  0.5771375607791099  0.7333585994601893   T   T   T
  0.4660148631660696  0.5455847493525909  0.7517191334981116   T   T   T
  0.4896491949473407  0.6193747330039097  0.7545093956846128   T   T   T
  0.4702649792538230  0.6178518946052819  0.7825394172314927   T   T   T
 
  0.00000000E+00  0.00000000E+00  0.00000000E+00
  0.00000000E+00  0.00000000E+00  0.00000000E+00
  0.00000000E+00  0.00000000E+00  0.00000000E+00
  0.00000000E+00  0.00000000E+00  0.00000000E+00
  0.00000000E+00  0.00000000E+00  0.00000000E+00
  0.00000000E+00  0.00000000E+00  0.00000000E+00
  0.00000000E+00  0.00000000E+00  0.00000000E+00
  0.00000000E+00  0.00000000E+00  0.00000000E+00
  0.00000000E+00  0.00000000E+00  0.00000000E+00
  0.00000000E+00  0.00000000E+00  0.00000000E+00
  0.00000000E+00  0.00000000E+00  0.00000000E+00
  0.00000000E+00  0.00000000E+00  0.00000000E+00
  0.00000000E+00  0.00000000E+00  0.00000000E+00
  0.00000000E+00  0.00000000E+00  0.00000000E+00
  0.00000000E+00  0.00000000E+00  0.00000000E+00
  0.00000000E+00  0.00000000E+00  0.00000000E+00
  0.00000000E+00  0.00000000E+00  0.00000000E+00
  0.00000000E+00  0.00000000E+00  0.00000000E+00
  0.00000000E+00  0.00000000E+00  0.00000000E+00
  0.00000000E+00  0.00000000E+00  0.00000000E+00
  0.00000000E+00  0.00000000E+00  0.00000000E+00
  0.00000000E+00  0.00000000E+00  0.00000000E+00
  0.00000000E+00  0.00000000E+00  0.00000000E+00
  0.00000000E+00  0.00000000E+00  0.00000000E+00
  0.00000000E+00  0.00000000E+00  0.00000000E+00
  0.00000000E+00  0.00000000E+00  0.00000000E+00
  0.00000000E+00  0.00000000E+00  0.00000000E+00
  0.00000000E+00  0.00000000E+00  0.00000000E+00
  0.00000000E+00  0.00000000E+00  0.00000000E+00
  0.00000000E+00  0.00000000E+00  0.00000000E+00
  0.00000000E+00  0.00000000E+00  0.00000000E+00
  0.00000000E+00  0.00000000E+00  0.00000000E+00
  0.00000000E+00  0.00000000E+00  0.00000000E+00
  0.00000000E+00  0.00000000E+00  0.00000000E+00
  0.00000000E+00  0.00000000E+00  0.00000000E+00
  0.00000000E+00  0.00000000E+00  0.00000000E+00
  0.00000000E+00  0.00000000E+00  0.00000000E+00
  0.00000000E+00  0.00000000E+00  0.00000000E+00
  0.00000000E+00  0.00000000E+00  0.00000000E+00
  0.00000000E+00  0.00000000E+00  0.00000000E+00
  0.00000000E+00  0.00000000E+00  0.00000000E+00
  0.00000000E+00  0.00000000E+00  0.00000000E+00
  0.00000000E+00  0.00000000E+00  0.00000000E+00
  0.00000000E+00  0.00000000E+00  0.00000000E+00
  0.00000000E+00  0.00000000E+00  0.00000000E+00
  0.00000000E+00  0.00000000E+00  0.00000000E+00
  0.00000000E+00  0.00000000E+00  0.00000000E+00
  0.00000000E+00  0.00000000E+00  0.00000000E+00
  0.00000000E+00  0.00000000E+00  0.00000000E+00
  0.00000000E+00  0.00000000E+00  0.00000000E+00
  0.00000000E+00  0.00000000E+00  0.00000000E+00
  0.00000000E+00  0.00000000E+00  0.00000000E+00
  0.00000000E+00  0.00000000E+00  0.00000000E+00
  0.00000000E+00  0.00000000E+00  0.00000000E+00
  0.00000000E+00  0.00000000E+00  0.00000000E+00
  0.00000000E+00  0.00000000E+00  0.00000000E+00
  0.00000000E+00  0.00000000E+00  0.00000000E+00
  0.00000000E+00  0.00000000E+00  0.00000000E+00
  0.00000000E+00  0.00000000E+00  0.00000000E+00
  0.00000000E+00  0.00000000E+00  0.00000000E+00
  0.00000000E+00  0.00000000E+00  0.00000000E+00
  0.00000000E+00  0.00000000E+00  0.00000000E+00
  0.00000000E+00  0.00000000E+00  0.00000000E+00
  0.00000000E+00  0.00000000E+00  0.00000000E+00
  0.00000000E+00  0.00000000E+00  0.00000000E+00
  0.00000000E+00  0.00000000E+00  0.00000000E+00
  0.00000000E+00  0.00000000E+00  0.00000000E+00
  0.00000000E+00  0.00000000E+00  0.00000000E+00
  0.00000000E+00  0.00000000E+00  0.00000000E+00
  0.00000000E+00  0.00000000E+00  0.00000000E+00
  0.00000000E+00  0.00000000E+00  0.00000000E+00
  0.00000000E+00  0.00000000E+00  0.00000000E+00
