Bi La Sn C  O  H                        
   1.00000000000000     
    29.0000000000000000    0.0000000000000000    0.0000000000000000
     0.2488180851000000   28.9989325590000000    0.0000000000000000
    -0.0631677343000000   -0.4515975666000000   28.9964147692999994
   Bi   La   Sn   C    O    H 
    22    23    23     1     2     1
Selective dynamics
Direct
  0.7589251467853807  0.4770696510367731  0.3971930477370168   T   T   T
  0.6468733396749670  0.6853054145597774  0.5513029147859506   T   T   T
  0.3597220013201788  0.4580850808455448  0.4288134896154234   T   T   T
  0.5492612720696698  0.7133054391409900  0.5839340354526628   T   T   T
  0.5915029568994470  0.5209714444905416  0.5841479689498996   F   F   F
  0.6401743355782442  0.6799115188217213  0.4453519935309072   T   T   T
  0.6952884152366131  0.5220547780188641  0.6540257405328651   T   T   T
  0.4866082475682960  0.7011637479554617  0.4989370259183992   T   T   T
  0.5004839460855024  0.5502791173970252  0.5477141156400123   F   F   F
  0.3244001440858725  0.4864872979325257  0.5744939930563728   T   T   T
  0.3816972815247388  0.6108244842208989  0.5341242851633048   T   T   T
  0.6667129484492236  0.4827404655721850  0.5105018184570156   F   F   F
  0.5763997220267569  0.4263140504383500  0.5448328182496311   F   F   F
  0.6685941640300355  0.3744647535187549  0.5063271582649774   T   T   T
  0.4624364691463422  0.3385215131705796  0.5004400675383297   T   T   T
  0.6484934028780529  0.5775373212088155  0.4602701624361103   F   F   F
  0.5584004401710528  0.4363010358702101  0.7497731819481604   T   T   T
  0.6042817933190109  0.3513421991168149  0.6683298284411942   T   T   T
  0.4920396478250131  0.2980398213866440  0.4110031620231675   T   T   T
  0.6592950371253442  0.6180841984874713  0.6665887020938679   T   T   T
  0.4910945276075653  0.4089703396986883  0.3073599841075315   T   T   T
  0.6213683951739091  0.3160557466509992  0.5719875459195718   T   T   T
  0.5393344480629105  0.6834490424441324  0.4040226431958943   T   T   T
  0.3900906453125335  0.4155756439177248  0.5279193207674469   T   T   T
  0.6298364632134805  0.5515413242555121  0.2823257188870841   T   T   T
  0.4713728381644393  0.4700493458660657  0.6918870013348305   T   T   T
  0.5683115009887700  0.5094300495444983  0.4784716241115703   F   F   F
  0.4203210565129183  0.5084107200613417  0.5018573595042781   F   F   F
  0.4522058813934920  0.4001965304220824  0.4074366849453223   T   T   T
  0.5627166663193846  0.3483132239629047  0.3551717104984948   T   T   T
  0.4105037803533615  0.5405382822275002  0.6088569736800513   T   T   T
  0.5989365101633795  0.4396680793692599  0.3039193505250332   T   T   T
  0.4553599706535227  0.5993325645193280  0.3628845177628868   T   T   T
  0.4180050534945674  0.4862612544369424  0.3401670220512588   T   T   T
  0.6617960207947681  0.4273720071489088  0.6039299270131980   T   T   T
  0.6728411773839568  0.5791586092569561  0.5640598000428456   T   T   T
  0.5261815100312375  0.5086202166216982  0.3277376127353113   T   T   T
  0.5651508428610511  0.3573010539906847  0.4692052545444475   T   T   T
  0.3152370785242041  0.5416116755677097  0.4909399411256198   T   T   T
  0.6609168997140233  0.4301124950311979  0.4142402954875143   T   T   T
  0.5660841929594156  0.6261437171197244  0.5094829013827464   F   F   F
  0.5952323719758135  0.5286663826055499  0.6896748105099756   T   T   T
  0.4693762705165221  0.6414187438490866  0.5880384492763334   T   T   T
  0.4634057287250963  0.6030656348692675  0.4639246475993911   T   T   T
  0.7153304748820351  0.5714207257588982  0.3819259108149395   T   T   T
  0.5499310510395361  0.5822218838566187  0.4076968008106903   F   F   F
  0.4794126430662260  0.5072205383607624  0.4190535757241776   F   F   F
  0.6964533772503134  0.4779796517024555  0.3203643544104006   T   T   T
  0.7514607449955190  0.4301461361022703  0.4870421843046053   T   T   T
  0.7478436188288297  0.5383351683587795  0.4839401481606636   T   T   T
  0.7484128684320601  0.4913589480328536  0.5719668629811400   T   T   T
  0.6479109200786879  0.4371529938805485  0.7083946964877519   T   T   T
  0.5772817299142219  0.7434185843862776  0.4930618075772559   T   T   T
  0.6192554540844384  0.5183157687966542  0.3801816896793397   F   F   F
  0.5043619478083016  0.5591269604145064  0.6500100438890078   T   T   T
  0.4922009500451665  0.4366758245867572  0.4933013002826740   F   F   F
  0.5608844484509063  0.4404139570509003  0.6454865549417619   F   F   F
  0.5764898782500970  0.6162368028894289  0.6137201750911168   T   T   T
  0.5446505717066705  0.6155351858942502  0.3119944180457725   T   T   T
  0.6271400356243850  0.6252063229877469  0.3600415280644717   T   T   T
  0.3773468855787770  0.5565329164438139  0.4125719707246049   T   T   T
  0.4723078164089713  0.4557257050327763  0.5877273803360978   F   F   F
  0.7267946442036104  0.6352383127060921  0.4850999184185341   T   T   T
  0.5049515522135380  0.3679104358691026  0.6845974785017148   T   T   T
  0.3807115443744386  0.4422021491123043  0.6404799403642448   T   T   T
  0.5544592502646992  0.4379899399457940  0.4037542370104745   F   F   F
  0.4342838137536508  0.3646004067010626  0.6117675010660982   T   T   T
  0.5278637132888454  0.3491761462404135  0.5794624530908491   T   T   T
  0.7421846187768703  0.4551359853382706  0.2603953265042865   T   T   T
  0.7652470753388489  0.4800803162415661  0.2359363586856254   T   T   T
  0.7399793605341876  0.4079629800805932  0.2517683084034120   T   T   T
  0.7603630438085140  0.4015873683592305  0.2251638683713896   T   T   T
 
  0.00000000E+00  0.00000000E+00  0.00000000E+00
  0.00000000E+00  0.00000000E+00  0.00000000E+00
  0.00000000E+00  0.00000000E+00  0.00000000E+00
  0.00000000E+00  0.00000000E+00  0.00000000E+00
  0.00000000E+00  0.00000000E+00  0.00000000E+00
  0.00000000E+00  0.00000000E+00  0.00000000E+00
  0.00000000E+00  0.00000000E+00  0.00000000E+00
  0.00000000E+00  0.00000000E+00  0.00000000E+00
  0.00000000E+00  0.00000000E+00  0.00000000E+00
  0.00000000E+00  0.00000000E+00  0.00000000E+00
  0.00000000E+00  0.00000000E+00  0.00000000E+00
  0.00000000E+00  0.00000000E+00  0.00000000E+00
  0.00000000E+00  0.00000000E+00  0.00000000E+00
  0.00000000E+00  0.00000000E+00  0.00000000E+00
  0.00000000E+00  0.00000000E+00  0.00000000E+00
  0.00000000E+00  0.00000000E+00  0.00000000E+00
  0.00000000E+00  0.00000000E+00  0.00000000E+00
  0.00000000E+00  0.00000000E+00  0.00000000E+00
  0.00000000E+00  0.00000000E+00  0.00000000E+00
  0.00000000E+00  0.00000000E+00  0.00000000E+00
  0.00000000E+00  0.00000000E+00  0.00000000E+00
  0.00000000E+00  0.00000000E+00  0.00000000E+00
  0.00000000E+00  0.00000000E+00  0.00000000E+00
  0.00000000E+00  0.00000000E+00  0.00000000E+00
  0.00000000E+00  0.00000000E+00  0.00000000E+00
  0.00000000E+00  0.00000000E+00  0.00000000E+00
  0.00000000E+00  0.00000000E+00  0.00000000E+00
  0.00000000E+00  0.00000000E+00  0.00000000E+00
  0.00000000E+00  0.00000000E+00  0.00000000E+00
  0.00000000E+00  0.00000000E+00  0.00000000E+00
  0.00000000E+00  0.00000000E+00  0.00000000E+00
  0.00000000E+00  0.00000000E+00  0.00000000E+00
  0.00000000E+00  0.00000000E+00  0.00000000E+00
  0.00000000E+00  0.00000000E+00  0.00000000E+00
  0.00000000E+00  0.00000000E+00  0.00000000E+00
  0.00000000E+00  0.00000000E+00  0.00000000E+00
  0.00000000E+00  0.00000000E+00  0.00000000E+00
  0.00000000E+00  0.00000000E+00  0.00000000E+00
  0.00000000E+00  0.00000000E+00  0.00000000E+00
  0.00000000E+00  0.00000000E+00  0.00000000E+00
  0.00000000E+00  0.00000000E+00  0.00000000E+00
  0.00000000E+00  0.00000000E+00  0.00000000E+00
  0.00000000E+00  0.00000000E+00  0.00000000E+00
  0.00000000E+00  0.00000000E+00  0.00000000E+00
  0.00000000E+00  0.00000000E+00  0.00000000E+00
  0.00000000E+00  0.00000000E+00  0.00000000E+00
  0.00000000E+00  0.00000000E+00  0.00000000E+00
  0.00000000E+00  0.00000000E+00  0.00000000E+00
  0.00000000E+00  0.00000000E+00  0.00000000E+00
  0.00000000E+00  0.00000000E+00  0.00000000E+00
  0.00000000E+00  0.00000000E+00  0.00000000E+00
  0.00000000E+00  0.00000000E+00  0.00000000E+00
  0.00000000E+00  0.00000000E+00  0.00000000E+00
  0.00000000E+00  0.00000000E+00  0.00000000E+00
  0.00000000E+00  0.00000000E+00  0.00000000E+00
  0.00000000E+00  0.00000000E+00  0.00000000E+00
  0.00000000E+00  0.00000000E+00  0.00000000E+00
  0.00000000E+00  0.00000000E+00  0.00000000E+00
  0.00000000E+00  0.00000000E+00  0.00000000E+00
  0.00000000E+00  0.00000000E+00  0.00000000E+00
  0.00000000E+00  0.00000000E+00  0.00000000E+00
  0.00000000E+00  0.00000000E+00  0.00000000E+00
  0.00000000E+00  0.00000000E+00  0.00000000E+00
  0.00000000E+00  0.00000000E+00  0.00000000E+00
  0.00000000E+00  0.00000000E+00  0.00000000E+00
  0.00000000E+00  0.00000000E+00  0.00000000E+00
  0.00000000E+00  0.00000000E+00  0.00000000E+00
  0.00000000E+00  0.00000000E+00  0.00000000E+00
  0.00000000E+00  0.00000000E+00  0.00000000E+00
  0.00000000E+00  0.00000000E+00  0.00000000E+00
  0.00000000E+00  0.00000000E+00  0.00000000E+00
  0.00000000E+00  0.00000000E+00  0.00000000E+00
