Bi La Sn C  O  H                        
   1.00000000000000     
    29.0000000000000000    0.0000000000000000    0.0000000000000000
     0.2488180851000000   28.9989325590000000    0.0000000000000000
    -0.0631677343000000   -0.4515975666000000   28.9964147692999994
   Bi   La   Sn   C    O    H 
    22    23    23     1     2     1
Selective dynamics
Direct
  0.7590767621459003  0.4779343379349631  0.3985012070841633   T   T   T
  0.6489919206797214  0.6840536594987033  0.5490986340348168   T   T   T
  0.3595424232905490  0.4587844414457918  0.4282643946451187   T   T   T
  0.5528298696804849  0.7141256084593034  0.5824585000277310   T   T   T
  0.5915029568994470  0.5209714444905416  0.5841479689498996   F   F   F
  0.6410664051735550  0.6790705480718843  0.4442974941591951   T   T   T
  0.6936202240533702  0.5165755122764011  0.6542558766919796   T   T   T
  0.4879941870188650  0.7022161050691220  0.4969665304135724   T   T   T
  0.5004839460855024  0.5502791173970252  0.5477141156400123   F   F   F
  0.3273563434944852  0.4851583154924096  0.5791623798399143   T   T   T
  0.3824220264989123  0.6098628950400452  0.5367628886697576   T   T   T
  0.6667129484492236  0.4827404655721850  0.5105018184570156   F   F   F
  0.5763997220267569  0.4263140504383500  0.5448328182496311   F   F   F
  0.6676432978293575  0.3729001538300590  0.5060985306108566   T   T   T
  0.4597786800200921  0.3382123580617143  0.4954376250559280   T   T   T
  0.6484934028780529  0.5775373212088155  0.4602701624361103   F   F   F
  0.5548844276711782  0.4270541350479338  0.7489748301786462   T   T   T
  0.5906445112983354  0.3483974918460879  0.6659550388633834   T   T   T
  0.4911457539004606  0.2998305597783827  0.4063823901392817   T   T   T
  0.6617422864333197  0.6128219756783182  0.6684267359252190   T   T   T
  0.4896753488230104  0.4117634235084529  0.3036521454960373   T   T   T
  0.6173998115238930  0.3148494545340668  0.5698920013845487   T   T   T
  0.5401928543506721  0.6834499254164170  0.4029892573878702   T   T   T
  0.3890533690694240  0.4158793777538548  0.5263063809463623   T   T   T
  0.6266321257839653  0.5513651998496236  0.2813370323523296   T   T   T
  0.4758630753959210  0.4825696864762493  0.6957826169537459   T   T   T
  0.5683115009887700  0.5094300495444983  0.4784716241115703   F   F   F
  0.4203210565129183  0.5084107200613417  0.5018573595042781   F   F   F
  0.4519987529531385  0.4020752597547390  0.4047370468371422   T   T   T
  0.5607880130498472  0.3503087188903644  0.3509215202918607   T   T   T
  0.4128924048316605  0.5399402290220252  0.6113276620259823   T   T   T
  0.5985242013765614  0.4421708372632540  0.3046979002559252   T   T   T
  0.4543053616242400  0.6001440869784356  0.3641779928064639   T   T   T
  0.4174333985673631  0.4887296599667207  0.3403082955781362   T   T   T
  0.6606352847664493  0.4235833910053211  0.6038771037003428   T   T   T
  0.6746705406444615  0.5777044180409983  0.5643970198313135   T   T   T
  0.5254114404811685  0.5094251252819605  0.3281198974924814   T   T   T
  0.5641459684577258  0.3564304225535510  0.4688118571666059   T   T   T
  0.3155420636780812  0.5403342840207626  0.4948812059162451   T   T   T
  0.6599972385495643  0.4294157030955866  0.4154960089204139   T   T   T
  0.5660841929594156  0.6261437171197244  0.5094829013827464   F   F   F
  0.5924050905037536  0.5277633180368914  0.6929786784997952   T   T   T
  0.4710983184883389  0.6439648964613804  0.5861214012794193   T   T   T
  0.4627930807966566  0.6034958750678341  0.4641856340433675   T   T   T
  0.7164259155646441  0.5738718787291260  0.3832972017331427   T   T   T
  0.5499310510395361  0.5822218838566187  0.4076968008106903   F   F   F
  0.4794126430662260  0.5072205383607624  0.4190535757241776   F   F   F
  0.6944747024685155  0.4816558809266033  0.3238952295860034   T   T   T
  0.7509538292764592  0.4282059423577949  0.4873804670368552   T   T   T
  0.7490360090226019  0.5363326679289840  0.4851298661859408   T   T   T
  0.7485284162904725  0.4882847440201640  0.5726077310411227   T   T   T
  0.6441519793102908  0.4321785791844195  0.7076962084544772   T   T   T
  0.5787545642665369  0.7436497353233068  0.4911344343955121   T   T   T
  0.6192554540844384  0.5183157687966542  0.3801816896793397   F   F   F
  0.5075087185364805  0.5656796061459515  0.6475445723877310   T   T   T
  0.4922009500451665  0.4366758245867572  0.4933013002826740   F   F   F
  0.5608844484509063  0.4404139570509003  0.6454865549417619   F   F   F
  0.5807947128438116  0.6180044565526497  0.6129758757931243   T   T   T
  0.5431289730915666  0.6165984908760772  0.3117440031508193   T   T   T
  0.6266832676176775  0.6238261551976859  0.3595021484962805   T   T   T
  0.3756549284669633  0.5579900253350731  0.4148382584249108   T   T   T
  0.4723078164089713  0.4557257050327763  0.5877273803360978   F   F   F
  0.7285637573141859  0.6334960357761504  0.4839160253525924   T   T   T
  0.4912968387411721  0.3782755774816641  0.6773337472563904   T   T   T
  0.3889636675749454  0.4382586691883739  0.6409959183476214   T   T   T
  0.5544592502646992  0.4379899399457940  0.4037542370104745   F   F   F
  0.4293111356768302  0.3556333514565608  0.6029153003670686   T   T   T
  0.5238972273450981  0.3500465569931954  0.5752275090845453   T   T   T
  0.5233490147943585  0.5384077438438335  0.7486252908272535   T   T   T
  0.5553295762280663  0.5628998074482492  0.7647402244314707   T   T   T
  0.4809087457044651  0.5401039112858401  0.7716738234960329   T   T   T
  0.4833401711334272  0.5612843071256366  0.7984215522359729   T   T   T
 
  0.00000000E+00  0.00000000E+00  0.00000000E+00
  0.00000000E+00  0.00000000E+00  0.00000000E+00
  0.00000000E+00  0.00000000E+00  0.00000000E+00
  0.00000000E+00  0.00000000E+00  0.00000000E+00
  0.00000000E+00  0.00000000E+00  0.00000000E+00
  0.00000000E+00  0.00000000E+00  0.00000000E+00
  0.00000000E+00  0.00000000E+00  0.00000000E+00
  0.00000000E+00  0.00000000E+00  0.00000000E+00
  0.00000000E+00  0.00000000E+00  0.00000000E+00
  0.00000000E+00  0.00000000E+00  0.00000000E+00
  0.00000000E+00  0.00000000E+00  0.00000000E+00
  0.00000000E+00  0.00000000E+00  0.00000000E+00
  0.00000000E+00  0.00000000E+00  0.00000000E+00
  0.00000000E+00  0.00000000E+00  0.00000000E+00
  0.00000000E+00  0.00000000E+00  0.00000000E+00
  0.00000000E+00  0.00000000E+00  0.00000000E+00
  0.00000000E+00  0.00000000E+00  0.00000000E+00
  0.00000000E+00  0.00000000E+00  0.00000000E+00
  0.00000000E+00  0.00000000E+00  0.00000000E+00
  0.00000000E+00  0.00000000E+00  0.00000000E+00
  0.00000000E+00  0.00000000E+00  0.00000000E+00
  0.00000000E+00  0.00000000E+00  0.00000000E+00
  0.00000000E+00  0.00000000E+00  0.00000000E+00
  0.00000000E+00  0.00000000E+00  0.00000000E+00
  0.00000000E+00  0.00000000E+00  0.00000000E+00
  0.00000000E+00  0.00000000E+00  0.00000000E+00
  0.00000000E+00  0.00000000E+00  0.00000000E+00
  0.00000000E+00  0.00000000E+00  0.00000000E+00
  0.00000000E+00  0.00000000E+00  0.00000000E+00
  0.00000000E+00  0.00000000E+00  0.00000000E+00
  0.00000000E+00  0.00000000E+00  0.00000000E+00
  0.00000000E+00  0.00000000E+00  0.00000000E+00
  0.00000000E+00  0.00000000E+00  0.00000000E+00
  0.00000000E+00  0.00000000E+00  0.00000000E+00
  0.00000000E+00  0.00000000E+00  0.00000000E+00
  0.00000000E+00  0.00000000E+00  0.00000000E+00
  0.00000000E+00  0.00000000E+00  0.00000000E+00
  0.00000000E+00  0.00000000E+00  0.00000000E+00
  0.00000000E+00  0.00000000E+00  0.00000000E+00
  0.00000000E+00  0.00000000E+00  0.00000000E+00
  0.00000000E+00  0.00000000E+00  0.00000000E+00
  0.00000000E+00  0.00000000E+00  0.00000000E+00
  0.00000000E+00  0.00000000E+00  0.00000000E+00
  0.00000000E+00  0.00000000E+00  0.00000000E+00
  0.00000000E+00  0.00000000E+00  0.00000000E+00
  0.00000000E+00  0.00000000E+00  0.00000000E+00
  0.00000000E+00  0.00000000E+00  0.00000000E+00
  0.00000000E+00  0.00000000E+00  0.00000000E+00
  0.00000000E+00  0.00000000E+00  0.00000000E+00
  0.00000000E+00  0.00000000E+00  0.00000000E+00
  0.00000000E+00  0.00000000E+00  0.00000000E+00
  0.00000000E+00  0.00000000E+00  0.00000000E+00
  0.00000000E+00  0.00000000E+00  0.00000000E+00
  0.00000000E+00  0.00000000E+00  0.00000000E+00
  0.00000000E+00  0.00000000E+00  0.00000000E+00
  0.00000000E+00  0.00000000E+00  0.00000000E+00
  0.00000000E+00  0.00000000E+00  0.00000000E+00
  0.00000000E+00  0.00000000E+00  0.00000000E+00
  0.00000000E+00  0.00000000E+00  0.00000000E+00
  0.00000000E+00  0.00000000E+00  0.00000000E+00
  0.00000000E+00  0.00000000E+00  0.00000000E+00
  0.00000000E+00  0.00000000E+00  0.00000000E+00
  0.00000000E+00  0.00000000E+00  0.00000000E+00
  0.00000000E+00  0.00000000E+00  0.00000000E+00
  0.00000000E+00  0.00000000E+00  0.00000000E+00
  0.00000000E+00  0.00000000E+00  0.00000000E+00
  0.00000000E+00  0.00000000E+00  0.00000000E+00
  0.00000000E+00  0.00000000E+00  0.00000000E+00
  0.00000000E+00  0.00000000E+00  0.00000000E+00
  0.00000000E+00  0.00000000E+00  0.00000000E+00
  0.00000000E+00  0.00000000E+00  0.00000000E+00
  0.00000000E+00  0.00000000E+00  0.00000000E+00
