Bi La Sn C  O  H                        
   1.00000000000000     
    29.0000000000000000    0.0000000000000000    0.0000000000000000
     0.2488180851000000   28.9989325590000000    0.0000000000000000
    -0.0631677343000000   -0.4515975666000000   28.9964147692999994
   Bi   La   Sn   C    O    H 
    22    23    23     1     2     1
Selective dynamics
Direct
  0.7627238256184693  0.4745793053375236  0.3972305788098746   T   T   T
  0.6474298231990538  0.6860128215454716  0.5505589678106071   T   T   T
  0.3600428069788110  0.4585631972918410  0.4276286238189270   T   T   T
  0.5499738422648585  0.7137550585541808  0.5840440962766117   T   T   T
  0.5915029568994470  0.5209714444905416  0.5841479689498996   F   F   F
  0.6401413445032740  0.6802196309394472  0.4442936946954443   T   T   T
  0.6952083643308761  0.5210299475851792  0.6536973853294479   T   T   T
  0.4864282616857405  0.7018691808356939  0.4988698196735308   T   T   T
  0.5004839460855024  0.5502791173970252  0.5477141156400123   F   F   F
  0.3273228572573471  0.4849959537510640  0.5775326655693905   T   T   T
  0.3819679696279727  0.6087569974035849  0.5375297202845033   T   T   T
  0.6667129484492236  0.4827404655721850  0.5105018184570156   F   F   F
  0.5763997220267569  0.4263140504383500  0.5448328182496311   F   F   F
  0.6690175128487876  0.3745864675364756  0.5058597796507170   T   T   T
  0.4615043540675663  0.3377554573309026  0.4959984214004755   T   T   T
  0.6484934028780529  0.5775373212088155  0.4602701624361103   F   F   F
  0.5556093728792411  0.4355794649918252  0.7501198445593994   T   T   T
  0.5943063115414605  0.3488123818413792  0.6674858021435395   T   T   T
  0.4931691396219012  0.2997708373182233  0.4066969011259578   T   T   T
  0.6597701410479797  0.6169941599867098  0.6678845798286663   T   T   T
  0.4914116737143053  0.4104547830128008  0.3053182406602700   T   T   T
  0.6217376608620255  0.3170984353803674  0.5725954997039657   T   T   T
  0.5395208609756516  0.6836986777348679  0.4046618080016045   T   T   T
  0.3900294445903554  0.4151702438164364  0.5257168763960390   T   T   T
  0.6292465635739286  0.5508552279314834  0.2827070292527434   T   T   T
  0.4730380463345842  0.4784616671285332  0.6927885283278912   T   T   T
  0.5683115009887700  0.5094300495444983  0.4784716241115703   F   F   F
  0.4203210565129183  0.5084107200613417  0.5018573595042781   F   F   F
  0.4524563818588586  0.4014747813402432  0.4052661279680425   T   T   T
  0.5640563500669107  0.3499899919919562  0.3521897921198865   T   T   T
  0.4128036148624392  0.5391753188624929  0.6117910162992091   T   T   T
  0.6000462715826044  0.4402882996689358  0.3051532813784739   T   T   T
  0.4551156031760059  0.5999499092980510  0.3633497071065793   T   T   T
  0.4185381922415221  0.4876555330820096  0.3395563995595342   T   T   T
  0.6613095676953323  0.4254465229573776  0.6044933809001779   T   T   T
  0.6728270930259951  0.5799439553021266  0.5646156635956111   T   T   T
  0.5260803595663578  0.5093470577296411  0.3277854229053099   T   T   T
  0.5654198688826853  0.3568559373243292  0.4692333594787670   T   T   T
  0.3161741370981503  0.5399134396031766  0.4930254159572221   T   T   T
  0.6600363395369552  0.4291793483115203  0.4143295151243059   T   T   T
  0.5660841929594156  0.6261437171197244  0.5094829013827464   F   F   F
  0.5959434923983986  0.5269844827456929  0.6900194780664449   T   T   T
  0.4699945570837221  0.6424674998291194  0.5876768614758666   T   T   T
  0.4620529774001730  0.6039443323157707  0.4648620406340370   T   T   T
  0.7168459197869695  0.5702470156349436  0.3839331528314380   T   T   T
  0.5499310510395361  0.5822218838566187  0.4076968008106903   F   F   F
  0.4794126430662260  0.5072205383607624  0.4190535757241776   F   F   F
  0.6956106201842096  0.4791482619527735  0.3232659518572708   T   T   T
  0.7522054073923182  0.4301561652013874  0.4868892050211802   T   T   T
  0.7468820746594727  0.5402939202872011  0.4868800864815546   T   T   T
  0.7476425652131127  0.4896961059653165  0.5720718649812228   T   T   T
  0.6445811506853856  0.4318304112229328  0.7080373297824700   T   T   T
  0.5775705999610146  0.7431792545095698  0.4930055753369416   T   T   T
  0.6192554540844384  0.5183157687966542  0.3801816896793397   F   F   F
  0.5070837321906967  0.5640553771959237  0.6501637542089770   T   T   T
  0.4922009500451665  0.4366758245867572  0.4933013002826740   F   F   F
  0.5608844484509063  0.4404139570509003  0.6454865549417619   F   F   F
  0.5784452431444737  0.6176704886535380  0.6131887260119397   T   T   T
  0.5456117385286654  0.6168736881217046  0.3134599965426857   T   T   T
  0.6294700369414579  0.6243519358549396  0.3601495214274570   T   T   T
  0.3764686615475620  0.5571397581287634  0.4131655049689107   T   T   T
  0.4723078164089713  0.4557257050327763  0.5877273803360978   F   F   F
  0.7260660521179171  0.6369273939373622  0.4854211418635543   T   T   T
  0.4946845909506482  0.3753037910757500  0.6786239490180745   T   T   T
  0.3861551283708218  0.4372984361715051  0.6404282704880021   T   T   T
  0.5544592502646992  0.4379899399457940  0.4037542370104745   F   F   F
  0.4311845611275145  0.3571802682098062  0.6029935598157455   T   T   T
  0.5262870700581448  0.3488161737226714  0.5760550946635741   T   T   T
  0.8024985953847810  0.4210053586635397  0.3494970097414323   T   T   T
  0.8056046946074223  0.4214762969587771  0.3075735708968610   T   T   T
  0.8265385470414622  0.3901362896038312  0.3763020042659188   T   T   T
  0.8452641515677670  0.3707749076476886  0.3551329998281836   T   T   T
 
  0.00000000E+00  0.00000000E+00  0.00000000E+00
  0.00000000E+00  0.00000000E+00  0.00000000E+00
  0.00000000E+00  0.00000000E+00  0.00000000E+00
  0.00000000E+00  0.00000000E+00  0.00000000E+00
  0.00000000E+00  0.00000000E+00  0.00000000E+00
  0.00000000E+00  0.00000000E+00  0.00000000E+00
  0.00000000E+00  0.00000000E+00  0.00000000E+00
  0.00000000E+00  0.00000000E+00  0.00000000E+00
  0.00000000E+00  0.00000000E+00  0.00000000E+00
  0.00000000E+00  0.00000000E+00  0.00000000E+00
  0.00000000E+00  0.00000000E+00  0.00000000E+00
  0.00000000E+00  0.00000000E+00  0.00000000E+00
  0.00000000E+00  0.00000000E+00  0.00000000E+00
  0.00000000E+00  0.00000000E+00  0.00000000E+00
  0.00000000E+00  0.00000000E+00  0.00000000E+00
  0.00000000E+00  0.00000000E+00  0.00000000E+00
  0.00000000E+00  0.00000000E+00  0.00000000E+00
  0.00000000E+00  0.00000000E+00  0.00000000E+00
  0.00000000E+00  0.00000000E+00  0.00000000E+00
  0.00000000E+00  0.00000000E+00  0.00000000E+00
  0.00000000E+00  0.00000000E+00  0.00000000E+00
  0.00000000E+00  0.00000000E+00  0.00000000E+00
  0.00000000E+00  0.00000000E+00  0.00000000E+00
  0.00000000E+00  0.00000000E+00  0.00000000E+00
  0.00000000E+00  0.00000000E+00  0.00000000E+00
  0.00000000E+00  0.00000000E+00  0.00000000E+00
  0.00000000E+00  0.00000000E+00  0.00000000E+00
  0.00000000E+00  0.00000000E+00  0.00000000E+00
  0.00000000E+00  0.00000000E+00  0.00000000E+00
  0.00000000E+00  0.00000000E+00  0.00000000E+00
  0.00000000E+00  0.00000000E+00  0.00000000E+00
  0.00000000E+00  0.00000000E+00  0.00000000E+00
  0.00000000E+00  0.00000000E+00  0.00000000E+00
  0.00000000E+00  0.00000000E+00  0.00000000E+00
  0.00000000E+00  0.00000000E+00  0.00000000E+00
  0.00000000E+00  0.00000000E+00  0.00000000E+00
  0.00000000E+00  0.00000000E+00  0.00000000E+00
  0.00000000E+00  0.00000000E+00  0.00000000E+00
  0.00000000E+00  0.00000000E+00  0.00000000E+00
  0.00000000E+00  0.00000000E+00  0.00000000E+00
  0.00000000E+00  0.00000000E+00  0.00000000E+00
  0.00000000E+00  0.00000000E+00  0.00000000E+00
  0.00000000E+00  0.00000000E+00  0.00000000E+00
  0.00000000E+00  0.00000000E+00  0.00000000E+00
  0.00000000E+00  0.00000000E+00  0.00000000E+00
  0.00000000E+00  0.00000000E+00  0.00000000E+00
  0.00000000E+00  0.00000000E+00  0.00000000E+00
  0.00000000E+00  0.00000000E+00  0.00000000E+00
  0.00000000E+00  0.00000000E+00  0.00000000E+00
  0.00000000E+00  0.00000000E+00  0.00000000E+00
  0.00000000E+00  0.00000000E+00  0.00000000E+00
  0.00000000E+00  0.00000000E+00  0.00000000E+00
  0.00000000E+00  0.00000000E+00  0.00000000E+00
  0.00000000E+00  0.00000000E+00  0.00000000E+00
  0.00000000E+00  0.00000000E+00  0.00000000E+00
  0.00000000E+00  0.00000000E+00  0.00000000E+00
  0.00000000E+00  0.00000000E+00  0.00000000E+00
  0.00000000E+00  0.00000000E+00  0.00000000E+00
  0.00000000E+00  0.00000000E+00  0.00000000E+00
  0.00000000E+00  0.00000000E+00  0.00000000E+00
  0.00000000E+00  0.00000000E+00  0.00000000E+00
  0.00000000E+00  0.00000000E+00  0.00000000E+00
  0.00000000E+00  0.00000000E+00  0.00000000E+00
  0.00000000E+00  0.00000000E+00  0.00000000E+00
  0.00000000E+00  0.00000000E+00  0.00000000E+00
  0.00000000E+00  0.00000000E+00  0.00000000E+00
  0.00000000E+00  0.00000000E+00  0.00000000E+00
  0.00000000E+00  0.00000000E+00  0.00000000E+00
  0.00000000E+00  0.00000000E+00  0.00000000E+00
  0.00000000E+00  0.00000000E+00  0.00000000E+00
  0.00000000E+00  0.00000000E+00  0.00000000E+00
  0.00000000E+00  0.00000000E+00  0.00000000E+00
