Bi La Sn C  O  H                        
   1.00000000000000     
    29.0000000000000000    0.0000000000000000    0.0000000000000000
     0.2488180851000000   28.9989325590000000    0.0000000000000000
    -0.0631677343000000   -0.4515975666000000   28.9964147692999994
   Bi   La   Sn   C    O    H 
    22    23    23     1     2     1
Selective dynamics
Direct
  0.7580994663537990  0.4779616518747749  0.3993249064922998   T   T   T
  0.6467474431899850  0.6846589384866690  0.5520740351760343   T   T   T
  0.3592427564319555  0.4580392921713435  0.4294195975041886   T   T   T
  0.5500832082973706  0.7131837085548380  0.5841288148684998   T   T   T
  0.5915029568994470  0.5209714444905416  0.5841479689498996   F   F   F
  0.6398136662767202  0.6799157895259604  0.4455670776577833   T   T   T
  0.6952932254084557  0.5230760902759567  0.6548510115058981   T   T   T
  0.4863628719381751  0.7012571370075793  0.4997827000997284   T   T   T
  0.5004839460855024  0.5502791173970252  0.5477141156400123   F   F   F
  0.3235119285181050  0.4859395288115264  0.5731794263439768   T   T   T
  0.3813799358305986  0.6112441184636690  0.5340531158870000   T   T   T
  0.6667129484492236  0.4827404655721850  0.5105018184570156   F   F   F
  0.5763997220267569  0.4263140504383500  0.5448328182496311   F   F   F
  0.6686080414143372  0.3738706240273332  0.5076172186794188   T   T   T
  0.4635117388185727  0.3389210585107257  0.5005863291156609   T   T   T
  0.6484934028780529  0.5775373212088155  0.4602701624361103   F   F   F
  0.5594300199930541  0.4362484558294593  0.7496213581992044   T   T   T
  0.6058691562736719  0.3522301222789085  0.6687895792174207   T   T   T
  0.4914665558586077  0.2986716793839764  0.4109852393430283   T   T   T
  0.6590282456292447  0.6190956651888618  0.6660771227772623   T   T   T
  0.4916359326017791  0.4097451084860285  0.3072966979024932   T   T   T
  0.6205742298070076  0.3158134478501235  0.5729314686860576   T   T   T
  0.5382122058430916  0.6833352313024299  0.4045510553609151   T   T   T
  0.3904621155778701  0.4149633136665377  0.5292676903825516   T   T   T
  0.6282365008784563  0.5519486982614095  0.2826738688641784   T   T   T
  0.4716201269169492  0.4686288157362327  0.6922571506249747   T   T   T
  0.5683115009887700  0.5094300495444983  0.4784716241115703   F   F   F
  0.4203210565129183  0.5084107200613417  0.5018573595042781   F   F   F
  0.4515587639429784  0.4006807482816593  0.4072485755604675   T   T   T
  0.5626013529598587  0.3480138204338458  0.3552409464901863   T   T   T
  0.4089864690936314  0.5402655464158305  0.6076663259629830   T   T   T
  0.5982088344442460  0.4419067669047492  0.3044678679746559   T   T   T
  0.4548522908810621  0.5996306980057455  0.3636326786687591   T   T   T
  0.4176988116544804  0.4865046150531362  0.3407043405043352   T   T   T
  0.6616221930613698  0.4287946577448783  0.6048102304146352   T   T   T
  0.6728288337838271  0.5787493724932609  0.5639947988121023   T   T   T
  0.5258003078475965  0.5092940565747500  0.3280064114869970   T   T   T
  0.5658886330959569  0.3574850456925686  0.4687969133416088   T   T   T
  0.3144029550802126  0.5419403493292467  0.4905658599039304   T   T   T
  0.6594156113454938  0.4294555985786319  0.4163906834973075   T   T   T
  0.5660841929594156  0.6261437171197244  0.5094829013827464   F   F   F
  0.5947928388038657  0.5291937319751696  0.6894679215293806   T   T   T
  0.4694623442292616  0.6416516338398988  0.5882169496608445   T   T   T
  0.4629802033851315  0.6034374686792020  0.4640604954435452   T   T   T
  0.7158956326739911  0.5738070493610976  0.3827897687719725   T   T   T
  0.5499310510395361  0.5822218838566187  0.4076968008106903   F   F   F
  0.4794126430662260  0.5072205383607624  0.4190535757241776   F   F   F
  0.6944978949854377  0.4798318521700631  0.3242969016061448   T   T   T
  0.7514453607078373  0.4294183750192693  0.4892133905533755   T   T   T
  0.7481954058755239  0.5382613417227471  0.4852085372603646   T   T   T
  0.7485921077643043  0.4916828799310167  0.5730876657931203   T   T   T
  0.6490298763391115  0.4387697457623115  0.7090377751814179   T   T   T
  0.5769341797874786  0.7433201582665245  0.4928043307504551   T   T   T
  0.6192554540844384  0.5183157687966542  0.3801816896793397   F   F   F
  0.5030417872678071  0.5585167043154950  0.6499003729246706   T   T   T
  0.4922009500451665  0.4366758245867572  0.4933013002826740   F   F   F
  0.5608844484509063  0.4404139570509003  0.6454865549417619   F   F   F
  0.5760742871088432  0.6157108745074613  0.6138206265001694   T   T   T
  0.5435706446141061  0.6170539760284784  0.3119901052172657   T   T   T
  0.6263407470292479  0.6250804918694897  0.3603816970269801   T   T   T
  0.3768473669077449  0.5568580291000313  0.4129256693878634   T   T   T
  0.4723078164089713  0.4557257050327763  0.5877273803360978   F   F   F
  0.7270673909974237  0.6348934190227378  0.4849703947948267   T   T   T
  0.5063075118951386  0.3664118773065753  0.6869539699167549   T   T   T
  0.3774437422903854  0.4445804790270680  0.6433832322662276   T   T   T
  0.5544592502646992  0.4379899399457940  0.4037542370104745   F   F   F
  0.4347016137186812  0.3684095387193277  0.6156371480016243   T   T   T
  0.5274594842057557  0.3494778317095941  0.5809614215340181   T   T   T
  0.3164348282318085  0.4117251608787860  0.6770754124947728   T   T   T
  0.3019947930781883  0.4226780649035992  0.7153652994045936   T   T   T
  0.2969728598874788  0.3764510902858120  0.6513941281295241   T   T   T
  0.2714668895409596  0.3644913114491651  0.6701346968619111   T   T   T
 
  0.00000000E+00  0.00000000E+00  0.00000000E+00
  0.00000000E+00  0.00000000E+00  0.00000000E+00
  0.00000000E+00  0.00000000E+00  0.00000000E+00
  0.00000000E+00  0.00000000E+00  0.00000000E+00
  0.00000000E+00  0.00000000E+00  0.00000000E+00
  0.00000000E+00  0.00000000E+00  0.00000000E+00
  0.00000000E+00  0.00000000E+00  0.00000000E+00
  0.00000000E+00  0.00000000E+00  0.00000000E+00
  0.00000000E+00  0.00000000E+00  0.00000000E+00
  0.00000000E+00  0.00000000E+00  0.00000000E+00
  0.00000000E+00  0.00000000E+00  0.00000000E+00
  0.00000000E+00  0.00000000E+00  0.00000000E+00
  0.00000000E+00  0.00000000E+00  0.00000000E+00
  0.00000000E+00  0.00000000E+00  0.00000000E+00
  0.00000000E+00  0.00000000E+00  0.00000000E+00
  0.00000000E+00  0.00000000E+00  0.00000000E+00
  0.00000000E+00  0.00000000E+00  0.00000000E+00
  0.00000000E+00  0.00000000E+00  0.00000000E+00
  0.00000000E+00  0.00000000E+00  0.00000000E+00
  0.00000000E+00  0.00000000E+00  0.00000000E+00
  0.00000000E+00  0.00000000E+00  0.00000000E+00
  0.00000000E+00  0.00000000E+00  0.00000000E+00
  0.00000000E+00  0.00000000E+00  0.00000000E+00
  0.00000000E+00  0.00000000E+00  0.00000000E+00
  0.00000000E+00  0.00000000E+00  0.00000000E+00
  0.00000000E+00  0.00000000E+00  0.00000000E+00
  0.00000000E+00  0.00000000E+00  0.00000000E+00
  0.00000000E+00  0.00000000E+00  0.00000000E+00
  0.00000000E+00  0.00000000E+00  0.00000000E+00
  0.00000000E+00  0.00000000E+00  0.00000000E+00
  0.00000000E+00  0.00000000E+00  0.00000000E+00
  0.00000000E+00  0.00000000E+00  0.00000000E+00
  0.00000000E+00  0.00000000E+00  0.00000000E+00
  0.00000000E+00  0.00000000E+00  0.00000000E+00
  0.00000000E+00  0.00000000E+00  0.00000000E+00
  0.00000000E+00  0.00000000E+00  0.00000000E+00
  0.00000000E+00  0.00000000E+00  0.00000000E+00
  0.00000000E+00  0.00000000E+00  0.00000000E+00
  0.00000000E+00  0.00000000E+00  0.00000000E+00
  0.00000000E+00  0.00000000E+00  0.00000000E+00
  0.00000000E+00  0.00000000E+00  0.00000000E+00
  0.00000000E+00  0.00000000E+00  0.00000000E+00
  0.00000000E+00  0.00000000E+00  0.00000000E+00
  0.00000000E+00  0.00000000E+00  0.00000000E+00
  0.00000000E+00  0.00000000E+00  0.00000000E+00
  0.00000000E+00  0.00000000E+00  0.00000000E+00
  0.00000000E+00  0.00000000E+00  0.00000000E+00
  0.00000000E+00  0.00000000E+00  0.00000000E+00
  0.00000000E+00  0.00000000E+00  0.00000000E+00
  0.00000000E+00  0.00000000E+00  0.00000000E+00
  0.00000000E+00  0.00000000E+00  0.00000000E+00
  0.00000000E+00  0.00000000E+00  0.00000000E+00
  0.00000000E+00  0.00000000E+00  0.00000000E+00
  0.00000000E+00  0.00000000E+00  0.00000000E+00
  0.00000000E+00  0.00000000E+00  0.00000000E+00
  0.00000000E+00  0.00000000E+00  0.00000000E+00
  0.00000000E+00  0.00000000E+00  0.00000000E+00
  0.00000000E+00  0.00000000E+00  0.00000000E+00
  0.00000000E+00  0.00000000E+00  0.00000000E+00
  0.00000000E+00  0.00000000E+00  0.00000000E+00
  0.00000000E+00  0.00000000E+00  0.00000000E+00
  0.00000000E+00  0.00000000E+00  0.00000000E+00
  0.00000000E+00  0.00000000E+00  0.00000000E+00
  0.00000000E+00  0.00000000E+00  0.00000000E+00
  0.00000000E+00  0.00000000E+00  0.00000000E+00
  0.00000000E+00  0.00000000E+00  0.00000000E+00
  0.00000000E+00  0.00000000E+00  0.00000000E+00
  0.00000000E+00  0.00000000E+00  0.00000000E+00
  0.00000000E+00  0.00000000E+00  0.00000000E+00
  0.00000000E+00  0.00000000E+00  0.00000000E+00
  0.00000000E+00  0.00000000E+00  0.00000000E+00
  0.00000000E+00  0.00000000E+00  0.00000000E+00
