Bi La Sn C  O  H                        
   1.00000000000000     
    29.0000000000000000    0.0000000000000000    0.0000000000000000
     0.2488180851000000   28.9989325590000000    0.0000000000000000
    -0.0631677343000000   -0.4515975666000000   28.9964147692999994
   Bi   La   Sn   C    O    H 
    22    23    23     1     2     1
Selective dynamics
Direct
  0.7595432247550183  0.4789361752163251  0.3987922498714295   T   T   T
  0.6465917023390274  0.6866847325689954  0.5496504562012068   T   T   T
  0.3605392264650257  0.4592054244833667  0.4279205585911172   T   T   T
  0.5490843673424172  0.7139408786482238  0.5825836429103691   T   T   T
  0.5915029568994470  0.5209714444905416  0.5841479689498996   F   F   F
  0.6396222212345670  0.6804135714423689  0.4440436008685041   T   T   T
  0.6955075249669760  0.5220404677270505  0.6535893381534211   T   T   T
  0.4846765783685227  0.7018801659598369  0.4995693338676948   T   T   T
  0.5004839460855024  0.5502791173970252  0.5477141156400123   F   F   F
  0.3259581262305285  0.4867795485103744  0.5752174118860182   T   T   T
  0.3824722245659157  0.6102953893346785  0.5351586557252388   T   T   T
  0.6667129484492236  0.4827404655721850  0.5105018184570156   F   F   F
  0.5763997220267569  0.4263140504383500  0.5448328182496311   F   F   F
  0.6696155329684930  0.3743328145292021  0.5057985910988273   T   T   T
  0.4638672505669644  0.3392198814815769  0.5001307514134191   T   T   T
  0.6484934028780529  0.5775373212088155  0.4602701624361103   F   F   F
  0.5578754247704494  0.4358130854466682  0.7498285701183387   T   T   T
  0.6010788077263066  0.3509799074837919  0.6695831964204169   T   T   T
  0.4923410483725817  0.2989541449598470  0.4106093242908703   T   T   T
  0.6592389690807501  0.6176929568224450  0.6675317309765724   T   T   T
  0.4915630084758314  0.4104458755080281  0.3063861234785954   T   T   T
  0.6221365255157556  0.3180938452166659  0.5729744173261744   T   T   T
  0.5391932794296752  0.6835372556310824  0.4039126721328254   T   T   T
  0.3902655729242182  0.4153936613164523  0.5274149069570668   T   T   T
  0.6285168778095462  0.5512304336233196  0.2818473845193311   T   T   T
  0.4718563714976410  0.4736189105285554  0.6919801812627064   T   T   T
  0.5683115009887700  0.5094300495444983  0.4784716241115703   F   F   F
  0.4203210565129183  0.5084107200613417  0.5018573595042781   F   F   F
  0.4522808830455321  0.4008307976581638  0.4066654875392455   T   T   T
  0.5625238379601845  0.3485679585295717  0.3542032335241748   T   T   T
  0.4116381859043520  0.5406818530944865  0.6100254452602347   T   T   T
  0.5987546717889678  0.4418061857296506  0.3041283771709591   T   T   T
  0.4551191282608878  0.6006432030140900  0.3624302564345742   T   T   T
  0.4186361176608672  0.4880940353576887  0.3391844070107264   T   T   T
  0.6610805130247726  0.4280213392722910  0.6043353256277938   T   T   T
  0.6728758012389411  0.5802065201710113  0.5642138284544892   T   T   T
  0.5264675881688148  0.5094343607965247  0.3280238116443020   T   T   T
  0.5665569474855681  0.3578899983747797  0.4688725329676239   T   T   T
  0.3157991206982228  0.5417977126015746  0.4913426763914933   T   T   T
  0.6604261969836320  0.4300232637469278  0.4150931364278905   T   T   T
  0.5660841929594156  0.6261437171197244  0.5094829013827464   F   F   F
  0.5956935185493204  0.5280482577525812  0.6901119585219965   T   T   T
  0.4704107920711021  0.6420358115047592  0.5882619045117349   T   T   T
  0.4641199022035460  0.6036674023006294  0.4642334817876373   T   T   T
  0.7162216212159273  0.5741106220446224  0.3827254445697602   T   T   T
  0.5499310510395361  0.5822218838566187  0.4076968008106903   F   F   F
  0.4794126430662260  0.5072205383607624  0.4190535757241776   F   F   F
  0.6953207668329230  0.4805897502798462  0.3236591615279962   T   T   T
  0.7520489445115202  0.4300858276433030  0.4875481054757084   T   T   T
  0.7476695962240555  0.5392409259753080  0.4849085126857076   T   T   T
  0.7486973410273660  0.4915955399353322  0.5720217386863127   T   T   T
  0.6477760661890388  0.4357135399068472  0.7086807675271337   T   T   T
  0.5751807928872448  0.7434159078048133  0.4893819410335787   T   T   T
  0.6192554540844384  0.5183157687966542  0.3801816896793397   F   F   F
  0.5058215501235594  0.5614431452761065  0.6502409777539840   T   T   T
  0.4922009500451665  0.4366758245867572  0.4933013002826740   F   F   F
  0.5608844484509063  0.4404139570509003  0.6454865549417619   F   F   F
  0.5775451680658854  0.6172090415060382  0.6135094226728688   T   T   T
  0.5439786075798309  0.6167046956815395  0.3113849894918451   T   T   T
  0.6269126842740723  0.6239299044121398  0.3593573196354362   T   T   T
  0.3773393874024463  0.5575114188248181  0.4126568931693955   T   T   T
  0.4723078164089713  0.4557257050327763  0.5877273803360978   F   F   F
  0.7261578542982764  0.6364363869802899  0.4842402713641760   T   T   T
  0.5013469930185845  0.3707166908088920  0.6853976356060286   T   T   T
  0.3816429711167396  0.4415190521084119  0.6410780348731031   T   T   T
  0.5544592502646992  0.4379899399457940  0.4037542370104745   F   F   F
  0.4336126778403829  0.3636228840966510  0.6104653737962733   T   T   T
  0.5278682821215018  0.3496752208954753  0.5804727666632744   T   T   T
  0.5846660420058968  0.8164240400920066  0.5169038353978476   T   T   T
  0.5694916950188058  0.8339323918332923  0.5522462458149181   T   T   T
  0.6098042591997255  0.8408104602852393  0.4852960394126910   T   T   T
  0.6124251604014812  0.8725201967540659  0.4976994287799386   T   T   T
 
  0.00000000E+00  0.00000000E+00  0.00000000E+00
  0.00000000E+00  0.00000000E+00  0.00000000E+00
  0.00000000E+00  0.00000000E+00  0.00000000E+00
  0.00000000E+00  0.00000000E+00  0.00000000E+00
  0.00000000E+00  0.00000000E+00  0.00000000E+00
  0.00000000E+00  0.00000000E+00  0.00000000E+00
  0.00000000E+00  0.00000000E+00  0.00000000E+00
  0.00000000E+00  0.00000000E+00  0.00000000E+00
  0.00000000E+00  0.00000000E+00  0.00000000E+00
  0.00000000E+00  0.00000000E+00  0.00000000E+00
  0.00000000E+00  0.00000000E+00  0.00000000E+00
  0.00000000E+00  0.00000000E+00  0.00000000E+00
  0.00000000E+00  0.00000000E+00  0.00000000E+00
  0.00000000E+00  0.00000000E+00  0.00000000E+00
  0.00000000E+00  0.00000000E+00  0.00000000E+00
  0.00000000E+00  0.00000000E+00  0.00000000E+00
  0.00000000E+00  0.00000000E+00  0.00000000E+00
  0.00000000E+00  0.00000000E+00  0.00000000E+00
  0.00000000E+00  0.00000000E+00  0.00000000E+00
  0.00000000E+00  0.00000000E+00  0.00000000E+00
  0.00000000E+00  0.00000000E+00  0.00000000E+00
  0.00000000E+00  0.00000000E+00  0.00000000E+00
  0.00000000E+00  0.00000000E+00  0.00000000E+00
  0.00000000E+00  0.00000000E+00  0.00000000E+00
  0.00000000E+00  0.00000000E+00  0.00000000E+00
  0.00000000E+00  0.00000000E+00  0.00000000E+00
  0.00000000E+00  0.00000000E+00  0.00000000E+00
  0.00000000E+00  0.00000000E+00  0.00000000E+00
  0.00000000E+00  0.00000000E+00  0.00000000E+00
  0.00000000E+00  0.00000000E+00  0.00000000E+00
  0.00000000E+00  0.00000000E+00  0.00000000E+00
  0.00000000E+00  0.00000000E+00  0.00000000E+00
  0.00000000E+00  0.00000000E+00  0.00000000E+00
  0.00000000E+00  0.00000000E+00  0.00000000E+00
  0.00000000E+00  0.00000000E+00  0.00000000E+00
  0.00000000E+00  0.00000000E+00  0.00000000E+00
  0.00000000E+00  0.00000000E+00  0.00000000E+00
  0.00000000E+00  0.00000000E+00  0.00000000E+00
  0.00000000E+00  0.00000000E+00  0.00000000E+00
  0.00000000E+00  0.00000000E+00  0.00000000E+00
  0.00000000E+00  0.00000000E+00  0.00000000E+00
  0.00000000E+00  0.00000000E+00  0.00000000E+00
  0.00000000E+00  0.00000000E+00  0.00000000E+00
  0.00000000E+00  0.00000000E+00  0.00000000E+00
  0.00000000E+00  0.00000000E+00  0.00000000E+00
  0.00000000E+00  0.00000000E+00  0.00000000E+00
  0.00000000E+00  0.00000000E+00  0.00000000E+00
  0.00000000E+00  0.00000000E+00  0.00000000E+00
  0.00000000E+00  0.00000000E+00  0.00000000E+00
  0.00000000E+00  0.00000000E+00  0.00000000E+00
  0.00000000E+00  0.00000000E+00  0.00000000E+00
  0.00000000E+00  0.00000000E+00  0.00000000E+00
  0.00000000E+00  0.00000000E+00  0.00000000E+00
  0.00000000E+00  0.00000000E+00  0.00000000E+00
  0.00000000E+00  0.00000000E+00  0.00000000E+00
  0.00000000E+00  0.00000000E+00  0.00000000E+00
  0.00000000E+00  0.00000000E+00  0.00000000E+00
  0.00000000E+00  0.00000000E+00  0.00000000E+00
  0.00000000E+00  0.00000000E+00  0.00000000E+00
  0.00000000E+00  0.00000000E+00  0.00000000E+00
  0.00000000E+00  0.00000000E+00  0.00000000E+00
  0.00000000E+00  0.00000000E+00  0.00000000E+00
  0.00000000E+00  0.00000000E+00  0.00000000E+00
  0.00000000E+00  0.00000000E+00  0.00000000E+00
  0.00000000E+00  0.00000000E+00  0.00000000E+00
  0.00000000E+00  0.00000000E+00  0.00000000E+00
  0.00000000E+00  0.00000000E+00  0.00000000E+00
  0.00000000E+00  0.00000000E+00  0.00000000E+00
  0.00000000E+00  0.00000000E+00  0.00000000E+00
  0.00000000E+00  0.00000000E+00  0.00000000E+00
  0.00000000E+00  0.00000000E+00  0.00000000E+00
  0.00000000E+00  0.00000000E+00  0.00000000E+00
