Bi La Sn C  O  H                        
   1.00000000000000     
    29.0000000000000000    0.0000000000000000    0.0000000000000000
     0.2488180851000000   28.9989325590000000    0.0000000000000000
    -0.0631677343000000   -0.4515975666000000   28.9964147692999994
   Bi   La   Sn   C    O    H 
    22    23    23     1     2     1
Selective dynamics
Direct
  0.7581630190364674  0.4771352543213208  0.4002624667256310   T   T   T
  0.6458885967966533  0.6851239847382533  0.5528982919489400   T   T   T
  0.3587417801224699  0.4573350629882472  0.4306798411443595   T   T   T
  0.5491646254965989  0.7129396446737097  0.5846863475658750   T   T   T
  0.5915029568994470  0.5209714444905416  0.5841479689498996   F   F   F
  0.6399008588828906  0.6804829410497765  0.4458395151768317   T   T   T
  0.6949707041315495  0.5246800706161293  0.6548478935257755   T   T   T
  0.4852115009908224  0.7003203153788170  0.5000344979297086   T   T   T
  0.5004839460855024  0.5502791173970252  0.5477141156400123   F   F   F
  0.3242472379841235  0.4841321537510414  0.5712946895922089   T   T   T
  0.3810921325723962  0.6124387232865224  0.5335266740187493   T   T   T
  0.6667129484492236  0.4827404655721850  0.5105018184570156   F   F   F
  0.5763997220267569  0.4263140504383500  0.5448328182496311   F   F   F
  0.6672807080856029  0.3727588699712460  0.5084922149154014   T   T   T
  0.4546038775349842  0.3335521113297396  0.4889051493334666   T   T   T
  0.6484934028780529  0.5775373212088155  0.4602701624361103   F   F   F
  0.5595549099401560  0.4363486543322857  0.7490873920508386   T   T   T
  0.6097624246812579  0.3543966495563063  0.6741684321220329   T   T   T
  0.4921153569358286  0.2988649356280338  0.4031328819456783   T   T   T
  0.6582829183854322  0.6204873222177527  0.6654235018760000   T   T   T
  0.4924537286216327  0.4096246503209950  0.3050097972939479   T   T   T
  0.6067408039606732  0.3256348995582866  0.5743874440138039   T   T   T
  0.5381536645050206  0.6832377246163539  0.4049440524970878   T   T   T
  0.3928200450232528  0.4126447759726495  0.5302430203684064   T   T   T
  0.6298719604852644  0.5523441534654880  0.2833050155372409   T   T   T
  0.4711138677839168  0.4662340675799022  0.6922140797041544   T   T   T
  0.5683115009887700  0.5094300495444983  0.4784716241115703   F   F   F
  0.4203210565129183  0.5084107200613417  0.5018573595042781   F   F   F
  0.4512844764308266  0.4018483540185948  0.4046378503827051   T   T   T
  0.5650384982908135  0.3499288795247819  0.3526881419651075   T   T   T
  0.4095042132158195  0.5408284693218386  0.6065640938627407   T   T   T
  0.5986631940914109  0.4427938150335921  0.3041173994085751   T   T   T
  0.4551369722992106  0.5990519321839863  0.3631407066635658   T   T   T
  0.4182767631569510  0.4845873084471862  0.3414083026310847   T   T   T
  0.6611787720929163  0.4292620602546766  0.6055334524489804   T   T   T
  0.6723592758530803  0.5794462878337955  0.5639882429756908   T   T   T
  0.5262141787040016  0.5091390078164115  0.3277913744076272   T   T   T
  0.5626665867311760  0.3566579794654071  0.4682019359875348   T   T   T
  0.3153430980963943  0.5429303066782288  0.4903740447778462   T   T   T
  0.6592004026820004  0.4288341024762349  0.4169361924963000   T   T   T
  0.5660841929594156  0.6261437171197244  0.5094829013827464   F   F   F
  0.5944268720321714  0.5299748760445117  0.6895816377348832   T   T   T
  0.4689432089420406  0.6410251036244500  0.5888298917281699   T   T   T
  0.4620652447187177  0.6026266355007401  0.4637055362131440   T   T   T
  0.7162448736164452  0.5732176291719692  0.3831901749549874   T   T   T
  0.5499310510395361  0.5822218838566187  0.4076968008106903   F   F   F
  0.4794126430662260  0.5072205383607624  0.4190535757241776   F   F   F
  0.6948574517366798  0.4789055526127942  0.3250285680506469   T   T   T
  0.7506958824664214  0.4283920773522834  0.4897619775321994   T   T   T
  0.7481941144592587  0.5386202739677792  0.4855800812529056   T   T   T
  0.7479997972894991  0.4918785465768938  0.5728493208251280   T   T   T
  0.6505019817424718  0.4416609101458341  0.7104004616677126   T   T   T
  0.5758033811201339  0.7424399607991568  0.4934326928588859   T   T   T
  0.6192554540844384  0.5183157687966542  0.3801816896793397   F   F   F
  0.5026436811884941  0.5568428017017113  0.6500083627219796   T   T   T
  0.4922009500451665  0.4366758245867572  0.4933013002826740   F   F   F
  0.5608844484509063  0.4404139570509003  0.6454865549417619   F   F   F
  0.5749805290277887  0.6155147254865599  0.6137209708559187   T   T   T
  0.5445631094461302  0.6169955305669339  0.3123728704038523   T   T   T
  0.6272217556931974  0.6254742302789433  0.3609017136845385   T   T   T
  0.3767755412203503  0.5557060579581568  0.4115857210038295   T   T   T
  0.4723078164089713  0.4557257050327763  0.5877273803360978   F   F   F
  0.7269330804768803  0.6352813918271184  0.4849216740712415   T   T   T
  0.5093272830153289  0.3652263284476756  0.6821979427637943   T   T   T
  0.3775980855430984  0.4473601488601343  0.6431046005736963   T   T   T
  0.5544592502646992  0.4379899399457940  0.4037542370104745   F   F   F
  0.4251975939577442  0.3662439442689053  0.6246265222841052   T   T   T
  0.5060818731094739  0.3600274257604137  0.5709185823762181   T   T   T
  0.6679282316675413  0.2760651298133542  0.5949674681603934   T   T   T
  0.6898006444330897  0.2776789589627482  0.6310498999915701   T   T   T
  0.6760385606478382  0.2431255290003240  0.5612727181755810   T   T   T
  0.7014235566515218  0.2233614530111422  0.5725041406631046   T   T   T
 
  0.00000000E+00  0.00000000E+00  0.00000000E+00
  0.00000000E+00  0.00000000E+00  0.00000000E+00
  0.00000000E+00  0.00000000E+00  0.00000000E+00
  0.00000000E+00  0.00000000E+00  0.00000000E+00
  0.00000000E+00  0.00000000E+00  0.00000000E+00
  0.00000000E+00  0.00000000E+00  0.00000000E+00
  0.00000000E+00  0.00000000E+00  0.00000000E+00
  0.00000000E+00  0.00000000E+00  0.00000000E+00
  0.00000000E+00  0.00000000E+00  0.00000000E+00
  0.00000000E+00  0.00000000E+00  0.00000000E+00
  0.00000000E+00  0.00000000E+00  0.00000000E+00
  0.00000000E+00  0.00000000E+00  0.00000000E+00
  0.00000000E+00  0.00000000E+00  0.00000000E+00
  0.00000000E+00  0.00000000E+00  0.00000000E+00
  0.00000000E+00  0.00000000E+00  0.00000000E+00
  0.00000000E+00  0.00000000E+00  0.00000000E+00
  0.00000000E+00  0.00000000E+00  0.00000000E+00
  0.00000000E+00  0.00000000E+00  0.00000000E+00
  0.00000000E+00  0.00000000E+00  0.00000000E+00
  0.00000000E+00  0.00000000E+00  0.00000000E+00
  0.00000000E+00  0.00000000E+00  0.00000000E+00
  0.00000000E+00  0.00000000E+00  0.00000000E+00
  0.00000000E+00  0.00000000E+00  0.00000000E+00
  0.00000000E+00  0.00000000E+00  0.00000000E+00
  0.00000000E+00  0.00000000E+00  0.00000000E+00
  0.00000000E+00  0.00000000E+00  0.00000000E+00
  0.00000000E+00  0.00000000E+00  0.00000000E+00
  0.00000000E+00  0.00000000E+00  0.00000000E+00
  0.00000000E+00  0.00000000E+00  0.00000000E+00
  0.00000000E+00  0.00000000E+00  0.00000000E+00
  0.00000000E+00  0.00000000E+00  0.00000000E+00
  0.00000000E+00  0.00000000E+00  0.00000000E+00
  0.00000000E+00  0.00000000E+00  0.00000000E+00
  0.00000000E+00  0.00000000E+00  0.00000000E+00
  0.00000000E+00  0.00000000E+00  0.00000000E+00
  0.00000000E+00  0.00000000E+00  0.00000000E+00
  0.00000000E+00  0.00000000E+00  0.00000000E+00
  0.00000000E+00  0.00000000E+00  0.00000000E+00
  0.00000000E+00  0.00000000E+00  0.00000000E+00
  0.00000000E+00  0.00000000E+00  0.00000000E+00
  0.00000000E+00  0.00000000E+00  0.00000000E+00
  0.00000000E+00  0.00000000E+00  0.00000000E+00
  0.00000000E+00  0.00000000E+00  0.00000000E+00
  0.00000000E+00  0.00000000E+00  0.00000000E+00
  0.00000000E+00  0.00000000E+00  0.00000000E+00
  0.00000000E+00  0.00000000E+00  0.00000000E+00
  0.00000000E+00  0.00000000E+00  0.00000000E+00
  0.00000000E+00  0.00000000E+00  0.00000000E+00
  0.00000000E+00  0.00000000E+00  0.00000000E+00
  0.00000000E+00  0.00000000E+00  0.00000000E+00
  0.00000000E+00  0.00000000E+00  0.00000000E+00
  0.00000000E+00  0.00000000E+00  0.00000000E+00
  0.00000000E+00  0.00000000E+00  0.00000000E+00
  0.00000000E+00  0.00000000E+00  0.00000000E+00
  0.00000000E+00  0.00000000E+00  0.00000000E+00
  0.00000000E+00  0.00000000E+00  0.00000000E+00
  0.00000000E+00  0.00000000E+00  0.00000000E+00
  0.00000000E+00  0.00000000E+00  0.00000000E+00
  0.00000000E+00  0.00000000E+00  0.00000000E+00
  0.00000000E+00  0.00000000E+00  0.00000000E+00
  0.00000000E+00  0.00000000E+00  0.00000000E+00
  0.00000000E+00  0.00000000E+00  0.00000000E+00
  0.00000000E+00  0.00000000E+00  0.00000000E+00
  0.00000000E+00  0.00000000E+00  0.00000000E+00
  0.00000000E+00  0.00000000E+00  0.00000000E+00
  0.00000000E+00  0.00000000E+00  0.00000000E+00
  0.00000000E+00  0.00000000E+00  0.00000000E+00
  0.00000000E+00  0.00000000E+00  0.00000000E+00
  0.00000000E+00  0.00000000E+00  0.00000000E+00
  0.00000000E+00  0.00000000E+00  0.00000000E+00
  0.00000000E+00  0.00000000E+00  0.00000000E+00
  0.00000000E+00  0.00000000E+00  0.00000000E+00
