Bi La Sn C  O  H                        
   1.00000000000000     
    29.0000000000000000    0.0000000000000000    0.0000000000000000
     0.2488180851000000   28.9989325590000000    0.0000000000000000
    -0.0631677343000000   -0.4515975666000000   28.9964147692999994
   Bi   La   Sn   C    O    H 
    22    23    23     1     2     1
Selective dynamics
Direct
  0.7616103369888093  0.4859800837733341  0.3965322167697750   T   T   T
  0.6476571094303225  0.6848328861100468  0.5493177140305135   T   T   T
  0.3514064089507224  0.4626745768325829  0.4304816078723245   T   T   T
  0.5518038835078576  0.7143339469430670  0.5831742250277856   T   T   T
  0.5915029568994470  0.5209714444905416  0.5841479689498996   F   F   F
  0.6395446070914390  0.6783057905662403  0.4427429691079051   T   T   T
  0.6954887310962395  0.5214463911796496  0.6553819255886850   T   T   T
  0.4864212254203082  0.7016101903088346  0.4986573914641016   T   T   T
  0.5004839460855024  0.5502791173970252  0.5477141156400123   F   F   F
  0.3271007934791730  0.4858321934380699  0.5758300080463624   T   T   T
  0.3845956390506828  0.6112304529827076  0.5375706587971818   T   T   T
  0.6667129484492236  0.4827404655721850  0.5105018184570156   F   F   F
  0.5763997220267569  0.4263140504383500  0.5448328182496311   F   F   F
  0.6733561580643542  0.3744583254001989  0.5052854005499808   T   T   T
  0.4612685716766683  0.3378203871498843  0.4929683089238268   T   T   T
  0.6484934028780529  0.5775373212088155  0.4602701624361103   F   F   F
  0.5546815216058644  0.4340442000052707  0.7485184132374350   T   T   T
  0.5940486052092621  0.3507219177749440  0.6698456971057317   T   T   T
  0.4972291897774078  0.3200946787556508  0.3933433028020281   T   T   T
  0.6601874698680803  0.6172896262730352  0.6680216688546137   T   T   T
  0.5016132398767519  0.4016480725098324  0.3208685885196126   T   T   T
  0.6225461072011229  0.3204177224990896  0.5744642260330152   T   T   T
  0.5377923322361697  0.6838069276172922  0.4033818591221404   T   T   T
  0.3898619258235592  0.4160775656397229  0.5237127536965138   T   T   T
  0.6247046883599239  0.5542665624533475  0.2803265114191431   T   T   T
  0.4725071300773163  0.4780841461802085  0.6928128422617215   T   T   T
  0.5683115009887700  0.5094300495444983  0.4784716241115703   F   F   F
  0.4203210565129183  0.5084107200613417  0.5018573595042781   F   F   F
  0.4419797135385342  0.4077421018804195  0.4098294535884078   T   T   T
  0.5965599637842142  0.3452709096357091  0.3615635313218855   T   T   T
  0.4123739910191759  0.5391426450185557  0.6109388534554349   T   T   T
  0.6009318789793648  0.4431716922464550  0.3070450387275063   T   T   T
  0.4543571524257719  0.5980995251700592  0.3633731893653748   T   T   T
  0.4190725080893977  0.4827314265784211  0.3431283743760595   T   T   T
  0.6594451967365527  0.4280912642412801  0.6054348657687328   T   T   T
  0.6736971767835533  0.5788757049341312  0.5648734463349642   T   T   T
  0.5253545526239329  0.5085992525064321  0.3269208815950210   T   T   T
  0.5665848245269378  0.3543365387009577  0.4724462292321999   T   T   T
  0.3156225434829770  0.5458183509215224  0.4947424574334958   T   T   T
  0.6630613454938142  0.4283975878886048  0.4122662013432339   T   T   T
  0.5660841929594156  0.6261437171197244  0.5094829013827464   F   F   F
  0.5956117146290293  0.5274220255358005  0.6899389759411626   T   T   T
  0.4724384885854017  0.6433948831464379  0.5884187163140514   T   T   T
  0.4624465118433819  0.6032034321695000  0.4639172730511144   T   T   T
  0.7164371906322088  0.5819411352881741  0.3845200445820697   T   T   T
  0.5499310510395361  0.5822218838566187  0.4076968008106903   F   F   F
  0.4794126430662260  0.5072205383607624  0.4190535757241776   F   F   F
  0.6965962944788291  0.4922351873422333  0.3238271176888778   T   T   T
  0.7532094932521424  0.4352361502147096  0.4835543911601667   T   T   T
  0.7485259970468821  0.5412895343290531  0.4862804078283584   T   T   T
  0.7472792374817570  0.4901775441418583  0.5723450950192382   T   T   T
  0.6461569779736029  0.4346341116608522  0.7097589848138235   T   T   T
  0.5774014066934293  0.7423492852982043  0.4913849645109517   T   T   T
  0.6192554540844384  0.5183157687966542  0.3801816896793397   F   F   F
  0.5062873408566120  0.5635171061266888  0.6498061718834441   T   T   T
  0.4922009500451665  0.4366758245867572  0.4933013002826740   F   F   F
  0.5608844484509063  0.4404139570509003  0.6454865549417619   F   F   F
  0.5790136598618044  0.6173200188167217  0.6133667315463518   T   T   T
  0.5410634049986559  0.6181068254448004  0.3103608857852224   T   T   T
  0.6240723242308573  0.6250799844701086  0.3580051264304075   T   T   T
  0.3754245076035884  0.5570300261459185  0.4123003421553693   T   T   T
  0.4723078164089713  0.4557257050327763  0.5877273803360978   F   F   F
  0.7269534264321514  0.6375365494384921  0.4864245418119914   T   T   T
  0.4933848607709833  0.3749093628263773  0.6770020956132726   T   T   T
  0.3862566598798948  0.4363417383025446  0.6377568647216709   T   T   T
  0.5544592502646992  0.4379899399457940  0.4037542370104745   F   F   F
  0.4300298689952593  0.3553423528707685  0.5996346207443999   T   T   T
  0.5254876516751082  0.3491716852417385  0.5769238217118590   T   T   T
  0.6476693302279264  0.3486774059245527  0.4317852238336288   T   T   T
  0.6257279570145884  0.3084441097015908  0.4303068127820812   T   T   T
  0.6571161511406441  0.3825234943704957  0.3250613924127836   T   T   T
  0.6857942770205284  0.3989001839755377  0.3181046889215549   T   T   T
 
  0.00000000E+00  0.00000000E+00  0.00000000E+00
  0.00000000E+00  0.00000000E+00  0.00000000E+00
  0.00000000E+00  0.00000000E+00  0.00000000E+00
  0.00000000E+00  0.00000000E+00  0.00000000E+00
  0.00000000E+00  0.00000000E+00  0.00000000E+00
  0.00000000E+00  0.00000000E+00  0.00000000E+00
  0.00000000E+00  0.00000000E+00  0.00000000E+00
  0.00000000E+00  0.00000000E+00  0.00000000E+00
  0.00000000E+00  0.00000000E+00  0.00000000E+00
  0.00000000E+00  0.00000000E+00  0.00000000E+00
  0.00000000E+00  0.00000000E+00  0.00000000E+00
  0.00000000E+00  0.00000000E+00  0.00000000E+00
  0.00000000E+00  0.00000000E+00  0.00000000E+00
  0.00000000E+00  0.00000000E+00  0.00000000E+00
  0.00000000E+00  0.00000000E+00  0.00000000E+00
  0.00000000E+00  0.00000000E+00  0.00000000E+00
  0.00000000E+00  0.00000000E+00  0.00000000E+00
  0.00000000E+00  0.00000000E+00  0.00000000E+00
  0.00000000E+00  0.00000000E+00  0.00000000E+00
  0.00000000E+00  0.00000000E+00  0.00000000E+00
  0.00000000E+00  0.00000000E+00  0.00000000E+00
  0.00000000E+00  0.00000000E+00  0.00000000E+00
  0.00000000E+00  0.00000000E+00  0.00000000E+00
  0.00000000E+00  0.00000000E+00  0.00000000E+00
  0.00000000E+00  0.00000000E+00  0.00000000E+00
  0.00000000E+00  0.00000000E+00  0.00000000E+00
  0.00000000E+00  0.00000000E+00  0.00000000E+00
  0.00000000E+00  0.00000000E+00  0.00000000E+00
  0.00000000E+00  0.00000000E+00  0.00000000E+00
  0.00000000E+00  0.00000000E+00  0.00000000E+00
  0.00000000E+00  0.00000000E+00  0.00000000E+00
  0.00000000E+00  0.00000000E+00  0.00000000E+00
  0.00000000E+00  0.00000000E+00  0.00000000E+00
  0.00000000E+00  0.00000000E+00  0.00000000E+00
  0.00000000E+00  0.00000000E+00  0.00000000E+00
  0.00000000E+00  0.00000000E+00  0.00000000E+00
  0.00000000E+00  0.00000000E+00  0.00000000E+00
  0.00000000E+00  0.00000000E+00  0.00000000E+00
  0.00000000E+00  0.00000000E+00  0.00000000E+00
  0.00000000E+00  0.00000000E+00  0.00000000E+00
  0.00000000E+00  0.00000000E+00  0.00000000E+00
  0.00000000E+00  0.00000000E+00  0.00000000E+00
  0.00000000E+00  0.00000000E+00  0.00000000E+00
  0.00000000E+00  0.00000000E+00  0.00000000E+00
  0.00000000E+00  0.00000000E+00  0.00000000E+00
  0.00000000E+00  0.00000000E+00  0.00000000E+00
  0.00000000E+00  0.00000000E+00  0.00000000E+00
  0.00000000E+00  0.00000000E+00  0.00000000E+00
  0.00000000E+00  0.00000000E+00  0.00000000E+00
  0.00000000E+00  0.00000000E+00  0.00000000E+00
  0.00000000E+00  0.00000000E+00  0.00000000E+00
  0.00000000E+00  0.00000000E+00  0.00000000E+00
  0.00000000E+00  0.00000000E+00  0.00000000E+00
  0.00000000E+00  0.00000000E+00  0.00000000E+00
  0.00000000E+00  0.00000000E+00  0.00000000E+00
  0.00000000E+00  0.00000000E+00  0.00000000E+00
  0.00000000E+00  0.00000000E+00  0.00000000E+00
  0.00000000E+00  0.00000000E+00  0.00000000E+00
  0.00000000E+00  0.00000000E+00  0.00000000E+00
  0.00000000E+00  0.00000000E+00  0.00000000E+00
  0.00000000E+00  0.00000000E+00  0.00000000E+00
  0.00000000E+00  0.00000000E+00  0.00000000E+00
  0.00000000E+00  0.00000000E+00  0.00000000E+00
  0.00000000E+00  0.00000000E+00  0.00000000E+00
  0.00000000E+00  0.00000000E+00  0.00000000E+00
  0.00000000E+00  0.00000000E+00  0.00000000E+00
  0.00000000E+00  0.00000000E+00  0.00000000E+00
  0.00000000E+00  0.00000000E+00  0.00000000E+00
  0.00000000E+00  0.00000000E+00  0.00000000E+00
  0.00000000E+00  0.00000000E+00  0.00000000E+00
  0.00000000E+00  0.00000000E+00  0.00000000E+00
  0.00000000E+00  0.00000000E+00  0.00000000E+00
