Bi La Sn C  O  H                        
   1.00000000000000     
    29.0000000000000000    0.0000000000000000    0.0000000000000000
     0.2488180851000000   28.9989325590000000    0.0000000000000000
    -0.0631677343000000   -0.4515975666000000   28.9964147692999994
   Bi   La   Sn   C    O    H 
    22    23    23     1     2     1
Selective dynamics
Direct
  0.7593315345856092  0.4783470671018292  0.3980335470540868   T   T   T
  0.6477932026033961  0.6840879320752620  0.5505710173209429   T   T   T
  0.3599829014796441  0.4577685032932911  0.4287100122099004   T   T   T
  0.5524872276436632  0.7138558759206953  0.5842606360258270   T   T   T
  0.5915029568994470  0.5209714444905416  0.5841479689498996   F   F   F
  0.6402800876985812  0.6791918240706598  0.4445730971599945   T   T   T
  0.6963415462962369  0.5214929476996604  0.6546722634442910   T   T   T
  0.4870104006578828  0.7017070024775968  0.5001734043600286   T   T   T
  0.5004839460855024  0.5502791173970252  0.5477141156400123   F   F   F
  0.3250499829343657  0.4858966305201735  0.5758033271811861   T   T   T
  0.3856716313608696  0.6096768807463298  0.5369728875171637   T   T   T
  0.6667129484492236  0.4827404655721850  0.5105018184570156   F   F   F
  0.5763997220267569  0.4263140504383500  0.5448328182496311   F   F   F
  0.6682756281368846  0.3740555692308242  0.5069066890348176   T   T   T
  0.4625484533946089  0.3385287057606987  0.4999825113316258   T   T   T
  0.6484934028780529  0.5775373212088155  0.4602701624361103   F   F   F
  0.5606830519721144  0.4370668254099258  0.7495515156277334   T   T   T
  0.6041186314014073  0.3519218822791162  0.6689667364487325   T   T   T
  0.4918145759225077  0.2987165835706670  0.4104652878513442   T   T   T
  0.6610939902762017  0.6179619573314237  0.6664951904872211   T   T   T
  0.4917969466337813  0.4097811251404617  0.3068372454365946   T   T   T
  0.6215274631634858  0.3158931304722479  0.5729062579994856   T   T   T
  0.5380370703221956  0.6833328607835483  0.4042348131893798   T   T   T
  0.3906642888605382  0.4157291626193005  0.5283818558716251   T   T   T
  0.6281937221187800  0.5520069021848597  0.2824652567583100   T   T   T
  0.4724736481743120  0.4703240706021658  0.6930319173599627   T   T   T
  0.5683115009887700  0.5094300495444983  0.4784716241115703   F   F   F
  0.4203210565129183  0.5084107200613417  0.5018573595042781   F   F   F
  0.4520833808721727  0.4005852577080564  0.4067927727720304   T   T   T
  0.5631068733881783  0.3483123770340439  0.3548309304964912   T   T   T
  0.4110423050882052  0.5385450792042779  0.6110786288671696   T   T   T
  0.5983151984838611  0.4418631331828448  0.3045317352976246   T   T   T
  0.4549061449455350  0.6003740403328151  0.3635057651593101   T   T   T
  0.4179178264840227  0.4868183420211480  0.3403608199764762   T   T   T
  0.6611741259944722  0.4282488603133044  0.6042281151522758   T   T   T
  0.6739978618713922  0.5783107707393834  0.5639535611863249   T   T   T
  0.5260118010373493  0.5093185155855225  0.3279772076324097   T   T   T
  0.5652650476643001  0.3575213566351883  0.4691333950563251   T   T   T
  0.3150060610948520  0.5398256364996353  0.4910530480595882   T   T   T
  0.6599796176424914  0.4297643728335795  0.4155520135431512   T   T   T
  0.5660841929594156  0.6261437171197244  0.5094829013827464   F   F   F
  0.5963070974297390  0.5287631164837527  0.6893123423106795   T   T   T
  0.4730223684273464  0.6429561968987474  0.5902329570029767   T   T   T
  0.4642059013914940  0.6034802446015385  0.4637584781082862   T   T   T
  0.7157417759848430  0.5738160059964378  0.3825243440892115   T   T   T
  0.5499310510395361  0.5822218838566187  0.4076968008106903   F   F   F
  0.4794126430662260  0.5072205383607624  0.4190535757241776   F   F   F
  0.6946134166932491  0.4798016949528970  0.3238909564082469   T   T   T
  0.7512043996692032  0.4296638113827581  0.4871590791067410   T   T   T
  0.7482162203127903  0.5374809969859178  0.4846279559650110   T   T   T
  0.7488881743300659  0.4899169489717922  0.5723966551623176   T   T   T
  0.6502933185302779  0.4368773966573756  0.7086741322933197   T   T   T
  0.5777934795011388  0.7429539225878327  0.4920762616564057   T   T   T
  0.6192554540844384  0.5183157687966542  0.3801816896793397   F   F   F
  0.5052526657449575  0.5590775622373718  0.6497427123011267   T   T   T
  0.4922009500451665  0.4366758245867572  0.4933013002826740   F   F   F
  0.5608844484509063  0.4404139570509003  0.6454865549417619   F   F   F
  0.5785737711945628  0.6163961828579811  0.6137617972319205   T   T   T
  0.5433629060104876  0.6172495390429155  0.3116206343609702   T   T   T
  0.6261093634835709  0.6248721567619262  0.3598479255142537   T   T   T
  0.3772654228265110  0.5571025155055935  0.4132120550293136   T   T   T
  0.4723078164089713  0.4557257050327763  0.5877273803360978   F   F   F
  0.7280159733878755  0.6341892020148110  0.4839363585995649   T   T   T
  0.5042536199094122  0.3684341588545251  0.6852313561265339   T   T   T
  0.3817044348522429  0.4405330511491570  0.6416010713356884   T   T   T
  0.5544592502646992  0.4379899399457940  0.4037542370104745   F   F   F
  0.4349236323081626  0.3632998880837114  0.6114523565073489   T   T   T
  0.5281671638465929  0.3490139007312767  0.5793537021333633   T   T   T
  0.3169456065694106  0.6516604436306308  0.5227202858271499   T   T   T
  0.3058680162211055  0.6906172521474119  0.5336468696999528   T   T   T
  0.2839884376204945  0.6240156154828564  0.4966099270194695   T   T   T
  0.2567718779588131  0.6436178000323488  0.4910320024736632   T   T   T
 
  0.00000000E+00  0.00000000E+00  0.00000000E+00
  0.00000000E+00  0.00000000E+00  0.00000000E+00
  0.00000000E+00  0.00000000E+00  0.00000000E+00
  0.00000000E+00  0.00000000E+00  0.00000000E+00
  0.00000000E+00  0.00000000E+00  0.00000000E+00
  0.00000000E+00  0.00000000E+00  0.00000000E+00
  0.00000000E+00  0.00000000E+00  0.00000000E+00
  0.00000000E+00  0.00000000E+00  0.00000000E+00
  0.00000000E+00  0.00000000E+00  0.00000000E+00
  0.00000000E+00  0.00000000E+00  0.00000000E+00
  0.00000000E+00  0.00000000E+00  0.00000000E+00
  0.00000000E+00  0.00000000E+00  0.00000000E+00
  0.00000000E+00  0.00000000E+00  0.00000000E+00
  0.00000000E+00  0.00000000E+00  0.00000000E+00
  0.00000000E+00  0.00000000E+00  0.00000000E+00
  0.00000000E+00  0.00000000E+00  0.00000000E+00
  0.00000000E+00  0.00000000E+00  0.00000000E+00
  0.00000000E+00  0.00000000E+00  0.00000000E+00
  0.00000000E+00  0.00000000E+00  0.00000000E+00
  0.00000000E+00  0.00000000E+00  0.00000000E+00
  0.00000000E+00  0.00000000E+00  0.00000000E+00
  0.00000000E+00  0.00000000E+00  0.00000000E+00
  0.00000000E+00  0.00000000E+00  0.00000000E+00
  0.00000000E+00  0.00000000E+00  0.00000000E+00
  0.00000000E+00  0.00000000E+00  0.00000000E+00
  0.00000000E+00  0.00000000E+00  0.00000000E+00
  0.00000000E+00  0.00000000E+00  0.00000000E+00
  0.00000000E+00  0.00000000E+00  0.00000000E+00
  0.00000000E+00  0.00000000E+00  0.00000000E+00
  0.00000000E+00  0.00000000E+00  0.00000000E+00
  0.00000000E+00  0.00000000E+00  0.00000000E+00
  0.00000000E+00  0.00000000E+00  0.00000000E+00
  0.00000000E+00  0.00000000E+00  0.00000000E+00
  0.00000000E+00  0.00000000E+00  0.00000000E+00
  0.00000000E+00  0.00000000E+00  0.00000000E+00
  0.00000000E+00  0.00000000E+00  0.00000000E+00
  0.00000000E+00  0.00000000E+00  0.00000000E+00
  0.00000000E+00  0.00000000E+00  0.00000000E+00
  0.00000000E+00  0.00000000E+00  0.00000000E+00
  0.00000000E+00  0.00000000E+00  0.00000000E+00
  0.00000000E+00  0.00000000E+00  0.00000000E+00
  0.00000000E+00  0.00000000E+00  0.00000000E+00
  0.00000000E+00  0.00000000E+00  0.00000000E+00
  0.00000000E+00  0.00000000E+00  0.00000000E+00
  0.00000000E+00  0.00000000E+00  0.00000000E+00
  0.00000000E+00  0.00000000E+00  0.00000000E+00
  0.00000000E+00  0.00000000E+00  0.00000000E+00
  0.00000000E+00  0.00000000E+00  0.00000000E+00
  0.00000000E+00  0.00000000E+00  0.00000000E+00
  0.00000000E+00  0.00000000E+00  0.00000000E+00
  0.00000000E+00  0.00000000E+00  0.00000000E+00
  0.00000000E+00  0.00000000E+00  0.00000000E+00
  0.00000000E+00  0.00000000E+00  0.00000000E+00
  0.00000000E+00  0.00000000E+00  0.00000000E+00
  0.00000000E+00  0.00000000E+00  0.00000000E+00
  0.00000000E+00  0.00000000E+00  0.00000000E+00
  0.00000000E+00  0.00000000E+00  0.00000000E+00
  0.00000000E+00  0.00000000E+00  0.00000000E+00
  0.00000000E+00  0.00000000E+00  0.00000000E+00
  0.00000000E+00  0.00000000E+00  0.00000000E+00
  0.00000000E+00  0.00000000E+00  0.00000000E+00
  0.00000000E+00  0.00000000E+00  0.00000000E+00
  0.00000000E+00  0.00000000E+00  0.00000000E+00
  0.00000000E+00  0.00000000E+00  0.00000000E+00
  0.00000000E+00  0.00000000E+00  0.00000000E+00
  0.00000000E+00  0.00000000E+00  0.00000000E+00
  0.00000000E+00  0.00000000E+00  0.00000000E+00
  0.00000000E+00  0.00000000E+00  0.00000000E+00
  0.00000000E+00  0.00000000E+00  0.00000000E+00
  0.00000000E+00  0.00000000E+00  0.00000000E+00
  0.00000000E+00  0.00000000E+00  0.00000000E+00
  0.00000000E+00  0.00000000E+00  0.00000000E+00
