Bi La Sn C  O  H                        
   1.00000000000000     
    29.0000000000000000    0.0000000000000000    0.0000000000000000
     0.2488180851000000   28.9989325590000000    0.0000000000000000
    -0.0631677343000000   -0.4515975666000000   28.9964147692999994
   Bi   La   Sn   C    O    H 
    22    23    23     1     2     1
Selective dynamics
Direct
  0.7592934854950434  0.4783321366345210  0.3997750830418978   T   T   T
  0.6473493104601926  0.6855376902515715  0.5502070579768418   T   T   T
  0.3599824558191865  0.4582190958947436  0.4275826287559168   T   T   T
  0.5508271048055751  0.7137575456883382  0.5834617780428392   T   T   T
  0.5915029568994470  0.5209714444905416  0.5841479689498996   F   F   F
  0.6398725033925282  0.6801303664527855  0.4448750291090571   T   T   T
  0.6952303342241440  0.5212454956935858  0.6530520839251837   T   T   T
  0.4868170025415437  0.7016227767897308  0.4983637899912106   T   T   T
  0.5004839460855024  0.5502791173970252  0.5477141156400123   F   F   F
  0.3279085635879566  0.4846237585735572  0.5777882513948354   T   T   T
  0.3823939838915557  0.6084112854367277  0.5373973277000109   T   T   T
  0.6667129484492236  0.4827404655721850  0.5105018184570156   F   F   F
  0.5763997220267569  0.4263140504383500  0.5448328182496311   F   F   F
  0.6672653191591721  0.3744724620529654  0.5061863740515149   T   T   T
  0.4609069012754856  0.3373582368254619  0.4940620864512287   T   T   T
  0.6484934028780529  0.5775373212088155  0.4602701624361103   F   F   F
  0.5525811400338019  0.4360693520291528  0.7499248829981338   T   T   T
  0.5911985931226895  0.3479214465006334  0.6666900518192262   T   T   T
  0.4924357175730323  0.3002890798470567  0.4040596298973984   T   T   T
  0.6605064354699872  0.6165497673875806  0.6679220139518035   T   T   T
  0.4923036935325159  0.4105668610607621  0.3044554410271341   T   T   T
  0.6220420138983783  0.3164354944115200  0.5728445043205588   T   T   T
  0.5391931917530647  0.6835839474262072  0.4039253537105983   T   T   T
  0.3898703458999320  0.4150186901433937  0.5251203182206744   T   T   T
  0.6279251450467437  0.5519547707192861  0.2824129965883595   T   T   T
  0.4724010507968143  0.4812372534856921  0.6925165836571899   T   T   T
  0.5683115009887700  0.5094300495444983  0.4784716241115703   F   F   F
  0.4203210565129183  0.5084107200613417  0.5018573595042781   F   F   F
  0.4526711386627995  0.4018906518858992  0.4042858358733168   T   T   T
  0.5647942904489807  0.3499959885685958  0.3518902518160216   T   T   T
  0.4131625396071917  0.5390522670855949  0.6122822162564219   T   T   T
  0.5993579170657950  0.4420207758268554  0.3048947693620647   T   T   T
  0.4544976624033349  0.5999567095839948  0.3637265031506494   T   T   T
  0.4188450187917478  0.4875652389061603  0.3396391799494595   T   T   T
  0.6637401333576671  0.4242945424878443  0.6053677292972149   T   T   T
  0.6735249662119150  0.5794362286204636  0.5640342060089520   T   T   T
  0.5257745556880550  0.5095000926536440  0.3279631262480146   T   T   T
  0.5645938865854323  0.3565713912145419  0.4686619986957921   T   T   T
  0.3158413207636125  0.5395695023469091  0.4934258765354901   T   T   T
  0.6600273598096555  0.4294567372817467  0.4150854075762572   T   T   T
  0.5660841929594156  0.6261437171197244  0.5094829013827464   F   F   F
  0.5959274090910130  0.5265702780646474  0.6900361627624245   T   T   T
  0.4702732052304002  0.6428637678974133  0.5872844812192042   T   T   T
  0.4625255231488974  0.6034617357692976  0.4640815245863276   T   T   T
  0.7165667610328169  0.5740951462246467  0.3836483894174185   T   T   T
  0.5499310510395361  0.5822218838566187  0.4076968008106903   F   F   F
  0.4794126430662260  0.5072205383607624  0.4190535757241776   F   F   F
  0.6953977539276114  0.4813465679014091  0.3245174959646641   T   T   T
  0.7511848783522975  0.4284812379441997  0.4882425399689028   T   T   T
  0.7481680862733670  0.5391755079227876  0.4853012963719917   T   T   T
  0.7499714832801232  0.4903402542072078  0.5708816760789123   T   T   T
  0.6418850799023555  0.4290574675000048  0.7097671376710999   T   T   T
  0.5772076520365738  0.7438625316108465  0.4922627080112649   T   T   T
  0.6192554540844384  0.5183157687966542  0.3801816896793397   F   F   F
  0.5076587625145501  0.5655603930574109  0.6501459506920737   T   T   T
  0.4922009500451665  0.4366758245867572  0.4933013002826740   F   F   F
  0.5608844484509063  0.4404139570509003  0.6454865549417619   F   F   F
  0.5793165041417578  0.6176626386770291  0.6129305793715378   T   T   T
  0.5438178332013308  0.6171634024434443  0.3122019433943973   T   T   T
  0.6272166818230073  0.6249604897599335  0.3600243539679847   T   T   T
  0.3760210313540676  0.5568035707690467  0.4133810440507483   T   T   T
  0.4723078164089713  0.4557257050327763  0.5877273803360978   F   F   F
  0.7273375885305901  0.6358974974607081  0.4839785686617210   T   T   T
  0.4919534237859227  0.3783174464211854  0.6767784004082917   T   T   T
  0.3878130818535895  0.4362100641348752  0.6397220534971227   T   T   T
  0.5544592502646992  0.4379899399457940  0.4037542370104745   F   F   F
  0.4321348959863955  0.3553865322979556  0.6004867437434795   T   T   T
  0.5266060280559425  0.3481332824436426  0.5741747358801478   T   T   T
  0.7304955605371399  0.3723028086199318  0.6143660771978523   T   T   T
  0.7349737943456728  0.3982947921122220  0.6495843722497003   T   T   T
  0.7622408933744610  0.3384184358334365  0.6072860345073823   T   T   T
  0.7850542032084556  0.3402383739996340  0.6327020710331162   T   T   T
 
  0.00000000E+00  0.00000000E+00  0.00000000E+00
  0.00000000E+00  0.00000000E+00  0.00000000E+00
  0.00000000E+00  0.00000000E+00  0.00000000E+00
  0.00000000E+00  0.00000000E+00  0.00000000E+00
  0.00000000E+00  0.00000000E+00  0.00000000E+00
  0.00000000E+00  0.00000000E+00  0.00000000E+00
  0.00000000E+00  0.00000000E+00  0.00000000E+00
  0.00000000E+00  0.00000000E+00  0.00000000E+00
  0.00000000E+00  0.00000000E+00  0.00000000E+00
  0.00000000E+00  0.00000000E+00  0.00000000E+00
  0.00000000E+00  0.00000000E+00  0.00000000E+00
  0.00000000E+00  0.00000000E+00  0.00000000E+00
  0.00000000E+00  0.00000000E+00  0.00000000E+00
  0.00000000E+00  0.00000000E+00  0.00000000E+00
  0.00000000E+00  0.00000000E+00  0.00000000E+00
  0.00000000E+00  0.00000000E+00  0.00000000E+00
  0.00000000E+00  0.00000000E+00  0.00000000E+00
  0.00000000E+00  0.00000000E+00  0.00000000E+00
  0.00000000E+00  0.00000000E+00  0.00000000E+00
  0.00000000E+00  0.00000000E+00  0.00000000E+00
  0.00000000E+00  0.00000000E+00  0.00000000E+00
  0.00000000E+00  0.00000000E+00  0.00000000E+00
  0.00000000E+00  0.00000000E+00  0.00000000E+00
  0.00000000E+00  0.00000000E+00  0.00000000E+00
  0.00000000E+00  0.00000000E+00  0.00000000E+00
  0.00000000E+00  0.00000000E+00  0.00000000E+00
  0.00000000E+00  0.00000000E+00  0.00000000E+00
  0.00000000E+00  0.00000000E+00  0.00000000E+00
  0.00000000E+00  0.00000000E+00  0.00000000E+00
  0.00000000E+00  0.00000000E+00  0.00000000E+00
  0.00000000E+00  0.00000000E+00  0.00000000E+00
  0.00000000E+00  0.00000000E+00  0.00000000E+00
  0.00000000E+00  0.00000000E+00  0.00000000E+00
  0.00000000E+00  0.00000000E+00  0.00000000E+00
  0.00000000E+00  0.00000000E+00  0.00000000E+00
  0.00000000E+00  0.00000000E+00  0.00000000E+00
  0.00000000E+00  0.00000000E+00  0.00000000E+00
  0.00000000E+00  0.00000000E+00  0.00000000E+00
  0.00000000E+00  0.00000000E+00  0.00000000E+00
  0.00000000E+00  0.00000000E+00  0.00000000E+00
  0.00000000E+00  0.00000000E+00  0.00000000E+00
  0.00000000E+00  0.00000000E+00  0.00000000E+00
  0.00000000E+00  0.00000000E+00  0.00000000E+00
  0.00000000E+00  0.00000000E+00  0.00000000E+00
  0.00000000E+00  0.00000000E+00  0.00000000E+00
  0.00000000E+00  0.00000000E+00  0.00000000E+00
  0.00000000E+00  0.00000000E+00  0.00000000E+00
  0.00000000E+00  0.00000000E+00  0.00000000E+00
  0.00000000E+00  0.00000000E+00  0.00000000E+00
  0.00000000E+00  0.00000000E+00  0.00000000E+00
  0.00000000E+00  0.00000000E+00  0.00000000E+00
  0.00000000E+00  0.00000000E+00  0.00000000E+00
  0.00000000E+00  0.00000000E+00  0.00000000E+00
  0.00000000E+00  0.00000000E+00  0.00000000E+00
  0.00000000E+00  0.00000000E+00  0.00000000E+00
  0.00000000E+00  0.00000000E+00  0.00000000E+00
  0.00000000E+00  0.00000000E+00  0.00000000E+00
  0.00000000E+00  0.00000000E+00  0.00000000E+00
  0.00000000E+00  0.00000000E+00  0.00000000E+00
  0.00000000E+00  0.00000000E+00  0.00000000E+00
  0.00000000E+00  0.00000000E+00  0.00000000E+00
  0.00000000E+00  0.00000000E+00  0.00000000E+00
  0.00000000E+00  0.00000000E+00  0.00000000E+00
  0.00000000E+00  0.00000000E+00  0.00000000E+00
  0.00000000E+00  0.00000000E+00  0.00000000E+00
  0.00000000E+00  0.00000000E+00  0.00000000E+00
  0.00000000E+00  0.00000000E+00  0.00000000E+00
  0.00000000E+00  0.00000000E+00  0.00000000E+00
  0.00000000E+00  0.00000000E+00  0.00000000E+00
  0.00000000E+00  0.00000000E+00  0.00000000E+00
  0.00000000E+00  0.00000000E+00  0.00000000E+00
  0.00000000E+00  0.00000000E+00  0.00000000E+00
