Bi La Sn C  O  H                        
   1.00000000000000     
    29.0000000000000000    0.0000000000000000    0.0000000000000000
     0.2488180851000000   28.9989325590000000    0.0000000000000000
    -0.0631677343000000   -0.4515975666000000   28.9964147692999994
   Bi   La   Sn   C    O    H 
    22    23    23     1     2     1
Selective dynamics
Direct
  0.7592531066192935  0.4778546281653059  0.3985896108302767   T   T   T
  0.6467417075405421  0.6838893078791450  0.5525153266800263   T   T   T
  0.3569203264639613  0.4596195714648073  0.4299618079720541   T   T   T
  0.5507630037991168  0.7128145325302920  0.5846907994072190   T   T   T
  0.5915029568994470  0.5209714444905416  0.5841479689498996   F   F   F
  0.6401263756780673  0.6805545517554056  0.4460690163317755   T   T   T
  0.6960162575038802  0.5219322779633025  0.6548676965080736   T   T   T
  0.4858197599634989  0.7007648334259885  0.4996017164246659   T   T   T
  0.5004839460855024  0.5502791173970252  0.5477141156400123   F   F   F
  0.3244221947926081  0.4870891162704146  0.5738190545809890   T   T   T
  0.3822301372854793  0.6116402363190847  0.5342789174834098   T   T   T
  0.6667129484492236  0.4827404655721850  0.5105018184570156   F   F   F
  0.5763997220267569  0.4263140504383500  0.5448328182496311   F   F   F
  0.6683031999401886  0.3744244187362989  0.5069528545214435   T   T   T
  0.4627246681219158  0.3383920246287082  0.5009396800707753   T   T   T
  0.6484934028780529  0.5775373212088155  0.4602701624361103   F   F   F
  0.5589989239591645  0.4363885674414884  0.7496903174528806   T   T   T
  0.6053961257619815  0.3519880266593856  0.6685134069280330   T   T   T
  0.4895139452347115  0.2997722195789643  0.4105028571369864   T   T   T
  0.6600263499479208  0.6184756471490162  0.6659732313759116   T   T   T
  0.4938484046314155  0.4097773162170767  0.3137363708727991   T   T   T
  0.6199889728813954  0.3162690131118409  0.5717140761397206   T   T   T
  0.5389739857743100  0.6838704977069691  0.4047544147439480   T   T   T
  0.3904967941999317  0.4153093127854272  0.5286004829747869   T   T   T
  0.6287596114123467  0.5524941836723448  0.2826619418749961   T   T   T
  0.4713933531290742  0.4699575113604342  0.6917414043332965   T   T   T
  0.5683115009887700  0.5094300495444983  0.4784716241115703   F   F   F
  0.4203210565129183  0.5084107200613417  0.5018573595042781   F   F   F
  0.4488458785900800  0.4007645064057112  0.4093219775532368   T   T   T
  0.5671052388333961  0.3429049948767308  0.3558282012624162   T   T   T
  0.4104869788175718  0.5410892689530332  0.6087278698746504   T   T   T
  0.5976253270045794  0.4432128268211863  0.3039308241720237   T   T   T
  0.4550095228553072  0.6007787552125641  0.3634890637703138   T   T   T
  0.4178641310130592  0.4863800012273888  0.3417202775691069   T   T   T
  0.6614072143664071  0.4287797593930002  0.6045099492212755   T   T   T
  0.6735446318254378  0.5782622288640680  0.5640823868052807   T   T   T
  0.5260374241028392  0.5109514631254466  0.3275514908665375   T   T   T
  0.5650330888862973  0.3574036896798146  0.4693771218567659   T   T   T
  0.3145151071274402  0.5436507787558699  0.4913863869876222   T   T   T
  0.6602374419428924  0.4295563139541173  0.4159075715360613   T   T   T
  0.5660841929594156  0.6261437171197244  0.5094829013827464   F   F   F
  0.5954786312548001  0.5290141370893588  0.6897724693911700   T   T   T
  0.4701427944632973  0.6414235352045500  0.5883908244165335   T   T   T
  0.4630111530435855  0.6030411092606137  0.4635990822237825   T   T   T
  0.7164188413773440  0.5737767640341814  0.3832795845896264   T   T   T
  0.5499310510395361  0.5822218838566187  0.4076968008106903   F   F   F
  0.4794126430662260  0.5072205383607624  0.4190535757241776   F   F   F
  0.6946771152620964  0.4801924982332167  0.3245371439556737   T   T   T
  0.7519024913334136  0.4297144659116043  0.4884940985597147   T   T   T
  0.7484736259112759  0.5377315543104333  0.4849621729480848   T   T   T
  0.7489934880611576  0.4912495160297582  0.5728040600006857   T   T   T
  0.6491465657042117  0.4381996819514337  0.7091221772207847   T   T   T
  0.5761818717351176  0.7427970288206662  0.4934128434078446   T   T   T
  0.6192554540844384  0.5183157687966542  0.3801816896793397   F   F   F
  0.5044353503713691  0.5589755294927919  0.6500130029108625   T   T   T
  0.4922009500451665  0.4366758245867572  0.4933013002826740   F   F   F
  0.5608844484509063  0.4404139570509003  0.6454865549417619   F   F   F
  0.5769382138619124  0.6158344056776580  0.6139238631941709   T   T   T
  0.5444342493073865  0.6183003498806483  0.3121465866952814   T   T   T
  0.6270643128164920  0.6251809419807247  0.3609578602693210   T   T   T
  0.3767283075942727  0.5575889881712501  0.4129034103976878   T   T   T
  0.4723078164089713  0.4557257050327763  0.5877273803360978   F   F   F
  0.7273192336246322  0.6346326646290609  0.4846064804398975   T   T   T
  0.5058954566647004  0.3679458477103609  0.6861646673950730   T   T   T
  0.3802874783966611  0.4435553788799607  0.6406475618363325   T   T   T
  0.5544592502646992  0.4379899399457940  0.4037542370104745   F   F   F
  0.4341063181100273  0.3657597398918002  0.6145238587106321   T   T   T
  0.5266791697052853  0.3502611813587404  0.5802903311753645   T   T   T
  0.5191595371009728  0.2872016582505409  0.3105673445503483   T   T   T
  0.5551183719202772  0.2930503319388250  0.2863666176315078   T   T   T
  0.4852750532084634  0.2604866058591012  0.2933228888833107   T   T   T
  0.4944801756383032  0.2492193548747567  0.2622991020931983   T   T   T
 
  0.00000000E+00  0.00000000E+00  0.00000000E+00
  0.00000000E+00  0.00000000E+00  0.00000000E+00
  0.00000000E+00  0.00000000E+00  0.00000000E+00
  0.00000000E+00  0.00000000E+00  0.00000000E+00
  0.00000000E+00  0.00000000E+00  0.00000000E+00
  0.00000000E+00  0.00000000E+00  0.00000000E+00
  0.00000000E+00  0.00000000E+00  0.00000000E+00
  0.00000000E+00  0.00000000E+00  0.00000000E+00
  0.00000000E+00  0.00000000E+00  0.00000000E+00
  0.00000000E+00  0.00000000E+00  0.00000000E+00
  0.00000000E+00  0.00000000E+00  0.00000000E+00
  0.00000000E+00  0.00000000E+00  0.00000000E+00
  0.00000000E+00  0.00000000E+00  0.00000000E+00
  0.00000000E+00  0.00000000E+00  0.00000000E+00
  0.00000000E+00  0.00000000E+00  0.00000000E+00
  0.00000000E+00  0.00000000E+00  0.00000000E+00
  0.00000000E+00  0.00000000E+00  0.00000000E+00
  0.00000000E+00  0.00000000E+00  0.00000000E+00
  0.00000000E+00  0.00000000E+00  0.00000000E+00
  0.00000000E+00  0.00000000E+00  0.00000000E+00
  0.00000000E+00  0.00000000E+00  0.00000000E+00
  0.00000000E+00  0.00000000E+00  0.00000000E+00
  0.00000000E+00  0.00000000E+00  0.00000000E+00
  0.00000000E+00  0.00000000E+00  0.00000000E+00
  0.00000000E+00  0.00000000E+00  0.00000000E+00
  0.00000000E+00  0.00000000E+00  0.00000000E+00
  0.00000000E+00  0.00000000E+00  0.00000000E+00
  0.00000000E+00  0.00000000E+00  0.00000000E+00
  0.00000000E+00  0.00000000E+00  0.00000000E+00
  0.00000000E+00  0.00000000E+00  0.00000000E+00
  0.00000000E+00  0.00000000E+00  0.00000000E+00
  0.00000000E+00  0.00000000E+00  0.00000000E+00
  0.00000000E+00  0.00000000E+00  0.00000000E+00
  0.00000000E+00  0.00000000E+00  0.00000000E+00
  0.00000000E+00  0.00000000E+00  0.00000000E+00
  0.00000000E+00  0.00000000E+00  0.00000000E+00
  0.00000000E+00  0.00000000E+00  0.00000000E+00
  0.00000000E+00  0.00000000E+00  0.00000000E+00
  0.00000000E+00  0.00000000E+00  0.00000000E+00
  0.00000000E+00  0.00000000E+00  0.00000000E+00
  0.00000000E+00  0.00000000E+00  0.00000000E+00
  0.00000000E+00  0.00000000E+00  0.00000000E+00
  0.00000000E+00  0.00000000E+00  0.00000000E+00
  0.00000000E+00  0.00000000E+00  0.00000000E+00
  0.00000000E+00  0.00000000E+00  0.00000000E+00
  0.00000000E+00  0.00000000E+00  0.00000000E+00
  0.00000000E+00  0.00000000E+00  0.00000000E+00
  0.00000000E+00  0.00000000E+00  0.00000000E+00
  0.00000000E+00  0.00000000E+00  0.00000000E+00
  0.00000000E+00  0.00000000E+00  0.00000000E+00
  0.00000000E+00  0.00000000E+00  0.00000000E+00
  0.00000000E+00  0.00000000E+00  0.00000000E+00
  0.00000000E+00  0.00000000E+00  0.00000000E+00
  0.00000000E+00  0.00000000E+00  0.00000000E+00
  0.00000000E+00  0.00000000E+00  0.00000000E+00
  0.00000000E+00  0.00000000E+00  0.00000000E+00
  0.00000000E+00  0.00000000E+00  0.00000000E+00
  0.00000000E+00  0.00000000E+00  0.00000000E+00
  0.00000000E+00  0.00000000E+00  0.00000000E+00
  0.00000000E+00  0.00000000E+00  0.00000000E+00
  0.00000000E+00  0.00000000E+00  0.00000000E+00
  0.00000000E+00  0.00000000E+00  0.00000000E+00
  0.00000000E+00  0.00000000E+00  0.00000000E+00
  0.00000000E+00  0.00000000E+00  0.00000000E+00
  0.00000000E+00  0.00000000E+00  0.00000000E+00
  0.00000000E+00  0.00000000E+00  0.00000000E+00
  0.00000000E+00  0.00000000E+00  0.00000000E+00
  0.00000000E+00  0.00000000E+00  0.00000000E+00
  0.00000000E+00  0.00000000E+00  0.00000000E+00
  0.00000000E+00  0.00000000E+00  0.00000000E+00
  0.00000000E+00  0.00000000E+00  0.00000000E+00
  0.00000000E+00  0.00000000E+00  0.00000000E+00
