Bi La Sn C  O  H                        
   1.00000000000000     
    29.0000000000000000    0.0000000000000000    0.0000000000000000
     0.2488180851000000   28.9989325590000000    0.0000000000000000
    -0.0631677343000000   -0.4515975666000000   28.9964147692999994
   Bi   La   Sn   C    O    H 
    22    23    23     1     2     1
Selective dynamics
Direct
  0.7597808225648867  0.4791841117640007  0.3995332978062177   T   T   T
  0.6479109623991838  0.6849791047442758  0.5493642018829098   T   T   T
  0.3653982906502050  0.4570793574014957  0.4259963433130052   T   T   T
  0.5509800365638985  0.7137726693321651  0.5832959965573025   T   T   T
  0.5915029568994470  0.5209714444905416  0.5841479689498996   F   F   F
  0.6392103500632775  0.6792987832471938  0.4434641676494704   T   T   T
  0.6954503979360745  0.5206365576434995  0.6534434036077971   T   T   T
  0.4869629491894333  0.7018614152653769  0.4987069357322446   T   T   T
  0.5004839460855024  0.5502791173970252  0.5477141156400123   F   F   F
  0.3283414316556238  0.4852467315053113  0.5778336194593905   T   T   T
  0.3827187788998245  0.6073615745359023  0.5371022347923601   T   T   T
  0.6667129484492236  0.4827404655721850  0.5105018184570156   F   F   F
  0.5763997220267569  0.4263140504383500  0.5448328182496311   F   F   F
  0.6694456964626346  0.3739881186174565  0.5060199267261110   T   T   T
  0.4627565015802964  0.3386339051168699  0.4966434012706091   T   T   T
  0.6484934028780529  0.5775373212088155  0.4602701624361103   F   F   F
  0.5563776750169822  0.4344448306970907  0.7497846321459715   T   T   T
  0.5948487305696984  0.3487527926401113  0.6675464741229586   T   T   T
  0.4946225864599528  0.2976064729001683  0.4085457353380264   T   T   T
  0.6603399483293554  0.6165180267204775  0.6675673931128080   T   T   T
  0.4927229779874093  0.4104065096839746  0.3031735906380751   T   T   T
  0.6221798543096441  0.3165788934773388  0.5725636982194309   T   T   T
  0.5383533882708955  0.6835924353778122  0.4032870565125681   T   T   T
  0.3903528391284452  0.4151796000744223  0.5260292089896267   T   T   T
  0.6270865580174214  0.5508655778367807  0.2817123556504892   T   T   T
  0.4732068140627866  0.4788067749440842  0.6927591558779942   T   T   T
  0.5683115009887700  0.5094300495444983  0.4784716241115703   F   F   F
  0.4203210565129183  0.5084107200613417  0.5018573595042781   F   F   F
  0.4552751611560567  0.3999614978643291  0.4038465470118449   T   T   T
  0.5631303058181801  0.3497065456745391  0.3526904225214037   T   T   T
  0.4133018404581086  0.5394755374926979  0.6124702235275945   T   T   T
  0.6009181186722955  0.4400336172116791  0.3052390748211532   T   T   T
  0.4549249734874841  0.5996904839511396  0.3623201050822883   T   T   T
  0.4204655972548317  0.4883562010148890  0.3368625587085384   T   T   T
  0.6610603688450998  0.4262495743045970  0.6039193464685907   T   T   T
  0.6736011678873600  0.5790829393424628  0.5639870681699624   T   T   T
  0.5259187200547815  0.5089501986773325  0.3283370155198159   T   T   T
  0.5665135242452543  0.3570729888393891  0.4691999189785825   T   T   T
  0.3129580374496104  0.5361858401706496  0.4897532056066798   T   T   T
  0.6607109602129002  0.4295959630593061  0.4149829505114846   T   T   T
  0.5660841929594156  0.6261437171197244  0.5094829013827464   F   F   F
  0.5960359396592123  0.5269733425413382  0.6901272974499012   T   T   T
  0.4704452991911510  0.6425571935665547  0.5875398411404038   T   T   T
  0.4629757403057125  0.6036890578467390  0.4644043695394424   T   T   T
  0.7164849474948524  0.5744051316586263  0.3835214917254162   T   T   T
  0.5499310510395361  0.5822218838566187  0.4076968008106903   F   F   F
  0.4794126430662260  0.5072205383607624  0.4190535757241776   F   F   F
  0.6955937478985139  0.4819557503825426  0.3242038924740556   T   T   T
  0.7520096536156569  0.4290657060105950  0.4872007370219110   T   T   T
  0.7484465950273079  0.5387436813888542  0.4857764899847976   T   T   T
  0.7488104881431237  0.4893679582766480  0.5718774736675484   T   T   T
  0.6455588590321487  0.4315631734877939  0.7077901014573738   T   T   T
  0.5776517845900272  0.7435150571938209  0.4920410605715690   T   T   T
  0.6192554540844384  0.5183157687966542  0.3801816896793397   F   F   F
  0.5074576431606491  0.5644033175949147  0.6507821626833197   T   T   T
  0.4922009500451665  0.4366758245867572  0.4933013002826740   F   F   F
  0.5608844484509063  0.4404139570509003  0.6454865549417619   F   F   F
  0.5789355213148437  0.6174254100526273  0.6130572547698618   T   T   T
  0.5439027322974894  0.6167242949796116  0.3117274787848173   T   T   T
  0.6275299243375756  0.6245330510643177  0.3585192615126233   T   T   T
  0.3779422534040061  0.5554731230806605  0.4121263157194310   T   T   T
  0.4723078164089713  0.4557257050327763  0.5877273803360978   F   F   F
  0.7267534662181609  0.6357523874903912  0.4839091062935199   T   T   T
  0.4955462952617584  0.3754765550011457  0.6800176474203831   T   T   T
  0.3862325494035849  0.4376962186718074  0.6409425922168062   T   T   T
  0.5544592502646992  0.4379899399457940  0.4037542370104745   F   F   F
  0.4327325419870812  0.3581060058822076  0.6039322219128829   T   T   T
  0.5274329555790759  0.3487367719761924  0.5767114414269787   T   T   T
  0.2526177107593960  0.4896600814258873  0.4495217832311366   T   T   T
  0.2366069565011465  0.5306596128834996  0.4540267125736198   T   T   T
  0.2269007967574355  0.4588346040443768  0.4256759058745586   T   T   T
  0.1983163884062856  0.4745417282942587  0.4154046375647894   T   T   T
 
  0.00000000E+00  0.00000000E+00  0.00000000E+00
  0.00000000E+00  0.00000000E+00  0.00000000E+00
  0.00000000E+00  0.00000000E+00  0.00000000E+00
  0.00000000E+00  0.00000000E+00  0.00000000E+00
  0.00000000E+00  0.00000000E+00  0.00000000E+00
  0.00000000E+00  0.00000000E+00  0.00000000E+00
  0.00000000E+00  0.00000000E+00  0.00000000E+00
  0.00000000E+00  0.00000000E+00  0.00000000E+00
  0.00000000E+00  0.00000000E+00  0.00000000E+00
  0.00000000E+00  0.00000000E+00  0.00000000E+00
  0.00000000E+00  0.00000000E+00  0.00000000E+00
  0.00000000E+00  0.00000000E+00  0.00000000E+00
  0.00000000E+00  0.00000000E+00  0.00000000E+00
  0.00000000E+00  0.00000000E+00  0.00000000E+00
  0.00000000E+00  0.00000000E+00  0.00000000E+00
  0.00000000E+00  0.00000000E+00  0.00000000E+00
  0.00000000E+00  0.00000000E+00  0.00000000E+00
  0.00000000E+00  0.00000000E+00  0.00000000E+00
  0.00000000E+00  0.00000000E+00  0.00000000E+00
  0.00000000E+00  0.00000000E+00  0.00000000E+00
  0.00000000E+00  0.00000000E+00  0.00000000E+00
  0.00000000E+00  0.00000000E+00  0.00000000E+00
  0.00000000E+00  0.00000000E+00  0.00000000E+00
  0.00000000E+00  0.00000000E+00  0.00000000E+00
  0.00000000E+00  0.00000000E+00  0.00000000E+00
  0.00000000E+00  0.00000000E+00  0.00000000E+00
  0.00000000E+00  0.00000000E+00  0.00000000E+00
  0.00000000E+00  0.00000000E+00  0.00000000E+00
  0.00000000E+00  0.00000000E+00  0.00000000E+00
  0.00000000E+00  0.00000000E+00  0.00000000E+00
  0.00000000E+00  0.00000000E+00  0.00000000E+00
  0.00000000E+00  0.00000000E+00  0.00000000E+00
  0.00000000E+00  0.00000000E+00  0.00000000E+00
  0.00000000E+00  0.00000000E+00  0.00000000E+00
  0.00000000E+00  0.00000000E+00  0.00000000E+00
  0.00000000E+00  0.00000000E+00  0.00000000E+00
  0.00000000E+00  0.00000000E+00  0.00000000E+00
  0.00000000E+00  0.00000000E+00  0.00000000E+00
  0.00000000E+00  0.00000000E+00  0.00000000E+00
  0.00000000E+00  0.00000000E+00  0.00000000E+00
  0.00000000E+00  0.00000000E+00  0.00000000E+00
  0.00000000E+00  0.00000000E+00  0.00000000E+00
  0.00000000E+00  0.00000000E+00  0.00000000E+00
  0.00000000E+00  0.00000000E+00  0.00000000E+00
  0.00000000E+00  0.00000000E+00  0.00000000E+00
  0.00000000E+00  0.00000000E+00  0.00000000E+00
  0.00000000E+00  0.00000000E+00  0.00000000E+00
  0.00000000E+00  0.00000000E+00  0.00000000E+00
  0.00000000E+00  0.00000000E+00  0.00000000E+00
  0.00000000E+00  0.00000000E+00  0.00000000E+00
  0.00000000E+00  0.00000000E+00  0.00000000E+00
  0.00000000E+00  0.00000000E+00  0.00000000E+00
  0.00000000E+00  0.00000000E+00  0.00000000E+00
  0.00000000E+00  0.00000000E+00  0.00000000E+00
  0.00000000E+00  0.00000000E+00  0.00000000E+00
  0.00000000E+00  0.00000000E+00  0.00000000E+00
  0.00000000E+00  0.00000000E+00  0.00000000E+00
  0.00000000E+00  0.00000000E+00  0.00000000E+00
  0.00000000E+00  0.00000000E+00  0.00000000E+00
  0.00000000E+00  0.00000000E+00  0.00000000E+00
  0.00000000E+00  0.00000000E+00  0.00000000E+00
  0.00000000E+00  0.00000000E+00  0.00000000E+00
  0.00000000E+00  0.00000000E+00  0.00000000E+00
  0.00000000E+00  0.00000000E+00  0.00000000E+00
  0.00000000E+00  0.00000000E+00  0.00000000E+00
  0.00000000E+00  0.00000000E+00  0.00000000E+00
  0.00000000E+00  0.00000000E+00  0.00000000E+00
  0.00000000E+00  0.00000000E+00  0.00000000E+00
  0.00000000E+00  0.00000000E+00  0.00000000E+00
  0.00000000E+00  0.00000000E+00  0.00000000E+00
  0.00000000E+00  0.00000000E+00  0.00000000E+00
  0.00000000E+00  0.00000000E+00  0.00000000E+00
