Bi La Sn C  O  H                        
   1.00000000000000     
    29.0000000000000000    0.0000000000000000    0.0000000000000000
     0.2488180851000000   28.9989325590000000    0.0000000000000000
    -0.0631677343000000   -0.4515975666000000   28.9964147692999994
   Bi   La   Sn   C    O    H 
    22    23    23     1     2     1
Selective dynamics
Direct
  0.7594959540526053  0.4789824920251380  0.3989935230422333   T   T   T
  0.6465488187692117  0.6853849450162873  0.5515857006304117   T   T   T
  0.3601073283391404  0.4585157414832383  0.4289143094476863   T   T   T
  0.5489736365918115  0.7137246513449320  0.5839790342069371   T   T   T
  0.5915029568994470  0.5209714444905416  0.5841479689498996   F   F   F
  0.6407497482041499  0.6791201410553902  0.4448764984576000   T   T   T
  0.6966318548694908  0.5232056941699160  0.6529071781505990   T   T   T
  0.4859476296535139  0.7017005596895708  0.4995771992185786   T   T   T
  0.5004839460855024  0.5502791173970252  0.5477141156400123   F   F   F
  0.3248566871623981  0.4865374123002069  0.5745695340899929   T   T   T
  0.3818507610990979  0.6103462828267511  0.5349401903020958   T   T   T
  0.6667129484492236  0.4827404655721850  0.5105018184570156   F   F   F
  0.5763997220267569  0.4263140504383500  0.5448328182496311   F   F   F
  0.6686939796511898  0.3748022487928559  0.5068626506550495   T   T   T
  0.4638773180048150  0.3391254399180297  0.5006201062628644   T   T   T
  0.6484934028780529  0.5775373212088155  0.4602701624361103   F   F   F
  0.5592035977712535  0.4370476902559497  0.7496677999750270   T   T   T
  0.6047864429330808  0.3518915136899962  0.6681903673230334   T   T   T
  0.4918084927894476  0.2989717405222493  0.4107237528909016   T   T   T
  0.6599654457322752  0.6189223668242358  0.6660020724007236   T   T   T
  0.4924064806837071  0.4106990993955058  0.3073900037313196   T   T   T
  0.6219509107604456  0.3162203429360866  0.5725155483903066   T   T   T
  0.5387804063962700  0.6837604216935004  0.4044764665403677   T   T   T
  0.3902291540655278  0.4149579562234023  0.5285454248405854   T   T   T
  0.6291274648526177  0.5521208410253027  0.2821077880677135   T   T   T
  0.4715569552185139  0.4697063362628968  0.6919217589199435   T   T   T
  0.5683115009887700  0.5094300495444983  0.4784716241115703   F   F   F
  0.4203210565129183  0.5084107200613417  0.5018573595042781   F   F   F
  0.4520610385252760  0.4009048668984938  0.4071348939449312   T   T   T
  0.5630200531395742  0.3483120755082166  0.3546815225163672   T   T   T
  0.4107614608276111  0.5404095848254724  0.6096832550998632   T   T   T
  0.5992131940749400  0.4422544655523032  0.3045890989774510   T   T   T
  0.4550854038386552  0.6001252897958294  0.3624726272367871   T   T   T
  0.4183761741883329  0.4874842759719863  0.3397901804982990   T   T   T
  0.6616612522567343  0.4290528292016140  0.6044426869081343   T   T   T
  0.6732615698778915  0.5799605884272798  0.5634107049625858   T   T   T
  0.5270366879619253  0.5098397531276511  0.3280915835493939   T   T   T
  0.5658983887400540  0.3577130037728963  0.4687328976337968   T   T   T
  0.3153642347142235  0.5418879410402718  0.4909761629496258   T   T   T
  0.6604650503737985  0.4299273211489058  0.4154391372903335   T   T   T
  0.5660841929594156  0.6261437171197244  0.5094829013827464   F   F   F
  0.5964808206050034  0.5288642996190960  0.6893214856903871   T   T   T
  0.4700175670178524  0.6412295730489640  0.5880973244605462   T   T   T
  0.4634162292732269  0.6036967700711421  0.4641303051546399   T   T   T
  0.7170903941415753  0.5748623621912646  0.3840716600321309   T   T   T
  0.5499310510395361  0.5822218838566187  0.4076968008106903   F   F   F
  0.4794126430662260  0.5072205383607624  0.4190535757241776   F   F   F
  0.6954862034979316  0.4811556349337994  0.3242821882684845   T   T   T
  0.7515722430215310  0.4301404296281922  0.4874314345118467   T   T   T
  0.7472621924587929  0.5415452433633464  0.4844135049949017   T   T   T
  0.7494980606844686  0.4918452786646774  0.5708266642498150   T   T   T
  0.6487639512864368  0.4373763552244926  0.7088148756492720   T   T   T
  0.5772399335660812  0.7421985005692895  0.4926622135303909   T   T   T
  0.6192554540844384  0.5183157687966542  0.3801816896793397   F   F   F
  0.5051354367165557  0.5587008001767058  0.6499012469866896   T   T   T
  0.4922009500451665  0.4366758245867572  0.4933013002826740   F   F   F
  0.5608844484509063  0.4404139570509003  0.6454865549417619   F   F   F
  0.5769327323714137  0.6164577716121413  0.6136983485756887   T   T   T
  0.5449921896017548  0.6175438968462882  0.3121972519440347   T   T   T
  0.6281291703455130  0.6248415401557749  0.3597058155440823   T   T   T
  0.3772998951214034  0.5569947750951577  0.4125907842893662   T   T   T
  0.4723078164089713  0.4557257050327763  0.5877273803360978   F   F   F
  0.7280827182058451  0.6403641750904027  0.4866923921713573   T   T   T
  0.5052859321778462  0.3670247053027959  0.6876290576923790   T   T   T
  0.3803424750809001  0.4422312574980964  0.6409627633776845   T   T   T
  0.5544592502646992  0.4379899399457940  0.4037542370104745   F   F   F
  0.4354713038969870  0.3655896388884483  0.6134878251660932   T   T   T
  0.5283757662539388  0.3493628331841934  0.5808873099797631   T   T   T
  0.7873670419649433  0.6916975753148358  0.4874192037336702   T   T   T
  0.8217665110034237  0.6882986651345585  0.4631033200201100   T   T   T
  0.7802290601011890  0.7288311412953635  0.5167832919046245   T   T   T
  0.8070136878621313  0.7492985729086190  0.5134044245079944   T   T   T
 
  0.00000000E+00  0.00000000E+00  0.00000000E+00
  0.00000000E+00  0.00000000E+00  0.00000000E+00
  0.00000000E+00  0.00000000E+00  0.00000000E+00
  0.00000000E+00  0.00000000E+00  0.00000000E+00
  0.00000000E+00  0.00000000E+00  0.00000000E+00
  0.00000000E+00  0.00000000E+00  0.00000000E+00
  0.00000000E+00  0.00000000E+00  0.00000000E+00
  0.00000000E+00  0.00000000E+00  0.00000000E+00
  0.00000000E+00  0.00000000E+00  0.00000000E+00
  0.00000000E+00  0.00000000E+00  0.00000000E+00
  0.00000000E+00  0.00000000E+00  0.00000000E+00
  0.00000000E+00  0.00000000E+00  0.00000000E+00
  0.00000000E+00  0.00000000E+00  0.00000000E+00
  0.00000000E+00  0.00000000E+00  0.00000000E+00
  0.00000000E+00  0.00000000E+00  0.00000000E+00
  0.00000000E+00  0.00000000E+00  0.00000000E+00
  0.00000000E+00  0.00000000E+00  0.00000000E+00
  0.00000000E+00  0.00000000E+00  0.00000000E+00
  0.00000000E+00  0.00000000E+00  0.00000000E+00
  0.00000000E+00  0.00000000E+00  0.00000000E+00
  0.00000000E+00  0.00000000E+00  0.00000000E+00
  0.00000000E+00  0.00000000E+00  0.00000000E+00
  0.00000000E+00  0.00000000E+00  0.00000000E+00
  0.00000000E+00  0.00000000E+00  0.00000000E+00
  0.00000000E+00  0.00000000E+00  0.00000000E+00
  0.00000000E+00  0.00000000E+00  0.00000000E+00
  0.00000000E+00  0.00000000E+00  0.00000000E+00
  0.00000000E+00  0.00000000E+00  0.00000000E+00
  0.00000000E+00  0.00000000E+00  0.00000000E+00
  0.00000000E+00  0.00000000E+00  0.00000000E+00
  0.00000000E+00  0.00000000E+00  0.00000000E+00
  0.00000000E+00  0.00000000E+00  0.00000000E+00
  0.00000000E+00  0.00000000E+00  0.00000000E+00
  0.00000000E+00  0.00000000E+00  0.00000000E+00
  0.00000000E+00  0.00000000E+00  0.00000000E+00
  0.00000000E+00  0.00000000E+00  0.00000000E+00
  0.00000000E+00  0.00000000E+00  0.00000000E+00
  0.00000000E+00  0.00000000E+00  0.00000000E+00
  0.00000000E+00  0.00000000E+00  0.00000000E+00
  0.00000000E+00  0.00000000E+00  0.00000000E+00
  0.00000000E+00  0.00000000E+00  0.00000000E+00
  0.00000000E+00  0.00000000E+00  0.00000000E+00
  0.00000000E+00  0.00000000E+00  0.00000000E+00
  0.00000000E+00  0.00000000E+00  0.00000000E+00
  0.00000000E+00  0.00000000E+00  0.00000000E+00
  0.00000000E+00  0.00000000E+00  0.00000000E+00
  0.00000000E+00  0.00000000E+00  0.00000000E+00
  0.00000000E+00  0.00000000E+00  0.00000000E+00
  0.00000000E+00  0.00000000E+00  0.00000000E+00
  0.00000000E+00  0.00000000E+00  0.00000000E+00
  0.00000000E+00  0.00000000E+00  0.00000000E+00
  0.00000000E+00  0.00000000E+00  0.00000000E+00
  0.00000000E+00  0.00000000E+00  0.00000000E+00
  0.00000000E+00  0.00000000E+00  0.00000000E+00
  0.00000000E+00  0.00000000E+00  0.00000000E+00
  0.00000000E+00  0.00000000E+00  0.00000000E+00
  0.00000000E+00  0.00000000E+00  0.00000000E+00
  0.00000000E+00  0.00000000E+00  0.00000000E+00
  0.00000000E+00  0.00000000E+00  0.00000000E+00
  0.00000000E+00  0.00000000E+00  0.00000000E+00
  0.00000000E+00  0.00000000E+00  0.00000000E+00
  0.00000000E+00  0.00000000E+00  0.00000000E+00
  0.00000000E+00  0.00000000E+00  0.00000000E+00
  0.00000000E+00  0.00000000E+00  0.00000000E+00
  0.00000000E+00  0.00000000E+00  0.00000000E+00
  0.00000000E+00  0.00000000E+00  0.00000000E+00
  0.00000000E+00  0.00000000E+00  0.00000000E+00
  0.00000000E+00  0.00000000E+00  0.00000000E+00
  0.00000000E+00  0.00000000E+00  0.00000000E+00
  0.00000000E+00  0.00000000E+00  0.00000000E+00
  0.00000000E+00  0.00000000E+00  0.00000000E+00
  0.00000000E+00  0.00000000E+00  0.00000000E+00
