Bi La Sn C  O  H                        
   1.00000000000000     
    29.0000000000000000    0.0000000000000000    0.0000000000000000
     0.2488180851000000   28.9989325590000000    0.0000000000000000
    -0.0631677343000000   -0.4515975666000000   28.9964147692999994
   Bi   La   Sn   C    O    H 
    22    23    23     1     2     1
Selective dynamics
Direct
  0.7588031410081916  0.4795545188306232  0.3980956491913170   T   T   T
  0.6475639959114957  0.6847944897729120  0.5488599477436469   T   T   T
  0.3638531417197526  0.4586014962608466  0.4245509951343577   T   T   T
  0.5511183729492261  0.7129976468068393  0.5843449159994263   T   T   T
  0.5915029568994470  0.5209714444905416  0.5841479689498996   F   F   F
  0.6383812444391520  0.6779585210000147  0.4408575599795989   T   T   T
  0.6952797861725847  0.5224557176559945  0.6535941544408033   T   T   T
  0.4859968785925769  0.7012944218762828  0.5006079716129620   T   T   T
  0.5004839460855024  0.5502791173970252  0.5477141156400123   F   F   F
  0.3249278937674268  0.4869651597995294  0.5735947991501459   T   T   T
  0.3824911908962664  0.6103537710602568  0.5350115291671830   T   T   T
  0.6667129484492236  0.4827404655721850  0.5105018184570156   F   F   F
  0.5763997220267569  0.4263140504383500  0.5448328182496311   F   F   F
  0.6685809949323970  0.3748348229906851  0.5054040534032723   T   T   T
  0.4634803808561296  0.3383280480233925  0.5007729313712602   T   T   T
  0.6484934028780529  0.5775373212088155  0.4602701624361103   F   F   F
  0.5567477220944291  0.4369364875976652  0.7494984359092194   T   T   T
  0.6026789596146557  0.3514538758285472  0.6707279646492408   T   T   T
  0.4927204619249207  0.2982707629107302  0.4107989480802546   T   T   T
  0.6596016180560618  0.6184059650926320  0.6664672594107134   T   T   T
  0.4972907176808328  0.4095325456528723  0.3100516010754815   T   T   T
  0.6242289355733091  0.3181228617862543  0.5748273573493855   T   T   T
  0.5367000361261703  0.6843387506305145  0.4049318464661421   T   T   T
  0.3903884710453197  0.4159448336551144  0.5258033716141877   T   T   T
  0.6164660182503919  0.5476021504166775  0.2782544719151935   T   T   T
  0.4710443282340612  0.4719866436589616  0.6915062419864645   T   T   T
  0.5683115009887700  0.5094300495444983  0.4784716241115703   F   F   F
  0.4203210565129183  0.5084107200613417  0.5018573595042781   F   F   F
  0.4535844420036352  0.3999328629588189  0.4068945826572093   T   T   T
  0.5667372866826866  0.3460205575912229  0.3577206951378112   T   T   T
  0.4109813985032725  0.5399717653680084  0.6095729450348217   T   T   T
  0.6042461681739187  0.4354203946213186  0.3082798484717881   T   T   T
  0.4559010847388887  0.6015015334499749  0.3620988485615498   T   T   T
  0.4252080738763014  0.4911637359818761  0.3304634888631157   T   T   T
  0.6612663285228104  0.4283649239366062  0.6040870612831744   T   T   T
  0.6730356505264604  0.5793795880215290  0.5636092815979326   T   T   T
  0.5266030566053881  0.5115328200425070  0.3295357234274647   T   T   T
  0.5659397429508332  0.3576736429506525  0.4696958394178721   T   T   T
  0.3182700342712148  0.5409397367288643  0.4884128269667172   T   T   T
  0.6611114380283086  0.4301112379219388  0.4139058472746831   T   T   T
  0.5660841929594156  0.6261437171197244  0.5094829013827464   F   F   F
  0.5954606229754962  0.5287113797633981  0.6899005461371118   T   T   T
  0.4701097623947321  0.6418110555251816  0.5886794687113509   T   T   T
  0.4633768988268194  0.6034659095986855  0.4643836322002102   T   T   T
  0.7177760398493833  0.5759092587651814  0.3844334940543673   T   T   T
  0.5499310510395361  0.5822218838566187  0.4076968008106903   F   F   F
  0.4794126430662260  0.5072205383607624  0.4190535757241776   F   F   F
  0.6944932435367711  0.4879760381835466  0.3223523659948044   T   T   T
  0.7520274204877307  0.4297184432979992  0.4873392377573225   T   T   T
  0.7486494490669400  0.5383631643175829  0.4849132071364647   T   T   T
  0.7487462818823525  0.4912451370508439  0.5717982623985784   T   T   T
  0.6473363783436278  0.4367152297445767  0.7087544669457043   T   T   T
  0.5775913844713718  0.7419133488089024  0.4924233826517737   T   T   T
  0.6192554540844384  0.5183157687966542  0.3801816896793397   F   F   F
  0.5048501337246828  0.5603893720780229  0.6503902276272455   T   T   T
  0.4922009500451665  0.4366758245867572  0.4933013002826740   F   F   F
  0.5608844484509063  0.4404139570509003  0.6454865549417619   F   F   F
  0.5772101047611836  0.6162255774941801  0.6135778558967705   T   T   T
  0.5438960564143718  0.6207489901869048  0.3136320848083211   T   T   T
  0.6292314191120574  0.6219287719009829  0.3551977993673248   T   T   T
  0.3797006777731458  0.5544956126779197  0.4090817835202059   T   T   T
  0.4723078164089713  0.4557257050327763  0.5877273803360978   F   F   F
  0.7261437007785655  0.6359842536605765  0.4836648725993657   T   T   T
  0.5024509053152875  0.3688946586947053  0.6843415800307896   T   T   T
  0.3809671618206885  0.4406466226860777  0.6384074173644450   T   T   T
  0.5544592502646992  0.4379899399457940  0.4037542370104745   F   F   F
  0.4345968140514708  0.3631743616999079  0.6089402167211119   T   T   T
  0.5293450285324141  0.3484227682101596  0.5801358950068775   T   T   T
  0.4793023398875512  0.5178604929765658  0.2573970369387277   T   T   T
  0.5200085637339247  0.5242461583746185  0.2420460088042552   T   T   T
  0.4438109360732394  0.5180052155530360  0.2258244480210209   T   T   T
  0.4569122709711341  0.5226374150554219  0.1948246945523726   T   T   T
 
  0.00000000E+00  0.00000000E+00  0.00000000E+00
  0.00000000E+00  0.00000000E+00  0.00000000E+00
  0.00000000E+00  0.00000000E+00  0.00000000E+00
  0.00000000E+00  0.00000000E+00  0.00000000E+00
  0.00000000E+00  0.00000000E+00  0.00000000E+00
  0.00000000E+00  0.00000000E+00  0.00000000E+00
  0.00000000E+00  0.00000000E+00  0.00000000E+00
  0.00000000E+00  0.00000000E+00  0.00000000E+00
  0.00000000E+00  0.00000000E+00  0.00000000E+00
  0.00000000E+00  0.00000000E+00  0.00000000E+00
  0.00000000E+00  0.00000000E+00  0.00000000E+00
  0.00000000E+00  0.00000000E+00  0.00000000E+00
  0.00000000E+00  0.00000000E+00  0.00000000E+00
  0.00000000E+00  0.00000000E+00  0.00000000E+00
  0.00000000E+00  0.00000000E+00  0.00000000E+00
  0.00000000E+00  0.00000000E+00  0.00000000E+00
  0.00000000E+00  0.00000000E+00  0.00000000E+00
  0.00000000E+00  0.00000000E+00  0.00000000E+00
  0.00000000E+00  0.00000000E+00  0.00000000E+00
  0.00000000E+00  0.00000000E+00  0.00000000E+00
  0.00000000E+00  0.00000000E+00  0.00000000E+00
  0.00000000E+00  0.00000000E+00  0.00000000E+00
  0.00000000E+00  0.00000000E+00  0.00000000E+00
  0.00000000E+00  0.00000000E+00  0.00000000E+00
  0.00000000E+00  0.00000000E+00  0.00000000E+00
  0.00000000E+00  0.00000000E+00  0.00000000E+00
  0.00000000E+00  0.00000000E+00  0.00000000E+00
  0.00000000E+00  0.00000000E+00  0.00000000E+00
  0.00000000E+00  0.00000000E+00  0.00000000E+00
  0.00000000E+00  0.00000000E+00  0.00000000E+00
  0.00000000E+00  0.00000000E+00  0.00000000E+00
  0.00000000E+00  0.00000000E+00  0.00000000E+00
  0.00000000E+00  0.00000000E+00  0.00000000E+00
  0.00000000E+00  0.00000000E+00  0.00000000E+00
  0.00000000E+00  0.00000000E+00  0.00000000E+00
  0.00000000E+00  0.00000000E+00  0.00000000E+00
  0.00000000E+00  0.00000000E+00  0.00000000E+00
  0.00000000E+00  0.00000000E+00  0.00000000E+00
  0.00000000E+00  0.00000000E+00  0.00000000E+00
  0.00000000E+00  0.00000000E+00  0.00000000E+00
  0.00000000E+00  0.00000000E+00  0.00000000E+00
  0.00000000E+00  0.00000000E+00  0.00000000E+00
  0.00000000E+00  0.00000000E+00  0.00000000E+00
  0.00000000E+00  0.00000000E+00  0.00000000E+00
  0.00000000E+00  0.00000000E+00  0.00000000E+00
  0.00000000E+00  0.00000000E+00  0.00000000E+00
  0.00000000E+00  0.00000000E+00  0.00000000E+00
  0.00000000E+00  0.00000000E+00  0.00000000E+00
  0.00000000E+00  0.00000000E+00  0.00000000E+00
  0.00000000E+00  0.00000000E+00  0.00000000E+00
  0.00000000E+00  0.00000000E+00  0.00000000E+00
  0.00000000E+00  0.00000000E+00  0.00000000E+00
  0.00000000E+00  0.00000000E+00  0.00000000E+00
  0.00000000E+00  0.00000000E+00  0.00000000E+00
  0.00000000E+00  0.00000000E+00  0.00000000E+00
  0.00000000E+00  0.00000000E+00  0.00000000E+00
  0.00000000E+00  0.00000000E+00  0.00000000E+00
  0.00000000E+00  0.00000000E+00  0.00000000E+00
  0.00000000E+00  0.00000000E+00  0.00000000E+00
  0.00000000E+00  0.00000000E+00  0.00000000E+00
  0.00000000E+00  0.00000000E+00  0.00000000E+00
  0.00000000E+00  0.00000000E+00  0.00000000E+00
  0.00000000E+00  0.00000000E+00  0.00000000E+00
  0.00000000E+00  0.00000000E+00  0.00000000E+00
  0.00000000E+00  0.00000000E+00  0.00000000E+00
  0.00000000E+00  0.00000000E+00  0.00000000E+00
  0.00000000E+00  0.00000000E+00  0.00000000E+00
  0.00000000E+00  0.00000000E+00  0.00000000E+00
  0.00000000E+00  0.00000000E+00  0.00000000E+00
  0.00000000E+00  0.00000000E+00  0.00000000E+00
  0.00000000E+00  0.00000000E+00  0.00000000E+00
  0.00000000E+00  0.00000000E+00  0.00000000E+00
