Bi La Sn C  O  H                        
   1.00000000000000     
    29.0000000000000000    0.0000000000000000    0.0000000000000000
     0.2488180851000000   28.9989325590000000    0.0000000000000000
    -0.0631677343000000   -0.4515975666000000   28.9964147692999994
   Bi   La   Sn   C    O    H 
    22    23    23     1     2     1
Selective dynamics
Direct
  0.7597067488725311  0.4784186584546063  0.3998603376892833   T   T   T
  0.6466387540415222  0.6851953409900290  0.5518863461542554   T   T   T
  0.3602928759618659  0.4588255155781575  0.4274095223883089   T   T   T
  0.5496996701105460  0.7128965956362655  0.5851408224361965   T   T   T
  0.5915029568994470  0.5209714444905416  0.5841479689498996   F   F   F
  0.6398339486397774  0.6806980321990902  0.4455289892417781   T   T   T
  0.6957753582739106  0.5223737952528476  0.6537379800932471   T   T   T
  0.4859712232997003  0.7013710903965208  0.5005979227103809   T   T   T
  0.5004839460855024  0.5502791173970252  0.5477141156400123   F   F   F
  0.3258676784482327  0.4854698761044204  0.5759915453722642   T   T   T
  0.3819483180216927  0.6097592781290827  0.5364336081218641   T   T   T
  0.6667129484492236  0.4827404655721850  0.5105018184570156   F   F   F
  0.5763997220267569  0.4263140504383500  0.5448328182496311   F   F   F
  0.6686631269147573  0.3741509577222664  0.5061758120002834   T   T   T
  0.4619292085526868  0.3381811200530131  0.4975511876477832   T   T   T
  0.6484934028780529  0.5775373212088155  0.4602701624361103   F   F   F
  0.5577843898141368  0.4357686000738031  0.7496418520056304   T   T   T
  0.5992290712088911  0.3509330462676097  0.6697664759932603   T   T   T
  0.4928442747784580  0.2995746083454249  0.4080872592041118   T   T   T
  0.6601099925323186  0.6185409753813795  0.6662435721358760   T   T   T
  0.4928083657935148  0.4093635989299267  0.3063505751117616   T   T   T
  0.6228671491738380  0.3173369564278168  0.5743472482699872   T   T   T
  0.5381181573162213  0.6840670291440780  0.4053527880467304   T   T   T
  0.3901665034911760  0.4154970334773431  0.5263092393853288   T   T   T
  0.6324367474195507  0.5542846627832968  0.2833692218778202   T   T   T
  0.4722119862870736  0.4746172504088265  0.6926901261666740   T   T   T
  0.5683115009887700  0.5094300495444983  0.4784716241115703   F   F   F
  0.4203210565129183  0.5084107200613417  0.5018573595042781   F   F   F
  0.4528154679968485  0.4011160189777378  0.4060312843829193   T   T   T
  0.5652717823525846  0.3491543498465822  0.3542392443557354   T   T   T
  0.4117204989796298  0.5395099642032385  0.6107157049428895   T   T   T
  0.5994096296314063  0.4421994387714498  0.3039227737877982   T   T   T
  0.4550469982759131  0.5998378697395814  0.3620623683930871   T   T   T
  0.4193974582293346  0.4868708199008024  0.3390498288441346   T   T   T
  0.6611913206009289  0.4276594414065563  0.6042294212067145   T   T   T
  0.6732380892217061  0.5789017413928683  0.5637535094646868   T   T   T
  0.5269751814365383  0.5091013991156909  0.3274021673166417   T   T   T
  0.5652795853923563  0.3571630448537184  0.4692859474037201   T   T   T
  0.3164503232925309  0.5408829098226193  0.4920712720662720   T   T   T
  0.6598455141363960  0.4304472772710526  0.4156994980540550   T   T   T
  0.5660841929594156  0.6261437171197244  0.5094829013827464   F   F   F
  0.5960882067825238  0.5281454619670056  0.6897843948278761   T   T   T
  0.4696657699839897  0.6415035952750118  0.5887537268817185   T   T   T
  0.4623919164563000  0.6039357801595299  0.4646780210201997   T   T   T
  0.7162277190264676  0.5736985339916962  0.3838868875210180   T   T   T
  0.5499310510395361  0.5822218838566187  0.4076968008106903   F   F   F
  0.4794126430662260  0.5072205383607624  0.4190535757241776   F   F   F
  0.6958239648574570  0.4796663609570424  0.3247302343110586   T   T   T
  0.7515328591959428  0.4289474809993453  0.4881777655686669   T   T   T
  0.7481418644210103  0.5390249782815527  0.4859721543464988   T   T   T
  0.7488491518222998  0.4897834309625199  0.5723773044757634   T   T   T
  0.6472855538910143  0.4353622764187384  0.7080845910706280   T   T   T
  0.5767490175994096  0.7431023635091809  0.4940009926653277   T   T   T
  0.6192554540844384  0.5183157687966542  0.3801816896793397   F   F   F
  0.5057233304943740  0.5617129823784374  0.6506945797856021   T   T   T
  0.4922009500451665  0.4366758245867572  0.4933013002826740   F   F   F
  0.5608844484509063  0.4404139570509003  0.6454865549417619   F   F   F
  0.5774663303590143  0.6165223368186310  0.6134906333792280   T   T   T
  0.5462350210508001  0.6176099741247522  0.3150820980039318   T   T   T
  0.6306778485705599  0.6311021042394672  0.3587237423426846   T   T   T
  0.3773449755976083  0.5563235515890967  0.4122525327546956   T   T   T
  0.4723078164089713  0.4557257050327763  0.5877273803360978   F   F   F
  0.7266998610958736  0.6359804355533546  0.4854651613988114   T   T   T
  0.4990834179644333  0.3718504070452996  0.6817418679234752   T   T   T
  0.3834557516029891  0.4390901579056273  0.6398752757057151   T   T   T
  0.5544592502646992  0.4379899399457940  0.4037542370104745   F   F   F
  0.4332955783984473  0.3605479912467298  0.6061294643779109   T   T   T
  0.5279422222734014  0.3482842970288961  0.5775535325604191   T   T   T
  0.6555839516574833  0.6610973499573241  0.2868039023749100   T   T   T
  0.6581009172392326  0.6327890384967113  0.2531149326393869   T   T   T
  0.6687622707061727  0.7051508182600424  0.2799322601019430   T   T   T
  0.6784468596359056  0.7080566792269484  0.2473483064025409   T   T   T
 
  0.00000000E+00  0.00000000E+00  0.00000000E+00
  0.00000000E+00  0.00000000E+00  0.00000000E+00
  0.00000000E+00  0.00000000E+00  0.00000000E+00
  0.00000000E+00  0.00000000E+00  0.00000000E+00
  0.00000000E+00  0.00000000E+00  0.00000000E+00
  0.00000000E+00  0.00000000E+00  0.00000000E+00
  0.00000000E+00  0.00000000E+00  0.00000000E+00
  0.00000000E+00  0.00000000E+00  0.00000000E+00
  0.00000000E+00  0.00000000E+00  0.00000000E+00
  0.00000000E+00  0.00000000E+00  0.00000000E+00
  0.00000000E+00  0.00000000E+00  0.00000000E+00
  0.00000000E+00  0.00000000E+00  0.00000000E+00
  0.00000000E+00  0.00000000E+00  0.00000000E+00
  0.00000000E+00  0.00000000E+00  0.00000000E+00
  0.00000000E+00  0.00000000E+00  0.00000000E+00
  0.00000000E+00  0.00000000E+00  0.00000000E+00
  0.00000000E+00  0.00000000E+00  0.00000000E+00
  0.00000000E+00  0.00000000E+00  0.00000000E+00
  0.00000000E+00  0.00000000E+00  0.00000000E+00
  0.00000000E+00  0.00000000E+00  0.00000000E+00
  0.00000000E+00  0.00000000E+00  0.00000000E+00
  0.00000000E+00  0.00000000E+00  0.00000000E+00
  0.00000000E+00  0.00000000E+00  0.00000000E+00
  0.00000000E+00  0.00000000E+00  0.00000000E+00
  0.00000000E+00  0.00000000E+00  0.00000000E+00
  0.00000000E+00  0.00000000E+00  0.00000000E+00
  0.00000000E+00  0.00000000E+00  0.00000000E+00
  0.00000000E+00  0.00000000E+00  0.00000000E+00
  0.00000000E+00  0.00000000E+00  0.00000000E+00
  0.00000000E+00  0.00000000E+00  0.00000000E+00
  0.00000000E+00  0.00000000E+00  0.00000000E+00
  0.00000000E+00  0.00000000E+00  0.00000000E+00
  0.00000000E+00  0.00000000E+00  0.00000000E+00
  0.00000000E+00  0.00000000E+00  0.00000000E+00
  0.00000000E+00  0.00000000E+00  0.00000000E+00
  0.00000000E+00  0.00000000E+00  0.00000000E+00
  0.00000000E+00  0.00000000E+00  0.00000000E+00
  0.00000000E+00  0.00000000E+00  0.00000000E+00
  0.00000000E+00  0.00000000E+00  0.00000000E+00
  0.00000000E+00  0.00000000E+00  0.00000000E+00
  0.00000000E+00  0.00000000E+00  0.00000000E+00
  0.00000000E+00  0.00000000E+00  0.00000000E+00
  0.00000000E+00  0.00000000E+00  0.00000000E+00
  0.00000000E+00  0.00000000E+00  0.00000000E+00
  0.00000000E+00  0.00000000E+00  0.00000000E+00
  0.00000000E+00  0.00000000E+00  0.00000000E+00
  0.00000000E+00  0.00000000E+00  0.00000000E+00
  0.00000000E+00  0.00000000E+00  0.00000000E+00
  0.00000000E+00  0.00000000E+00  0.00000000E+00
  0.00000000E+00  0.00000000E+00  0.00000000E+00
  0.00000000E+00  0.00000000E+00  0.00000000E+00
  0.00000000E+00  0.00000000E+00  0.00000000E+00
  0.00000000E+00  0.00000000E+00  0.00000000E+00
  0.00000000E+00  0.00000000E+00  0.00000000E+00
  0.00000000E+00  0.00000000E+00  0.00000000E+00
  0.00000000E+00  0.00000000E+00  0.00000000E+00
  0.00000000E+00  0.00000000E+00  0.00000000E+00
  0.00000000E+00  0.00000000E+00  0.00000000E+00
  0.00000000E+00  0.00000000E+00  0.00000000E+00
  0.00000000E+00  0.00000000E+00  0.00000000E+00
  0.00000000E+00  0.00000000E+00  0.00000000E+00
  0.00000000E+00  0.00000000E+00  0.00000000E+00
  0.00000000E+00  0.00000000E+00  0.00000000E+00
  0.00000000E+00  0.00000000E+00  0.00000000E+00
  0.00000000E+00  0.00000000E+00  0.00000000E+00
  0.00000000E+00  0.00000000E+00  0.00000000E+00
  0.00000000E+00  0.00000000E+00  0.00000000E+00
  0.00000000E+00  0.00000000E+00  0.00000000E+00
  0.00000000E+00  0.00000000E+00  0.00000000E+00
  0.00000000E+00  0.00000000E+00  0.00000000E+00
  0.00000000E+00  0.00000000E+00  0.00000000E+00
  0.00000000E+00  0.00000000E+00  0.00000000E+00
