Bi La Sn C  O  H                        
   1.00000000000000     
    29.0000000000000000    0.0000000000000000    0.0000000000000000
     0.2488180851000000   28.9989325590000000    0.0000000000000000
    -0.0631677343000000   -0.4515975666000000   28.9964147692999994
   Bi   La   Sn   C    O    H 
    22    23    23     1     2     1
Selective dynamics
Direct
  0.7618513856424688  0.4741060524662194  0.3979052973433738   T   T   T
  0.6513549291276428  0.6819200866267441  0.5511247109692240   T   T   T
  0.3599412652717102  0.4588975101919986  0.4277863888486826   T   T   T
  0.5590439964281813  0.7126430816772410  0.5857861513642952   T   T   T
  0.5915029568994470  0.5209714444905416  0.5841479689498996   F   F   F
  0.6422954901664676  0.6800240922284199  0.4464284457311122   T   T   T
  0.6953419818151981  0.5182023399161895  0.6545225784094725   T   T   T
  0.4857642485529259  0.7007641543593850  0.4915748705962713   T   T   T
  0.5004839460855024  0.5502791173970252  0.5477141156400123   F   F   F
  0.3290087218582550  0.4855644067142805  0.5789069903310355   T   T   T
  0.3846817019891301  0.6090094671188451  0.5384683466193406   T   T   T
  0.6667129484492236  0.4827404655721850  0.5105018184570156   F   F   F
  0.5763997220267569  0.4263140504383500  0.5448328182496311   F   F   F
  0.6678125487392985  0.3733394180430659  0.5063381302237402   T   T   T
  0.4601354378076651  0.3374187523931920  0.4940753145964745   T   T   T
  0.6484934028780529  0.5775373212088155  0.4602701624361103   F   F   F
  0.5538962748088094  0.4347666773964823  0.7495542061137919   T   T   T
  0.5897581724420353  0.3485783014801902  0.6671873789297176   T   T   T
  0.4926572318441924  0.3004872902370724  0.4048389005735525   T   T   T
  0.6632893924716164  0.6146627759027035  0.6677058368438692   T   T   T
  0.4908999829296689  0.4110141077358335  0.3034682485626101   T   T   T
  0.6199793733235051  0.3165749001328614  0.5731073976956603   T   T   T
  0.5433795785264042  0.6839671444727804  0.4031958601226742   T   T   T
  0.3894215518019333  0.4150076859423154  0.5256863871426721   T   T   T
  0.6295700593489636  0.5504569779625158  0.2824277225548140   T   T   T
  0.4735190475680068  0.4829647768052218  0.6923352991480192   T   T   T
  0.5683115009887700  0.5094300495444983  0.4784716241115703   F   F   F
  0.4203210565129183  0.5084107200613417  0.5018573595042781   F   F   F
  0.4522972620727648  0.4020977902952936  0.4041572683878406   T   T   T
  0.5631779807747800  0.3508658087603533  0.3508936117187091   T   T   T
  0.4143778264761308  0.5395170924019110  0.6130997344680982   T   T   T
  0.5990512358501013  0.4419412967365171  0.3044725705270416   T   T   T
  0.4553289519552394  0.6008361422968614  0.3632624909552150   T   T   T
  0.4187149270428505  0.4879033331694769  0.3396382581511334   T   T   T
  0.6602609795142155  0.4256723240194898  0.6043492425294722   T   T   T
  0.6755774410454889  0.5772489468786386  0.5644443757270933   T   T   T
  0.5260039068036221  0.5093428350923760  0.3281130470080873   T   T   T
  0.5646755055399777  0.3563694246265216  0.4693487131331675   T   T   T
  0.3175857412511661  0.5409441832394923  0.4945049556722320   T   T   T
  0.6600907504200908  0.4293362442570334  0.4155651347111492   T   T   T
  0.5660841929594156  0.6261437171197244  0.5094829013827464   F   F   F
  0.5953801231915253  0.5270515150499389  0.6899855869504307   T   T   T
  0.4732918718845980  0.6460068383851115  0.5865208800332835   T   T   T
  0.4631799192615221  0.6029524399286683  0.4644256877351949   T   T   T
  0.7172723326234571  0.5704208036763186  0.3832773972163196   T   T   T
  0.5499310510395361  0.5822218838566187  0.4076968008106903   F   F   F
  0.4794126430662260  0.5072205383607624  0.4190535757241776   F   F   F
  0.6956440983928921  0.4784915110622239  0.3248050376720925   T   T   T
  0.7510231958276464  0.4267962116973080  0.4874775296298261   T   T   T
  0.7496286785766685  0.5339907046186044  0.4840713089333091   T   T   T
  0.7488752255738549  0.4876081448559706  0.5720802784369614   T   T   T
  0.6437203064696753  0.4303019642768842  0.7086941177129106   T   T   T
  0.5779043271485507  0.7422309361081334  0.4938096012160193   T   T   T
  0.6192554540844384  0.5183157687966542  0.3801816896793397   F   F   F
  0.5081484934520744  0.5677378675131790  0.6497159484757290   T   T   T
  0.4922009500451665  0.4366758245867572  0.4933013002826740   F   F   F
  0.5608844484509063  0.4404139570509003  0.6454865549417619   F   F   F
  0.5818839621202231  0.6172149746289411  0.6131020690531498   T   T   T
  0.5458877951974436  0.6162660045925621  0.3129504846213847   T   T   T
  0.6295936121427939  0.6232404149769156  0.3606220242255075   T   T   T
  0.3768357140044004  0.5573700226332271  0.4133646753120924   T   T   T
  0.4723078164089713  0.4557257050327763  0.5877273803360978   F   F   F
  0.7301224869560323  0.6305287491854257  0.4816108608653166   T   T   T
  0.4905842565290714  0.3798773231867861  0.6773348547386827   T   T   T
  0.3881304424087579  0.4368485636358194  0.6412798436394460   T   T   T
  0.5544592502646992  0.4379899399457940  0.4037542370104745   F   F   F
  0.4305118914332365  0.3555074492125816  0.6016702541402249   T   T   T
  0.5247768465954669  0.3492529356791289  0.5743469218616708   T   T   T
  0.4661394414570402  0.7562388317749641  0.5548335894217207   T   T   T
  0.4648838776017492  0.7979682028773384  0.5550579864663342   T   T   T
  0.4396278766223055  0.7317783713362154  0.5889501697265777   T   T   T
  0.4243194766072947  0.7550085254568041  0.6088959015963321   T   T   T
 
  0.00000000E+00  0.00000000E+00  0.00000000E+00
  0.00000000E+00  0.00000000E+00  0.00000000E+00
  0.00000000E+00  0.00000000E+00  0.00000000E+00
  0.00000000E+00  0.00000000E+00  0.00000000E+00
  0.00000000E+00  0.00000000E+00  0.00000000E+00
  0.00000000E+00  0.00000000E+00  0.00000000E+00
  0.00000000E+00  0.00000000E+00  0.00000000E+00
  0.00000000E+00  0.00000000E+00  0.00000000E+00
  0.00000000E+00  0.00000000E+00  0.00000000E+00
  0.00000000E+00  0.00000000E+00  0.00000000E+00
  0.00000000E+00  0.00000000E+00  0.00000000E+00
  0.00000000E+00  0.00000000E+00  0.00000000E+00
  0.00000000E+00  0.00000000E+00  0.00000000E+00
  0.00000000E+00  0.00000000E+00  0.00000000E+00
  0.00000000E+00  0.00000000E+00  0.00000000E+00
  0.00000000E+00  0.00000000E+00  0.00000000E+00
  0.00000000E+00  0.00000000E+00  0.00000000E+00
  0.00000000E+00  0.00000000E+00  0.00000000E+00
  0.00000000E+00  0.00000000E+00  0.00000000E+00
  0.00000000E+00  0.00000000E+00  0.00000000E+00
  0.00000000E+00  0.00000000E+00  0.00000000E+00
  0.00000000E+00  0.00000000E+00  0.00000000E+00
  0.00000000E+00  0.00000000E+00  0.00000000E+00
  0.00000000E+00  0.00000000E+00  0.00000000E+00
  0.00000000E+00  0.00000000E+00  0.00000000E+00
  0.00000000E+00  0.00000000E+00  0.00000000E+00
  0.00000000E+00  0.00000000E+00  0.00000000E+00
  0.00000000E+00  0.00000000E+00  0.00000000E+00
  0.00000000E+00  0.00000000E+00  0.00000000E+00
  0.00000000E+00  0.00000000E+00  0.00000000E+00
  0.00000000E+00  0.00000000E+00  0.00000000E+00
  0.00000000E+00  0.00000000E+00  0.00000000E+00
  0.00000000E+00  0.00000000E+00  0.00000000E+00
  0.00000000E+00  0.00000000E+00  0.00000000E+00
  0.00000000E+00  0.00000000E+00  0.00000000E+00
  0.00000000E+00  0.00000000E+00  0.00000000E+00
  0.00000000E+00  0.00000000E+00  0.00000000E+00
  0.00000000E+00  0.00000000E+00  0.00000000E+00
  0.00000000E+00  0.00000000E+00  0.00000000E+00
  0.00000000E+00  0.00000000E+00  0.00000000E+00
  0.00000000E+00  0.00000000E+00  0.00000000E+00
  0.00000000E+00  0.00000000E+00  0.00000000E+00
  0.00000000E+00  0.00000000E+00  0.00000000E+00
  0.00000000E+00  0.00000000E+00  0.00000000E+00
  0.00000000E+00  0.00000000E+00  0.00000000E+00
  0.00000000E+00  0.00000000E+00  0.00000000E+00
  0.00000000E+00  0.00000000E+00  0.00000000E+00
  0.00000000E+00  0.00000000E+00  0.00000000E+00
  0.00000000E+00  0.00000000E+00  0.00000000E+00
  0.00000000E+00  0.00000000E+00  0.00000000E+00
  0.00000000E+00  0.00000000E+00  0.00000000E+00
  0.00000000E+00  0.00000000E+00  0.00000000E+00
  0.00000000E+00  0.00000000E+00  0.00000000E+00
  0.00000000E+00  0.00000000E+00  0.00000000E+00
  0.00000000E+00  0.00000000E+00  0.00000000E+00
  0.00000000E+00  0.00000000E+00  0.00000000E+00
  0.00000000E+00  0.00000000E+00  0.00000000E+00
  0.00000000E+00  0.00000000E+00  0.00000000E+00
  0.00000000E+00  0.00000000E+00  0.00000000E+00
  0.00000000E+00  0.00000000E+00  0.00000000E+00
  0.00000000E+00  0.00000000E+00  0.00000000E+00
  0.00000000E+00  0.00000000E+00  0.00000000E+00
  0.00000000E+00  0.00000000E+00  0.00000000E+00
  0.00000000E+00  0.00000000E+00  0.00000000E+00
  0.00000000E+00  0.00000000E+00  0.00000000E+00
  0.00000000E+00  0.00000000E+00  0.00000000E+00
  0.00000000E+00  0.00000000E+00  0.00000000E+00
  0.00000000E+00  0.00000000E+00  0.00000000E+00
  0.00000000E+00  0.00000000E+00  0.00000000E+00
  0.00000000E+00  0.00000000E+00  0.00000000E+00
  0.00000000E+00  0.00000000E+00  0.00000000E+00
  0.00000000E+00  0.00000000E+00  0.00000000E+00
