Bi La Sn C  O  H                        
   1.00000000000000     
    29.0000000000000000    0.0000000000000000    0.0000000000000000
     0.2488180851000000   28.9989325590000000    0.0000000000000000
    -0.0631677343000000   -0.4515975666000000   28.9964147692999994
   Bi   La   Sn   C    O    H 
    22    23    23     1     2     1
Selective dynamics
Direct
  0.7596080927063189  0.4754069427955293  0.3988714221876358   T   T   T
  0.6466173788882040  0.6837920048831974  0.5542820393666078   T   T   T
  0.3591780715307096  0.4583566750431253  0.4290412509457232   T   T   T
  0.5505110128368763  0.7126718312109530  0.5854756346293755   T   T   T
  0.5915029568994470  0.5209714444905416  0.5841479689498996   F   F   F
  0.6416963654948529  0.6817309509153738  0.4482163152197684   T   T   T
  0.6956889368509034  0.5225394195507158  0.6540292875852107   T   T   T
  0.4857072208047237  0.7005493612299304  0.4997296954949905   T   T   T
  0.5004839460855024  0.5502791173970252  0.5477141156400123   F   F   F
  0.3243117763363588  0.4870506631947494  0.5736559657233572   T   T   T
  0.3824053128303433  0.6113552634407017  0.5348115985739368   T   T   T
  0.6667129484492236  0.4827404655721850  0.5105018184570156   F   F   F
  0.5763997220267569  0.4263140504383500  0.5448328182496311   F   F   F
  0.6683927869970759  0.3738098813169189  0.5063116721852901   T   T   T
  0.4635401792700750  0.3389476390683397  0.5018480089056173   T   T   T
  0.6484934028780529  0.5775373212088155  0.4602701624361103   F   F   F
  0.5577389463439176  0.4380816750436917  0.7495436930669258   T   T   T
  0.6058218488380671  0.3526852444062814  0.6708371036871276   T   T   T
  0.4918490704794149  0.2994365711491412  0.4113091876325203   T   T   T
  0.6598658418625528  0.6188850195027698  0.6655401797357400   T   T   T
  0.4944528288103719  0.4089903667469683  0.3117000414143551   T   T   T
  0.6229234923950621  0.3175646741563749  0.5746263298179668   T   T   T
  0.5414998556434775  0.6848507710599399  0.4065354390839265   T   T   T
  0.3907652704565932  0.4158407153900046  0.5281794682428204   T   T   T
  0.6309464656960192  0.5538849868677087  0.2839451727272874   T   T   T
  0.4707552606483176  0.4698398035642612  0.6912912138461942   T   T   T
  0.5683115009887700  0.5094300495444983  0.4784716241115703   F   F   F
  0.4203210565129183  0.5084107200613417  0.5018573595042781   F   F   F
  0.4516014342690879  0.4010517508882239  0.4087012708219303   T   T   T
  0.5659355167624265  0.3467436416932220  0.3570903267897055   T   T   T
  0.4103522479722529  0.5405174195946580  0.6091320629249259   T   T   T
  0.5983895278818875  0.4433821705430857  0.3045736518990532   T   T   T
  0.4545962931444928  0.6030781905416299  0.3624256066204488   T   T   T
  0.4171685178177021  0.4866875833082721  0.3368972882165563   T   T   T
  0.6611824789501386  0.4285254912801318  0.6043696582862328   T   T   T
  0.6734459607076491  0.5782738045671298  0.5638090686197751   T   T   T
  0.5260791587877287  0.5120213791444306  0.3263033691742482   T   T   T
  0.5653965243044263  0.3580112444080538  0.4693011119329325   T   T   T
  0.3161565811935347  0.5430682120847197  0.4903399544185972   T   T   T
  0.6596657514062124  0.4291123314756955  0.4156242528396639   T   T   T
  0.5660841929594156  0.6261437171197244  0.5094829013827464   F   F   F
  0.5952642472330900  0.5293384649656743  0.6895956241291442   T   T   T
  0.4700359015289986  0.6415726482097895  0.5889986159400332   T   T   T
  0.4630292506691867  0.6024387230655470  0.4641397015303739   T   T   T
  0.7173434092666788  0.5714629109821311  0.3840063497061031   T   T   T
  0.5499310510395361  0.5822218838566187  0.4076968008106903   F   F   F
  0.4794126430662260  0.5072205383607624  0.4190535757241776   F   F   F
  0.6949324739461855  0.4790703456292964  0.3247782364577563   T   T   T
  0.7516049479010728  0.4285122054495014  0.4889732653702612   T   T   T
  0.7489934115489275  0.5366678973601168  0.4851344732140416   T   T   T
  0.7488886285623939  0.4904387439548936  0.5726855413908549   T   T   T
  0.6486238468647151  0.4385467872708891  0.7094707477761963   T   T   T
  0.5763692637434782  0.7431011231043567  0.4947245611112867   T   T   T
  0.6192554540844384  0.5183157687966542  0.3801816896793397   F   F   F
  0.5040170013840384  0.5590833481693250  0.6503890005700385   T   T   T
  0.4922009500451665  0.4366758245867572  0.4933013002826740   F   F   F
  0.5608844484509063  0.4404139570509003  0.6454865549417619   F   F   F
  0.5765893576374580  0.6156242869552023  0.6138047571462057   T   T   T
  0.5476546019215571  0.6200164053668230  0.3147208877880350   T   T   T
  0.6301586246666252  0.6260139104445384  0.3630218593032235   T   T   T
  0.3784906590678604  0.5553641669664535  0.4117739300679062   T   T   T
  0.4723078164089713  0.4557257050327763  0.5877273803360978   F   F   F
  0.7281325027322629  0.6336046611222927  0.4849102438158908   T   T   T
  0.5057363018291012  0.3673954248067707  0.6866304281769500   T   T   T
  0.3798562815493370  0.4421936505397174  0.6399003971341306   T   T   T
  0.5544592502646992  0.4379899399457940  0.4037542370104745   F   F   F
  0.4351014998575252  0.3652791949761684  0.6133177067935380   T   T   T
  0.5287030319364021  0.3495037065039310  0.5813685808477496   T   T   T
  0.4465533287195632  0.5502496962523381  0.2941195653778390   T   T   T
  0.4650068638206992  0.5185695157292398  0.2667435407092800   T   T   T
  0.4427677649616497  0.5963483084368750  0.2759995389050273   T   T   T
  0.4709003564759091  0.6023224966095451  0.2577994963157027   T   T   T
 
  0.00000000E+00  0.00000000E+00  0.00000000E+00
  0.00000000E+00  0.00000000E+00  0.00000000E+00
  0.00000000E+00  0.00000000E+00  0.00000000E+00
  0.00000000E+00  0.00000000E+00  0.00000000E+00
  0.00000000E+00  0.00000000E+00  0.00000000E+00
  0.00000000E+00  0.00000000E+00  0.00000000E+00
  0.00000000E+00  0.00000000E+00  0.00000000E+00
  0.00000000E+00  0.00000000E+00  0.00000000E+00
  0.00000000E+00  0.00000000E+00  0.00000000E+00
  0.00000000E+00  0.00000000E+00  0.00000000E+00
  0.00000000E+00  0.00000000E+00  0.00000000E+00
  0.00000000E+00  0.00000000E+00  0.00000000E+00
  0.00000000E+00  0.00000000E+00  0.00000000E+00
  0.00000000E+00  0.00000000E+00  0.00000000E+00
  0.00000000E+00  0.00000000E+00  0.00000000E+00
  0.00000000E+00  0.00000000E+00  0.00000000E+00
  0.00000000E+00  0.00000000E+00  0.00000000E+00
  0.00000000E+00  0.00000000E+00  0.00000000E+00
  0.00000000E+00  0.00000000E+00  0.00000000E+00
  0.00000000E+00  0.00000000E+00  0.00000000E+00
  0.00000000E+00  0.00000000E+00  0.00000000E+00
  0.00000000E+00  0.00000000E+00  0.00000000E+00
  0.00000000E+00  0.00000000E+00  0.00000000E+00
  0.00000000E+00  0.00000000E+00  0.00000000E+00
  0.00000000E+00  0.00000000E+00  0.00000000E+00
  0.00000000E+00  0.00000000E+00  0.00000000E+00
  0.00000000E+00  0.00000000E+00  0.00000000E+00
  0.00000000E+00  0.00000000E+00  0.00000000E+00
  0.00000000E+00  0.00000000E+00  0.00000000E+00
  0.00000000E+00  0.00000000E+00  0.00000000E+00
  0.00000000E+00  0.00000000E+00  0.00000000E+00
  0.00000000E+00  0.00000000E+00  0.00000000E+00
  0.00000000E+00  0.00000000E+00  0.00000000E+00
  0.00000000E+00  0.00000000E+00  0.00000000E+00
  0.00000000E+00  0.00000000E+00  0.00000000E+00
  0.00000000E+00  0.00000000E+00  0.00000000E+00
  0.00000000E+00  0.00000000E+00  0.00000000E+00
  0.00000000E+00  0.00000000E+00  0.00000000E+00
  0.00000000E+00  0.00000000E+00  0.00000000E+00
  0.00000000E+00  0.00000000E+00  0.00000000E+00
  0.00000000E+00  0.00000000E+00  0.00000000E+00
  0.00000000E+00  0.00000000E+00  0.00000000E+00
  0.00000000E+00  0.00000000E+00  0.00000000E+00
  0.00000000E+00  0.00000000E+00  0.00000000E+00
  0.00000000E+00  0.00000000E+00  0.00000000E+00
  0.00000000E+00  0.00000000E+00  0.00000000E+00
  0.00000000E+00  0.00000000E+00  0.00000000E+00
  0.00000000E+00  0.00000000E+00  0.00000000E+00
  0.00000000E+00  0.00000000E+00  0.00000000E+00
  0.00000000E+00  0.00000000E+00  0.00000000E+00
  0.00000000E+00  0.00000000E+00  0.00000000E+00
  0.00000000E+00  0.00000000E+00  0.00000000E+00
  0.00000000E+00  0.00000000E+00  0.00000000E+00
  0.00000000E+00  0.00000000E+00  0.00000000E+00
  0.00000000E+00  0.00000000E+00  0.00000000E+00
  0.00000000E+00  0.00000000E+00  0.00000000E+00
  0.00000000E+00  0.00000000E+00  0.00000000E+00
  0.00000000E+00  0.00000000E+00  0.00000000E+00
  0.00000000E+00  0.00000000E+00  0.00000000E+00
  0.00000000E+00  0.00000000E+00  0.00000000E+00
  0.00000000E+00  0.00000000E+00  0.00000000E+00
  0.00000000E+00  0.00000000E+00  0.00000000E+00
  0.00000000E+00  0.00000000E+00  0.00000000E+00
  0.00000000E+00  0.00000000E+00  0.00000000E+00
  0.00000000E+00  0.00000000E+00  0.00000000E+00
  0.00000000E+00  0.00000000E+00  0.00000000E+00
  0.00000000E+00  0.00000000E+00  0.00000000E+00
  0.00000000E+00  0.00000000E+00  0.00000000E+00
  0.00000000E+00  0.00000000E+00  0.00000000E+00
  0.00000000E+00  0.00000000E+00  0.00000000E+00
  0.00000000E+00  0.00000000E+00  0.00000000E+00
  0.00000000E+00  0.00000000E+00  0.00000000E+00
