Bi La Sn C  O  H                        
   1.00000000000000     
    29.0000000000000000    0.0000000000000000    0.0000000000000000
     0.2488180851000000   28.9989325590000000    0.0000000000000000
    -0.0631677343000000   -0.4515975666000000   28.9964147692999994
   Bi   La   Sn   C    O    H 
    22    23    23     1     2     1
Selective dynamics
Direct
  0.7597747438711957  0.4774429288896593  0.3981812489684451   T   T   T
  0.6467652409679880  0.6845425857087020  0.5517358139945283   T   T   T
  0.3597082968621612  0.4588037578531133  0.4282712448022564   T   T   T
  0.5506594922047592  0.7135480546644180  0.5836969704981134   T   T   T
  0.5915029568994470  0.5209714444905416  0.5841479689498996   F   F   F
  0.6402798968789456  0.6797387185032965  0.4452754487790933   T   T   T
  0.6957856410159785  0.5221342736367068  0.6545228161152112   T   T   T
  0.4865720801167976  0.7013541661949989  0.4987211527397403   T   T   T
  0.5004839460855024  0.5502791173970252  0.5477141156400123   F   F   F
  0.3246328030026442  0.4870086017971441  0.5735393893481715   T   T   T
  0.3822888641532021  0.6114316096808500  0.5341142124844293   T   T   T
  0.6667129484492236  0.4827404655721850  0.5105018184570156   F   F   F
  0.5763997220267569  0.4263140504383500  0.5448328182496311   F   F   F
  0.6707201511797426  0.3721504634291463  0.5076117820811087   T   T   T
  0.4632396918595980  0.3389064064680549  0.4996683617171029   T   T   T
  0.6484934028780529  0.5775373212088155  0.4602701624361103   F   F   F
  0.5577900778055526  0.4371166556564340  0.7493033072918359   T   T   T
  0.6046780411074962  0.3516244709386334  0.6690979060002851   T   T   T
  0.4925170889515683  0.2997341646349218  0.4097279653857780   T   T   T
  0.6598950637271935  0.6183531875438147  0.6660938268004039   T   T   T
  0.4921909343380168  0.4099270290215854  0.3072225827764261   T   T   T
  0.6194282774757545  0.3157866381373216  0.5730332676972822   T   T   T
  0.5391735699684436  0.6835422482951179  0.4035812691123517   T   T   T
  0.3907461409258496  0.4155453725926994  0.5278413960433660   T   T   T
  0.6289316623110024  0.5519699981049385  0.2821693336177287   T   T   T
  0.4713113866860186  0.4709717297700691  0.6909723274428414   T   T   T
  0.5683115009887700  0.5094300495444983  0.4784716241115703   F   F   F
  0.4203210565129183  0.5084107200613417  0.5018573595042781   F   F   F
  0.4520739352765672  0.4011120039840335  0.4069288117708452   T   T   T
  0.5642406414323281  0.3484346699615626  0.3539283338117604   T   T   T
  0.4104574249087833  0.5410931135315775  0.6088460765729757   T   T   T
  0.5981227312002551  0.4426992396213710  0.3040732938954715   T   T   T
  0.4555241125881458  0.6005627797651574  0.3626583404767576   T   T   T
  0.4185693664512990  0.4869556156744162  0.3395590451627218   T   T   T
  0.6607816127823410  0.4286662228223544  0.6046035436533880   T   T   T
  0.6731814173462252  0.5783339338024470  0.5640160018663569   T   T   T
  0.5264521764877566  0.5097403182740111  0.3280173079255645   T   T   T
  0.5662156385815927  0.3571574859496595  0.4689964132641918   T   T   T
  0.3157148121688721  0.5428176886649465  0.4901662806031222   T   T   T
  0.6604267176008808  0.4296231183053462  0.4156964031339248   T   T   T
  0.5660841929594156  0.6261437171197244  0.5094829013827464   F   F   F
  0.5950266809192609  0.5292389685337489  0.6894183281685062   T   T   T
  0.4702313936531442  0.6419412932383581  0.5875741828848509   T   T   T
  0.4633208713103687  0.6031354768192726  0.4634236099785785   T   T   T
  0.7163422786959328  0.5730892756119503  0.3832730924503285   T   T   T
  0.5499310510395361  0.5822218838566187  0.4076968008106903   F   F   F
  0.4794126430662260  0.5072205383607624  0.4190535757241776   F   F   F
  0.6947494950480071  0.4798103164902477  0.3241826604259599   T   T   T
  0.7513540444560867  0.4296761906984739  0.4878656418034360   T   T   T
  0.7484236303877388  0.5373969107765477  0.4851293688515190   T   T   T
  0.7488120961217538  0.4905401634332903  0.5727491341454771   T   T   T
  0.6484243370157665  0.4382992360274003  0.7092340190974571   T   T   T
  0.5770416882342230  0.7431227486495872  0.4922152770906478   T   T   T
  0.6192554540844384  0.5183157687966542  0.3801816896793397   F   F   F
  0.5038213736508143  0.5609071552777255  0.6507426832417444   T   T   T
  0.4922009500451665  0.4366758245867572  0.4933013002826740   F   F   F
  0.5608844484509063  0.4404139570509003  0.6454865549417619   F   F   F
  0.5767929320700964  0.6162091839809564  0.6138056397314735   T   T   T
  0.5446684892780737  0.6171657561712430  0.3112675086088899   T   T   T
  0.6271335803861844  0.6244705367226890  0.3602347479542800   T   T   T
  0.3776662034971793  0.5569184740932054  0.4118094580815958   T   T   T
  0.4723078164089713  0.4557257050327763  0.5877273803360978   F   F   F
  0.7273919040071064  0.6345208021866292  0.4847311312392764   T   T   T
  0.5049756235253835  0.3681893809148739  0.6862404488363424   T   T   T
  0.3805552986173562  0.4428554618242651  0.6395486417002541   T   T   T
  0.5544592502646992  0.4379899399457940  0.4037542370104745   F   F   F
  0.4345171769456799  0.3650686048647318  0.6124157889077356   T   T   T
  0.5273370653878525  0.3502440091484804  0.5805640990673553   T   T   T
  0.7201158186470459  0.3073551302199763  0.4983607380759236   T   T   T
  0.7614900770508869  0.3085163891096301  0.4908228729608896   T   T   T
  0.6971183662605053  0.2663698027048654  0.5045604827779193   T   T   T
  0.7204353693538471  0.2414066184318018  0.5029524182190863   T   T   T
 
  0.00000000E+00  0.00000000E+00  0.00000000E+00
  0.00000000E+00  0.00000000E+00  0.00000000E+00
  0.00000000E+00  0.00000000E+00  0.00000000E+00
  0.00000000E+00  0.00000000E+00  0.00000000E+00
  0.00000000E+00  0.00000000E+00  0.00000000E+00
  0.00000000E+00  0.00000000E+00  0.00000000E+00
  0.00000000E+00  0.00000000E+00  0.00000000E+00
  0.00000000E+00  0.00000000E+00  0.00000000E+00
  0.00000000E+00  0.00000000E+00  0.00000000E+00
  0.00000000E+00  0.00000000E+00  0.00000000E+00
  0.00000000E+00  0.00000000E+00  0.00000000E+00
  0.00000000E+00  0.00000000E+00  0.00000000E+00
  0.00000000E+00  0.00000000E+00  0.00000000E+00
  0.00000000E+00  0.00000000E+00  0.00000000E+00
  0.00000000E+00  0.00000000E+00  0.00000000E+00
  0.00000000E+00  0.00000000E+00  0.00000000E+00
  0.00000000E+00  0.00000000E+00  0.00000000E+00
  0.00000000E+00  0.00000000E+00  0.00000000E+00
  0.00000000E+00  0.00000000E+00  0.00000000E+00
  0.00000000E+00  0.00000000E+00  0.00000000E+00
  0.00000000E+00  0.00000000E+00  0.00000000E+00
  0.00000000E+00  0.00000000E+00  0.00000000E+00
  0.00000000E+00  0.00000000E+00  0.00000000E+00
  0.00000000E+00  0.00000000E+00  0.00000000E+00
  0.00000000E+00  0.00000000E+00  0.00000000E+00
  0.00000000E+00  0.00000000E+00  0.00000000E+00
  0.00000000E+00  0.00000000E+00  0.00000000E+00
  0.00000000E+00  0.00000000E+00  0.00000000E+00
  0.00000000E+00  0.00000000E+00  0.00000000E+00
  0.00000000E+00  0.00000000E+00  0.00000000E+00
  0.00000000E+00  0.00000000E+00  0.00000000E+00
  0.00000000E+00  0.00000000E+00  0.00000000E+00
  0.00000000E+00  0.00000000E+00  0.00000000E+00
  0.00000000E+00  0.00000000E+00  0.00000000E+00
  0.00000000E+00  0.00000000E+00  0.00000000E+00
  0.00000000E+00  0.00000000E+00  0.00000000E+00
  0.00000000E+00  0.00000000E+00  0.00000000E+00
  0.00000000E+00  0.00000000E+00  0.00000000E+00
  0.00000000E+00  0.00000000E+00  0.00000000E+00
  0.00000000E+00  0.00000000E+00  0.00000000E+00
  0.00000000E+00  0.00000000E+00  0.00000000E+00
  0.00000000E+00  0.00000000E+00  0.00000000E+00
  0.00000000E+00  0.00000000E+00  0.00000000E+00
  0.00000000E+00  0.00000000E+00  0.00000000E+00
  0.00000000E+00  0.00000000E+00  0.00000000E+00
  0.00000000E+00  0.00000000E+00  0.00000000E+00
  0.00000000E+00  0.00000000E+00  0.00000000E+00
  0.00000000E+00  0.00000000E+00  0.00000000E+00
  0.00000000E+00  0.00000000E+00  0.00000000E+00
  0.00000000E+00  0.00000000E+00  0.00000000E+00
  0.00000000E+00  0.00000000E+00  0.00000000E+00
  0.00000000E+00  0.00000000E+00  0.00000000E+00
  0.00000000E+00  0.00000000E+00  0.00000000E+00
  0.00000000E+00  0.00000000E+00  0.00000000E+00
  0.00000000E+00  0.00000000E+00  0.00000000E+00
  0.00000000E+00  0.00000000E+00  0.00000000E+00
  0.00000000E+00  0.00000000E+00  0.00000000E+00
  0.00000000E+00  0.00000000E+00  0.00000000E+00
  0.00000000E+00  0.00000000E+00  0.00000000E+00
  0.00000000E+00  0.00000000E+00  0.00000000E+00
  0.00000000E+00  0.00000000E+00  0.00000000E+00
  0.00000000E+00  0.00000000E+00  0.00000000E+00
  0.00000000E+00  0.00000000E+00  0.00000000E+00
  0.00000000E+00  0.00000000E+00  0.00000000E+00
  0.00000000E+00  0.00000000E+00  0.00000000E+00
  0.00000000E+00  0.00000000E+00  0.00000000E+00
  0.00000000E+00  0.00000000E+00  0.00000000E+00
  0.00000000E+00  0.00000000E+00  0.00000000E+00
  0.00000000E+00  0.00000000E+00  0.00000000E+00
  0.00000000E+00  0.00000000E+00  0.00000000E+00
  0.00000000E+00  0.00000000E+00  0.00000000E+00
  0.00000000E+00  0.00000000E+00  0.00000000E+00
