Bi La Sn C  O  H                        
   1.00000000000000     
    29.0000000000000000    0.0000000000000000    0.0000000000000000
     0.2488180851000000   28.9989325590000000    0.0000000000000000
    -0.0631677343000000   -0.4515975666000000   28.9964147692999994
   Bi   La   Sn   C    O    H 
    22    23    23     1     2     1
Selective dynamics
Direct
  0.7595950166232168  0.4782364059864237  0.4052383546038781   T   T   T
  0.6472678652313393  0.6837225807054644  0.5518441113716721   T   T   T
  0.3604124702443658  0.4589288796790936  0.4270284449397256   T   T   T
  0.5512664832037025  0.7133509203436202  0.5844948945126505   T   T   T
  0.5915029568994470  0.5209714444905416  0.5841479689498996   F   F   F
  0.6397018575032161  0.6806970967017190  0.4455789200171745   T   T   T
  0.6961635312058451  0.5226467733341584  0.6534695775604290   T   T   T
  0.4868365215343350  0.7018923096194095  0.4995639611307961   T   T   T
  0.5004839460855024  0.5502791173970252  0.5477141156400123   F   F   F
  0.3260730293021758  0.4867403616032449  0.5752347246784869   T   T   T
  0.3824342645774386  0.6104638252775775  0.5358517795956196   T   T   T
  0.6667129484492236  0.4827404655721850  0.5105018184570156   F   F   F
  0.5763997220267569  0.4263140504383500  0.5448328182496311   F   F   F
  0.6675134903131378  0.3738083191609867  0.5068647358843866   T   T   T
  0.4622617193597484  0.3384097421428088  0.4983062653991370   T   T   T
  0.6484934028780529  0.5775373212088155  0.4602701624361103   F   F   F
  0.5572819906144648  0.4372813691272129  0.7498201996232373   T   T   T
  0.5992940738827170  0.3508882488651126  0.6706283379854638   T   T   T
  0.4926049585644173  0.2996350093143511  0.4083004802562311   T   T   T
  0.6601606997655207  0.6187480316256493  0.6653545741468251   T   T   T
  0.4938487281337707  0.4101816882514310  0.3063396215595712   T   T   T
  0.6221765676531317  0.3172413217640607  0.5753745823982708   T   T   T
  0.5388235792639569  0.6839725120776518  0.4044576573592339   T   T   T
  0.3902236700059500  0.4157967516076935  0.5261984850310850   T   T   T
  0.6315552482258140  0.5519685442061175  0.2835450067932198   T   T   T
  0.4719747489614956  0.4749030613206643  0.6921824067033513   T   T   T
  0.5683115009887700  0.5094300495444983  0.4784716241115703   F   F   F
  0.4203210565129183  0.5084107200613417  0.5018573595042781   F   F   F
  0.4526395198919999  0.4011562478513689  0.4059609562467320   T   T   T
  0.5649279168312306  0.3485312359483766  0.3539623135863932   T   T   T
  0.4117876781223299  0.5404791588379075  0.6104067268536786   T   T   T
  0.6010388624367449  0.4418518860496793  0.3056896820059026   T   T   T
  0.4556352430085366  0.5999759783977177  0.3615541742537614   T   T   T
  0.4197690813736802  0.4871884014158480  0.3384397714535868   T   T   T
  0.6613918635522129  0.4277730732598762  0.6045638810243161   T   T   T
  0.6746555108233157  0.5776553801716194  0.5630938347228979   T   T   T
  0.5270866930872867  0.5097449546636800  0.3277081805306926   T   T   T
  0.5651092065825252  0.3569149076872958  0.4694295719708634   T   T   T
  0.3170052408501998  0.5419219129725945  0.4910770412763288   T   T   T
  0.6594023773726579  0.4288191754009583  0.4163226698009340   T   T   T
  0.5660841929594156  0.6261437171197244  0.5094829013827464   F   F   F
  0.5962080371352855  0.5285832341493409  0.6896073913174935   T   T   T
  0.4704543316528141  0.6421974310023142  0.5880519227004672   T   T   T
  0.4629882238489477  0.6038602157402908  0.4644771951354725   T   T   T
  0.7188165252886687  0.5733449401693675  0.3859800564790749   T   T   T
  0.5499310510395361  0.5822218838566187  0.4076968008106903   F   F   F
  0.4794126430662260  0.5072205383607624  0.4190535757241776   F   F   F
  0.6971003409777494  0.4805156371492446  0.3275215591696271   T   T   T
  0.7509001996712676  0.4268426710043552  0.4905989091063946   T   T   T
  0.7562201739057093  0.5401403625559398  0.4892598580513258   T   T   T
  0.7488340090251560  0.4883413137974293  0.5727897010268764   T   T   T
  0.6467963922675707  0.4358201793324886  0.7084076357634298   T   T   T
  0.5772912500378786  0.7436865260216117  0.4931095048566741   T   T   T
  0.6192554540844384  0.5183157687966542  0.3801816896793397   F   F   F
  0.5057473425705947  0.5620886207351390  0.6504256615575821   T   T   T
  0.4922009500451665  0.4366758245867572  0.4933013002826740   F   F   F
  0.5608844484509063  0.4404139570509003  0.6454865549417619   F   F   F
  0.5776878532200521  0.6165978605372872  0.6131484270579173   T   T   T
  0.5472267192656607  0.6174160465377734  0.3133688395930943   T   T   T
  0.6304662293080557  0.6246551520586895  0.3615253156532235   T   T   T
  0.3782374560768439  0.5563200389588401  0.4114921495438797   T   T   T
  0.4723078164089713  0.4557257050327763  0.5877273803360978   F   F   F
  0.7272142214543212  0.6345389231155807  0.4845324677254376   T   T   T
  0.4996585419968086  0.3719940842533456  0.6831143146828642   T   T   T
  0.3829957321706976  0.4403623207255689  0.6394076710733609   T   T   T
  0.5544592502646992  0.4379899399457940  0.4037542370104745   F   F   F
  0.4333073427844890  0.3612304675676901  0.6073507588507049   T   T   T
  0.5275690506975836  0.3490938369911630  0.5784008724586792   T   T   T
  0.8334966529966060  0.5497970205093050  0.4869786808155847   T   T   T
  0.8570652483364071  0.5485458696949691  0.4519292197131848   T   T   T
  0.8522653206776688  0.5609006176609855  0.5294463128937528   T   T   T
  0.8853131447980155  0.5667321838960582  0.5242888308260816   T   T   T
 
  0.00000000E+00  0.00000000E+00  0.00000000E+00
  0.00000000E+00  0.00000000E+00  0.00000000E+00
  0.00000000E+00  0.00000000E+00  0.00000000E+00
  0.00000000E+00  0.00000000E+00  0.00000000E+00
  0.00000000E+00  0.00000000E+00  0.00000000E+00
  0.00000000E+00  0.00000000E+00  0.00000000E+00
  0.00000000E+00  0.00000000E+00  0.00000000E+00
  0.00000000E+00  0.00000000E+00  0.00000000E+00
  0.00000000E+00  0.00000000E+00  0.00000000E+00
  0.00000000E+00  0.00000000E+00  0.00000000E+00
  0.00000000E+00  0.00000000E+00  0.00000000E+00
  0.00000000E+00  0.00000000E+00  0.00000000E+00
  0.00000000E+00  0.00000000E+00  0.00000000E+00
  0.00000000E+00  0.00000000E+00  0.00000000E+00
  0.00000000E+00  0.00000000E+00  0.00000000E+00
  0.00000000E+00  0.00000000E+00  0.00000000E+00
  0.00000000E+00  0.00000000E+00  0.00000000E+00
  0.00000000E+00  0.00000000E+00  0.00000000E+00
  0.00000000E+00  0.00000000E+00  0.00000000E+00
  0.00000000E+00  0.00000000E+00  0.00000000E+00
  0.00000000E+00  0.00000000E+00  0.00000000E+00
  0.00000000E+00  0.00000000E+00  0.00000000E+00
  0.00000000E+00  0.00000000E+00  0.00000000E+00
  0.00000000E+00  0.00000000E+00  0.00000000E+00
  0.00000000E+00  0.00000000E+00  0.00000000E+00
  0.00000000E+00  0.00000000E+00  0.00000000E+00
  0.00000000E+00  0.00000000E+00  0.00000000E+00
  0.00000000E+00  0.00000000E+00  0.00000000E+00
  0.00000000E+00  0.00000000E+00  0.00000000E+00
  0.00000000E+00  0.00000000E+00  0.00000000E+00
  0.00000000E+00  0.00000000E+00  0.00000000E+00
  0.00000000E+00  0.00000000E+00  0.00000000E+00
  0.00000000E+00  0.00000000E+00  0.00000000E+00
  0.00000000E+00  0.00000000E+00  0.00000000E+00
  0.00000000E+00  0.00000000E+00  0.00000000E+00
  0.00000000E+00  0.00000000E+00  0.00000000E+00
  0.00000000E+00  0.00000000E+00  0.00000000E+00
  0.00000000E+00  0.00000000E+00  0.00000000E+00
  0.00000000E+00  0.00000000E+00  0.00000000E+00
  0.00000000E+00  0.00000000E+00  0.00000000E+00
  0.00000000E+00  0.00000000E+00  0.00000000E+00
  0.00000000E+00  0.00000000E+00  0.00000000E+00
  0.00000000E+00  0.00000000E+00  0.00000000E+00
  0.00000000E+00  0.00000000E+00  0.00000000E+00
  0.00000000E+00  0.00000000E+00  0.00000000E+00
  0.00000000E+00  0.00000000E+00  0.00000000E+00
  0.00000000E+00  0.00000000E+00  0.00000000E+00
  0.00000000E+00  0.00000000E+00  0.00000000E+00
  0.00000000E+00  0.00000000E+00  0.00000000E+00
  0.00000000E+00  0.00000000E+00  0.00000000E+00
  0.00000000E+00  0.00000000E+00  0.00000000E+00
  0.00000000E+00  0.00000000E+00  0.00000000E+00
  0.00000000E+00  0.00000000E+00  0.00000000E+00
  0.00000000E+00  0.00000000E+00  0.00000000E+00
  0.00000000E+00  0.00000000E+00  0.00000000E+00
  0.00000000E+00  0.00000000E+00  0.00000000E+00
  0.00000000E+00  0.00000000E+00  0.00000000E+00
  0.00000000E+00  0.00000000E+00  0.00000000E+00
  0.00000000E+00  0.00000000E+00  0.00000000E+00
  0.00000000E+00  0.00000000E+00  0.00000000E+00
  0.00000000E+00  0.00000000E+00  0.00000000E+00
  0.00000000E+00  0.00000000E+00  0.00000000E+00
  0.00000000E+00  0.00000000E+00  0.00000000E+00
  0.00000000E+00  0.00000000E+00  0.00000000E+00
  0.00000000E+00  0.00000000E+00  0.00000000E+00
  0.00000000E+00  0.00000000E+00  0.00000000E+00
  0.00000000E+00  0.00000000E+00  0.00000000E+00
  0.00000000E+00  0.00000000E+00  0.00000000E+00
  0.00000000E+00  0.00000000E+00  0.00000000E+00
  0.00000000E+00  0.00000000E+00  0.00000000E+00
  0.00000000E+00  0.00000000E+00  0.00000000E+00
  0.00000000E+00  0.00000000E+00  0.00000000E+00
