Bi La Sn C  O  H                        
   1.00000000000000     
    29.0000000000000000    0.0000000000000000    0.0000000000000000
     0.2488180851000000   28.9989325590000000    0.0000000000000000
    -0.0631677343000000   -0.4515975666000000   28.9964147692999994
   Bi   La   Sn   C    O    H 
    22    23    23     1     2     1
Selective dynamics
Direct
  0.7608347799624174  0.4765835409072103  0.4018569413000854   T   T   T
  0.6464490919713560  0.6857674655770319  0.5500221421607278   T   T   T
  0.3602594167773289  0.4590257457442528  0.4274001380505960   T   T   T
  0.5506205213733524  0.7138734235178675  0.5842773423935627   T   T   T
  0.5915029568994470  0.5209714444905416  0.5841479689498996   F   F   F
  0.6384319141610582  0.6804807698191608  0.4433802566413903   T   T   T
  0.6957822329245215  0.5227487234274523  0.6538535170186777   T   T   T
  0.4866359505444383  0.7018006311322078  0.5012101537399412   T   T   T
  0.5004839460855024  0.5502791173970252  0.5477141156400123   F   F   F
  0.3257298850988851  0.4874888821016610  0.5727827431455411   T   T   T
  0.3824423866214786  0.6104174438944326  0.5371032103291674   T   T   T
  0.6667129484492236  0.4827404655721850  0.5105018184570156   F   F   F
  0.5763997220267569  0.4263140504383500  0.5448328182496311   F   F   F
  0.6686752793320206  0.3738411409657193  0.5061708549086846   T   T   T
  0.4629444786373503  0.3380349837611771  0.4990561272312604   T   T   T
  0.6484934028780529  0.5775373212088155  0.4602701624361103   F   F   F
  0.5573713228018036  0.4362850772042827  0.7495843381005161   T   T   T
  0.6027248763555377  0.3511968334701280  0.6695855295472499   T   T   T
  0.4932502250689674  0.2995529613616858  0.4090543396518740   T   T   T
  0.6600214890957066  0.6184483414393769  0.6664873151241970   T   T   T
  0.4970992350055224  0.4068039435347551  0.3084222691645917   T   T   T
  0.6233598941201419  0.3168903650862283  0.5741374350741547   T   T   T
  0.5339987066856213  0.6839588158804606  0.4024994024297782   T   T   T
  0.3908013880581350  0.4151780130574401  0.5268609941315807   T   T   T
  0.6320571856005308  0.5502055112813066  0.2828667644264438   T   T   T
  0.4708453002504301  0.4712458748294844  0.6913956354386426   T   T   T
  0.5683115009887700  0.5094300495444983  0.4784716241115703   F   F   F
  0.4203210565129183  0.5084107200613417  0.5018573595042781   F   F   F
  0.4526600464468548  0.4003669295028486  0.4066997134790343   T   T   T
  0.5687805074761224  0.3467424501365067  0.3575213934922088   T   T   T
  0.4113759006461668  0.5400864338969564  0.6106900931989825   T   T   T
  0.6029821326611480  0.4389482768836159  0.3069456061974836   T   T   T
  0.4559127028655782  0.6006351660430771  0.3533760022053679   T   T   T
  0.4211737987163031  0.4820423923226683  0.3388784502305435   T   T   T
  0.6609798827280667  0.4284485169294778  0.6042837889900337   T   T   T
  0.6730012231156637  0.5797798017080181  0.5638378233556279   T   T   T
  0.5265975585364897  0.5082001745118121  0.3271114756265625   T   T   T
  0.5659976633382681  0.3572637507985340  0.4696985780579664   T   T   T
  0.3180146143800844  0.5434402488193509  0.4888702918141168   T   T   T
  0.6601214545151577  0.4295395892421680  0.4157523060681392   T   T   T
  0.5660841929594156  0.6261437171197244  0.5094829013827464   F   F   F
  0.5959363584864555  0.5285477620590060  0.6900347432027111   T   T   T
  0.4708361170816266  0.6415577957986995  0.5893135348382018   T   T   T
  0.4619671213393223  0.6045173765001532  0.4649220775766245   T   T   T
  0.7180967192654554  0.5723441701824290  0.3845085678388543   T   T   T
  0.5499310510395361  0.5822218838566187  0.4076968008106903   F   F   F
  0.4794126430662260  0.5072205383607624  0.4190535757241776   F   F   F
  0.6979093260591159  0.4799012498600376  0.3259860996693901   T   T   T
  0.7521339428358342  0.4281395657204776  0.4901446595525452   T   T   T
  0.7487646109057756  0.5389486126680161  0.4867229276216586   T   T   T
  0.7486621098124699  0.4906775557344287  0.5729242739553710   T   T   T
  0.6474626820849392  0.4365819342725802  0.7087469234754286   T   T   T
  0.5765264121223578  0.7432999450276725  0.4917036895444886   T   T   T
  0.6192554540844384  0.5183157687966542  0.3801816896793397   F   F   F
  0.5055660772247138  0.5594910666029245  0.6501690644420181   T   T   T
  0.4922009500451665  0.4366758245867572  0.4933013002826740   F   F   F
  0.5608844484509063  0.4404139570509003  0.6454865549417619   F   F   F
  0.5772909726892105  0.6167021046128176  0.6138296099736640   T   T   T
  0.5499542607016511  0.6160153809533281  0.3120760957399920   T   T   T
  0.6310610256127989  0.6244863493159849  0.3602007502703610   T   T   T
  0.3811361071633899  0.5557279604025839  0.4097191107156478   T   T   T
  0.4723078164089713  0.4557257050327763  0.5877273803360978   F   F   F
  0.7260427578263235  0.6363247645857424  0.4835130391528712   T   T   T
  0.5031719644285755  0.3687217875642571  0.6851502132673311   T   T   T
  0.3803686448464331  0.4409460306335451  0.6385778766337499   T   T   T
  0.5544592502646992  0.4379899399457940  0.4037542370104745   F   F   F
  0.4354153847376641  0.3637697939718730  0.6102859390517270   T   T   T
  0.5287183845779446  0.3483607696280976  0.5788107835317657   T   T   T
  0.4381899305425098  0.6672439749908590  0.4075671769012657   T   T   T
  0.4559033618802132  0.6881147658684467  0.3711477856981613   T   T   T
  0.4008894492834010  0.6901246965440792  0.4275127121692034   T   T   T
  0.3990128250353163  0.7209981382029781  0.4141249210705336   T   T   T
 
  0.00000000E+00  0.00000000E+00  0.00000000E+00
  0.00000000E+00  0.00000000E+00  0.00000000E+00
  0.00000000E+00  0.00000000E+00  0.00000000E+00
  0.00000000E+00  0.00000000E+00  0.00000000E+00
  0.00000000E+00  0.00000000E+00  0.00000000E+00
  0.00000000E+00  0.00000000E+00  0.00000000E+00
  0.00000000E+00  0.00000000E+00  0.00000000E+00
  0.00000000E+00  0.00000000E+00  0.00000000E+00
  0.00000000E+00  0.00000000E+00  0.00000000E+00
  0.00000000E+00  0.00000000E+00  0.00000000E+00
  0.00000000E+00  0.00000000E+00  0.00000000E+00
  0.00000000E+00  0.00000000E+00  0.00000000E+00
  0.00000000E+00  0.00000000E+00  0.00000000E+00
  0.00000000E+00  0.00000000E+00  0.00000000E+00
  0.00000000E+00  0.00000000E+00  0.00000000E+00
  0.00000000E+00  0.00000000E+00  0.00000000E+00
  0.00000000E+00  0.00000000E+00  0.00000000E+00
  0.00000000E+00  0.00000000E+00  0.00000000E+00
  0.00000000E+00  0.00000000E+00  0.00000000E+00
  0.00000000E+00  0.00000000E+00  0.00000000E+00
  0.00000000E+00  0.00000000E+00  0.00000000E+00
  0.00000000E+00  0.00000000E+00  0.00000000E+00
  0.00000000E+00  0.00000000E+00  0.00000000E+00
  0.00000000E+00  0.00000000E+00  0.00000000E+00
  0.00000000E+00  0.00000000E+00  0.00000000E+00
  0.00000000E+00  0.00000000E+00  0.00000000E+00
  0.00000000E+00  0.00000000E+00  0.00000000E+00
  0.00000000E+00  0.00000000E+00  0.00000000E+00
  0.00000000E+00  0.00000000E+00  0.00000000E+00
  0.00000000E+00  0.00000000E+00  0.00000000E+00
  0.00000000E+00  0.00000000E+00  0.00000000E+00
  0.00000000E+00  0.00000000E+00  0.00000000E+00
  0.00000000E+00  0.00000000E+00  0.00000000E+00
  0.00000000E+00  0.00000000E+00  0.00000000E+00
  0.00000000E+00  0.00000000E+00  0.00000000E+00
  0.00000000E+00  0.00000000E+00  0.00000000E+00
  0.00000000E+00  0.00000000E+00  0.00000000E+00
  0.00000000E+00  0.00000000E+00  0.00000000E+00
  0.00000000E+00  0.00000000E+00  0.00000000E+00
  0.00000000E+00  0.00000000E+00  0.00000000E+00
  0.00000000E+00  0.00000000E+00  0.00000000E+00
  0.00000000E+00  0.00000000E+00  0.00000000E+00
  0.00000000E+00  0.00000000E+00  0.00000000E+00
  0.00000000E+00  0.00000000E+00  0.00000000E+00
  0.00000000E+00  0.00000000E+00  0.00000000E+00
  0.00000000E+00  0.00000000E+00  0.00000000E+00
  0.00000000E+00  0.00000000E+00  0.00000000E+00
  0.00000000E+00  0.00000000E+00  0.00000000E+00
  0.00000000E+00  0.00000000E+00  0.00000000E+00
  0.00000000E+00  0.00000000E+00  0.00000000E+00
  0.00000000E+00  0.00000000E+00  0.00000000E+00
  0.00000000E+00  0.00000000E+00  0.00000000E+00
  0.00000000E+00  0.00000000E+00  0.00000000E+00
  0.00000000E+00  0.00000000E+00  0.00000000E+00
  0.00000000E+00  0.00000000E+00  0.00000000E+00
  0.00000000E+00  0.00000000E+00  0.00000000E+00
  0.00000000E+00  0.00000000E+00  0.00000000E+00
  0.00000000E+00  0.00000000E+00  0.00000000E+00
  0.00000000E+00  0.00000000E+00  0.00000000E+00
  0.00000000E+00  0.00000000E+00  0.00000000E+00
  0.00000000E+00  0.00000000E+00  0.00000000E+00
  0.00000000E+00  0.00000000E+00  0.00000000E+00
  0.00000000E+00  0.00000000E+00  0.00000000E+00
  0.00000000E+00  0.00000000E+00  0.00000000E+00
  0.00000000E+00  0.00000000E+00  0.00000000E+00
  0.00000000E+00  0.00000000E+00  0.00000000E+00
  0.00000000E+00  0.00000000E+00  0.00000000E+00
  0.00000000E+00  0.00000000E+00  0.00000000E+00
  0.00000000E+00  0.00000000E+00  0.00000000E+00
  0.00000000E+00  0.00000000E+00  0.00000000E+00
  0.00000000E+00  0.00000000E+00  0.00000000E+00
  0.00000000E+00  0.00000000E+00  0.00000000E+00
