Bi La Sn C  O  H                        
   1.00000000000000     
    29.0000000000000000    0.0000000000000000    0.0000000000000000
     0.2488180851000000   28.9989325590000000    0.0000000000000000
    -0.0631677343000000   -0.4515975666000000   28.9964147692999994
   Bi   La   Sn   C    O    H 
    22    23    23     1     2     1
Selective dynamics
Direct
  0.7597941591098132  0.4788418722908734  0.3997441068670442   T   T   T
  0.6466283884715436  0.6844997798935311  0.5518339809319225   T   T   T
  0.3601518617215336  0.4583688910841761  0.4280127065508526   T   T   T
  0.5500866014101309  0.7131938071178859  0.5850632921401491   T   T   T
  0.5915029568994470  0.5209714444905416  0.5841479689498996   F   F   F
  0.6403083515647745  0.6799472458042171  0.4450243927037474   T   T   T
  0.6955500386735006  0.5225889991981623  0.6541460919984518   T   T   T
  0.4865977846366478  0.7015079780075043  0.5000354447114300   T   T   T
  0.5004839460855024  0.5502791173970252  0.5477141156400123   F   F   F
  0.3251873988109192  0.4861664597905293  0.5749725270171023   T   T   T
  0.3819152294074726  0.6101718200294902  0.5353160729007655   T   T   T
  0.6667129484492236  0.4827404655721850  0.5105018184570156   F   F   F
  0.5763997220267569  0.4263140504383500  0.5448328182496311   F   F   F
  0.6684659877008824  0.3746628324281888  0.5071435180832660   T   T   T
  0.4630685825973707  0.3383695821288510  0.4994097611817138   T   T   T
  0.6484934028780529  0.5775373212088155  0.4602701624361103   F   F   F
  0.5572330391885895  0.4374952554244488  0.7500389894274381   T   T   T
  0.6024816771103088  0.3510986732221708  0.6697030321834779   T   T   T
  0.4924838392823184  0.2990773006882436  0.4093485502197325   T   T   T
  0.6596160206493444  0.6186070699260648  0.6665005984452438   T   T   T
  0.4929042094320460  0.4101432278275542  0.3072937071535614   T   T   T
  0.6232791090651562  0.3165654251952902  0.5744161272531078   T   T   T
  0.5390020755154057  0.6837787107164549  0.4051287351389699   T   T   T
  0.3903804450362447  0.4154633668688923  0.5268745206312674   T   T   T
  0.6290700560123509  0.5538163107235189  0.2788348018250204   T   T   T
  0.4714416156114403  0.4721579812258265  0.6919669660680232   T   T   T
  0.5683115009887700  0.5094300495444983  0.4784716241115703   F   F   F
  0.4203210565129183  0.5084107200613417  0.5018573595042781   F   F   F
  0.4522610469576288  0.4006447887371473  0.4066434508302230   T   T   T
  0.5643009805810794  0.3488421617268321  0.3547758613721725   T   T   T
  0.4109567730325809  0.5399202470744530  0.6098492282502520   T   T   T
  0.6007371776687530  0.4400238459029092  0.3058462695663209   T   T   T
  0.4551850901507129  0.5999666689792429  0.3630341579278558   T   T   T
  0.4187482825030494  0.4870571978291662  0.3392529436567097   T   T   T
  0.6611969871604853  0.4281193348802955  0.6047475685720486   T   T   T
  0.6731736426900173  0.5788089353348777  0.5641966385020546   T   T   T
  0.5263426044198357  0.5097179778116796  0.3279243024294443   T   T   T
  0.5657605104610598  0.3572658818291434  0.4691938347668659   T   T   T
  0.3157206574886580  0.5414091478758289  0.4911107388072059   T   T   T
  0.6605045777728925  0.4295658204266842  0.4153593873863531   T   T   T
  0.5660841929594156  0.6261437171197244  0.5094829013827464   F   F   F
  0.5955467524958780  0.5286701692461494  0.6897922930188549   T   T   T
  0.4696326586665789  0.6416963759880800  0.5883016690382635   T   T   T
  0.4632534367403698  0.6034579485357778  0.4643240559896649   T   T   T
  0.7173984977269908  0.5748653927553147  0.3843655862230426   T   T   T
  0.5499310510395361  0.5822218838566187  0.4076968008106903   F   F   F
  0.4794126430662260  0.5072205383607624  0.4190535757241776   F   F   F
  0.6955290061157882  0.4824620695262038  0.3255167108925707   T   T   T
  0.7518961107524708  0.4293511516466295  0.4881203125855984   T   T   T
  0.7483506903131927  0.5387131982780604  0.4860912598604200   T   T   T
  0.7485822769046795  0.4903958261668481  0.5725523369734679   T   T   T
  0.6470966973481017  0.4363683462675399  0.7091058348356386   T   T   T
  0.5776764397396066  0.7428671662948803  0.4938144191063572   T   T   T
  0.6192554540844384  0.5183157687966542  0.3801816896793397   F   F   F
  0.5050401179464252  0.5603282907166444  0.6500144105712943   T   T   T
  0.4922009500451665  0.4366758245867572  0.4933013002826740   F   F   F
  0.5608844484509063  0.4404139570509003  0.6454865549417619   F   F   F
  0.5770822679922690  0.6163618660044535  0.6135091065783320   T   T   T
  0.5443316156198065  0.6184129529883481  0.3129601261633900   T   T   T
  0.6277222934493202  0.6247337210294462  0.3604910940196680   T   T   T
  0.3772021075287434  0.5564555401188412  0.4123416095755632   T   T   T
  0.4723078164089713  0.4557257050327763  0.5877273803360978   F   F   F
  0.7270725820085246  0.6355429264847242  0.4853796155829476   T   T   T
  0.5027707696140148  0.3696496590127279  0.6838108683734367   T   T   T
  0.3815799579247413  0.4404940016487181  0.6398509982830397   T   T   T
  0.5544592502646992  0.4379899399457940  0.4037542370104745   F   F   F
  0.4346922606564203  0.3629446735074640  0.6090677342677904   T   T   T
  0.5289173672837403  0.3486286599419540  0.5791445288453965   T   T   T
  0.6294673250161337  0.5805436282037525  0.1966278599173701   T   T   T
  0.6689313273598880  0.5625497016081457  0.2047516490476577   T   T   T
  0.6233369355372845  0.5994986068409697  0.1547790359920032   T   T   T
  0.6525534546638442  0.5955716308156024  0.1374256565786706   T   T   T
 
  0.00000000E+00  0.00000000E+00  0.00000000E+00
  0.00000000E+00  0.00000000E+00  0.00000000E+00
  0.00000000E+00  0.00000000E+00  0.00000000E+00
  0.00000000E+00  0.00000000E+00  0.00000000E+00
  0.00000000E+00  0.00000000E+00  0.00000000E+00
  0.00000000E+00  0.00000000E+00  0.00000000E+00
  0.00000000E+00  0.00000000E+00  0.00000000E+00
  0.00000000E+00  0.00000000E+00  0.00000000E+00
  0.00000000E+00  0.00000000E+00  0.00000000E+00
  0.00000000E+00  0.00000000E+00  0.00000000E+00
  0.00000000E+00  0.00000000E+00  0.00000000E+00
  0.00000000E+00  0.00000000E+00  0.00000000E+00
  0.00000000E+00  0.00000000E+00  0.00000000E+00
  0.00000000E+00  0.00000000E+00  0.00000000E+00
  0.00000000E+00  0.00000000E+00  0.00000000E+00
  0.00000000E+00  0.00000000E+00  0.00000000E+00
  0.00000000E+00  0.00000000E+00  0.00000000E+00
  0.00000000E+00  0.00000000E+00  0.00000000E+00
  0.00000000E+00  0.00000000E+00  0.00000000E+00
  0.00000000E+00  0.00000000E+00  0.00000000E+00
  0.00000000E+00  0.00000000E+00  0.00000000E+00
  0.00000000E+00  0.00000000E+00  0.00000000E+00
  0.00000000E+00  0.00000000E+00  0.00000000E+00
  0.00000000E+00  0.00000000E+00  0.00000000E+00
  0.00000000E+00  0.00000000E+00  0.00000000E+00
  0.00000000E+00  0.00000000E+00  0.00000000E+00
  0.00000000E+00  0.00000000E+00  0.00000000E+00
  0.00000000E+00  0.00000000E+00  0.00000000E+00
  0.00000000E+00  0.00000000E+00  0.00000000E+00
  0.00000000E+00  0.00000000E+00  0.00000000E+00
  0.00000000E+00  0.00000000E+00  0.00000000E+00
  0.00000000E+00  0.00000000E+00  0.00000000E+00
  0.00000000E+00  0.00000000E+00  0.00000000E+00
  0.00000000E+00  0.00000000E+00  0.00000000E+00
  0.00000000E+00  0.00000000E+00  0.00000000E+00
  0.00000000E+00  0.00000000E+00  0.00000000E+00
  0.00000000E+00  0.00000000E+00  0.00000000E+00
  0.00000000E+00  0.00000000E+00  0.00000000E+00
  0.00000000E+00  0.00000000E+00  0.00000000E+00
  0.00000000E+00  0.00000000E+00  0.00000000E+00
  0.00000000E+00  0.00000000E+00  0.00000000E+00
  0.00000000E+00  0.00000000E+00  0.00000000E+00
  0.00000000E+00  0.00000000E+00  0.00000000E+00
  0.00000000E+00  0.00000000E+00  0.00000000E+00
  0.00000000E+00  0.00000000E+00  0.00000000E+00
  0.00000000E+00  0.00000000E+00  0.00000000E+00
  0.00000000E+00  0.00000000E+00  0.00000000E+00
  0.00000000E+00  0.00000000E+00  0.00000000E+00
  0.00000000E+00  0.00000000E+00  0.00000000E+00
  0.00000000E+00  0.00000000E+00  0.00000000E+00
  0.00000000E+00  0.00000000E+00  0.00000000E+00
  0.00000000E+00  0.00000000E+00  0.00000000E+00
  0.00000000E+00  0.00000000E+00  0.00000000E+00
  0.00000000E+00  0.00000000E+00  0.00000000E+00
  0.00000000E+00  0.00000000E+00  0.00000000E+00
  0.00000000E+00  0.00000000E+00  0.00000000E+00
  0.00000000E+00  0.00000000E+00  0.00000000E+00
  0.00000000E+00  0.00000000E+00  0.00000000E+00
  0.00000000E+00  0.00000000E+00  0.00000000E+00
  0.00000000E+00  0.00000000E+00  0.00000000E+00
  0.00000000E+00  0.00000000E+00  0.00000000E+00
  0.00000000E+00  0.00000000E+00  0.00000000E+00
  0.00000000E+00  0.00000000E+00  0.00000000E+00
  0.00000000E+00  0.00000000E+00  0.00000000E+00
  0.00000000E+00  0.00000000E+00  0.00000000E+00
  0.00000000E+00  0.00000000E+00  0.00000000E+00
  0.00000000E+00  0.00000000E+00  0.00000000E+00
  0.00000000E+00  0.00000000E+00  0.00000000E+00
  0.00000000E+00  0.00000000E+00  0.00000000E+00
  0.00000000E+00  0.00000000E+00  0.00000000E+00
  0.00000000E+00  0.00000000E+00  0.00000000E+00
  0.00000000E+00  0.00000000E+00  0.00000000E+00
