Bi La Sn C  O  H                        
   1.00000000000000     
    29.0000000000000000    0.0000000000000000    0.0000000000000000
     0.2488180851000000   28.9989325590000000    0.0000000000000000
    -0.0631677343000000   -0.4515975666000000   28.9964147692999994
   Bi   La   Sn   C    O    H 
    22    23    23     1     2     1
Selective dynamics
Direct
  0.7583638119344713  0.4785451059370985  0.4005291628118147   T   T   T
  0.6489844664460210  0.6847113316448471  0.5487408166875852   T   T   T
  0.3601529044401447  0.4580911647646653  0.4269012341278700   T   T   T
  0.5508950572164004  0.7138042610848236  0.5832363575012788   T   T   T
  0.5915029568994470  0.5209714444905416  0.5841479689498996   F   F   F
  0.6402182526427040  0.6789034039545245  0.4432835222543863   T   T   T
  0.6963237228361038  0.5187067575426917  0.6521731419717864   T   T   T
  0.4872771238410481  0.7019452249684872  0.4981822783770345   T   T   T
  0.5004839460855024  0.5502791173970252  0.5477141156400123   F   F   F
  0.3317357978584532  0.4967128799346510  0.5804902865560002   T   T   T
  0.3805000893386652  0.6034459447487002  0.5412069863094503   T   T   T
  0.6667129484492236  0.4827404655721850  0.5105018184570156   F   F   F
  0.5763997220267569  0.4263140504383500  0.5448328182496311   F   F   F
  0.6675262557186401  0.3723077285745883  0.5044771863244399   T   T   T
  0.4592715811285437  0.3389913008707683  0.4949249090895480   T   T   T
  0.6484934028780529  0.5775373212088155  0.4602701624361103   F   F   F
  0.5547383624842850  0.4359666256779121  0.7499342368887038   T   T   T
  0.5887115485848282  0.3480812180527467  0.6674104379668212   T   T   T
  0.4913389724727741  0.3003755323361377  0.4060269769765308   T   T   T
  0.6624942225508447  0.6150377219641331  0.6679598328730049   T   T   T
  0.4918707727833298  0.4100948966258171  0.3041698063384587   T   T   T
  0.6201944982507819  0.3171824358199888  0.5732640594826744   T   T   T
  0.5390840993659821  0.6834285734672352  0.4033363587856751   T   T   T
  0.3873685256894080  0.4160023883276644  0.5276022698843392   T   T   T
  0.6281365779899447  0.5513444837213024  0.2820668773102293   T   T   T
  0.4747376662258106  0.4841445972482408  0.6922870021996587   T   T   T
  0.5683115009887700  0.5094300495444983  0.4784716241115703   F   F   F
  0.4203210565129183  0.5084107200613417  0.5018573595042781   F   F   F
  0.4525270606556682  0.4022509627528932  0.4044045608719800   T   T   T
  0.5636343956779959  0.3496230054748511  0.3528380086802563   T   T   T
  0.4197565917671283  0.5404577294397688  0.6182989273234600   T   T   T
  0.5992861172923014  0.4412629476476608  0.3045799316015297   T   T   T
  0.4552621566259727  0.6000217987931789  0.3638646530391719   T   T   T
  0.4192676343472970  0.4876171833459457  0.3388373845986459   T   T   T
  0.6604347265045978  0.4250446692631993  0.6036507100601387   T   T   T
  0.6746306928104043  0.5784841673415356  0.5638181844035023   T   T   T
  0.5262083670534001  0.5089782301263811  0.3279874031746322   T   T   T
  0.5640345914949598  0.3564346104960454  0.4696208575124887   T   T   T
  0.3125700254986976  0.5394684134552081  0.4878908554658210   T   T   T
  0.6594373137913180  0.4293680698139364  0.4151731818914384   T   T   T
  0.5660841929594156  0.6261437171197244  0.5094829013827464   F   F   F
  0.5983322909790796  0.5257999090757897  0.6900685986472729   T   T   T
  0.4704360654827671  0.6423888465928854  0.5871013001125687   T   T   T
  0.4615245746610747  0.6037070043627890  0.4650603275292087   T   T   T
  0.7159646084603478  0.5737577294487062  0.3833163452664584   T   T   T
  0.5499310510395361  0.5822218838566187  0.4076968008106903   F   F   F
  0.4794126430662260  0.5072205383607624  0.4190535757241776   F   F   F
  0.6951713203982093  0.4804085487983977  0.3241596490286122   T   T   T
  0.7505600322390887  0.4268743069487203  0.4873736903626086   T   T   T
  0.7484869456932932  0.5387609135772899  0.4863912007188468   T   T   T
  0.7493686421277211  0.4868847975165309  0.5715262748386778   T   T   T
  0.6439278398872113  0.4275842277937166  0.7082056519392587   T   T   T
  0.5786615623459805  0.7430033053593689  0.4921010896561379   T   T   T
  0.6192554540844384  0.5183157687966542  0.3801816896793397   F   F   F
  0.5123445487396314  0.5689233535731961  0.6515737920227008   T   T   T
  0.4922009500451665  0.4366758245867572  0.4933013002826740   F   F   F
  0.5608844484509063  0.4404139570509003  0.6454865549417619   F   F   F
  0.5824760969755469  0.6192719581527145  0.6120259175229503   T   T   T
  0.5432008151256370  0.6166497289453201  0.3114140713732961   T   T   T
  0.6263224080070082  0.6242743010319441  0.3590893691656428   T   T   T
  0.3770646847494351  0.5563714362205748  0.4124702973325099   T   T   T
  0.4723078164089713  0.4557257050327763  0.5877273803360978   F   F   F
  0.7275911262543118  0.6355713598036192  0.4840122460775576   T   T   T
  0.4897278253622375  0.3807331192861005  0.6786370693599193   T   T   T
  0.3885025942539275  0.4380822547967948  0.6423029875048044   T   T   T
  0.5544592502646992  0.4379899399457940  0.4037542370104745   F   F   F
  0.4306123720622497  0.3559383196353122  0.6024866641037030   T   T   T
  0.5247141930292240  0.3493184624666634  0.5750271774604730   T   T   T
  0.2917550878472712  0.4423553295699494  0.5361038448895485   T   T   T
  0.3013939023245119  0.4014330391398075  0.5256740978073295   T   T   T
  0.2617836600260566  0.4661763601119400  0.5055781954900451   T   T   T
  0.2583532158338048  0.4457674604838291  0.4781779200600477   T   T   T
 
  0.00000000E+00  0.00000000E+00  0.00000000E+00
  0.00000000E+00  0.00000000E+00  0.00000000E+00
  0.00000000E+00  0.00000000E+00  0.00000000E+00
  0.00000000E+00  0.00000000E+00  0.00000000E+00
  0.00000000E+00  0.00000000E+00  0.00000000E+00
  0.00000000E+00  0.00000000E+00  0.00000000E+00
  0.00000000E+00  0.00000000E+00  0.00000000E+00
  0.00000000E+00  0.00000000E+00  0.00000000E+00
  0.00000000E+00  0.00000000E+00  0.00000000E+00
  0.00000000E+00  0.00000000E+00  0.00000000E+00
  0.00000000E+00  0.00000000E+00  0.00000000E+00
  0.00000000E+00  0.00000000E+00  0.00000000E+00
  0.00000000E+00  0.00000000E+00  0.00000000E+00
  0.00000000E+00  0.00000000E+00  0.00000000E+00
  0.00000000E+00  0.00000000E+00  0.00000000E+00
  0.00000000E+00  0.00000000E+00  0.00000000E+00
  0.00000000E+00  0.00000000E+00  0.00000000E+00
  0.00000000E+00  0.00000000E+00  0.00000000E+00
  0.00000000E+00  0.00000000E+00  0.00000000E+00
  0.00000000E+00  0.00000000E+00  0.00000000E+00
  0.00000000E+00  0.00000000E+00  0.00000000E+00
  0.00000000E+00  0.00000000E+00  0.00000000E+00
  0.00000000E+00  0.00000000E+00  0.00000000E+00
  0.00000000E+00  0.00000000E+00  0.00000000E+00
  0.00000000E+00  0.00000000E+00  0.00000000E+00
  0.00000000E+00  0.00000000E+00  0.00000000E+00
  0.00000000E+00  0.00000000E+00  0.00000000E+00
  0.00000000E+00  0.00000000E+00  0.00000000E+00
  0.00000000E+00  0.00000000E+00  0.00000000E+00
  0.00000000E+00  0.00000000E+00  0.00000000E+00
  0.00000000E+00  0.00000000E+00  0.00000000E+00
  0.00000000E+00  0.00000000E+00  0.00000000E+00
  0.00000000E+00  0.00000000E+00  0.00000000E+00
  0.00000000E+00  0.00000000E+00  0.00000000E+00
  0.00000000E+00  0.00000000E+00  0.00000000E+00
  0.00000000E+00  0.00000000E+00  0.00000000E+00
  0.00000000E+00  0.00000000E+00  0.00000000E+00
  0.00000000E+00  0.00000000E+00  0.00000000E+00
  0.00000000E+00  0.00000000E+00  0.00000000E+00
  0.00000000E+00  0.00000000E+00  0.00000000E+00
  0.00000000E+00  0.00000000E+00  0.00000000E+00
  0.00000000E+00  0.00000000E+00  0.00000000E+00
  0.00000000E+00  0.00000000E+00  0.00000000E+00
  0.00000000E+00  0.00000000E+00  0.00000000E+00
  0.00000000E+00  0.00000000E+00  0.00000000E+00
  0.00000000E+00  0.00000000E+00  0.00000000E+00
  0.00000000E+00  0.00000000E+00  0.00000000E+00
  0.00000000E+00  0.00000000E+00  0.00000000E+00
  0.00000000E+00  0.00000000E+00  0.00000000E+00
  0.00000000E+00  0.00000000E+00  0.00000000E+00
  0.00000000E+00  0.00000000E+00  0.00000000E+00
  0.00000000E+00  0.00000000E+00  0.00000000E+00
  0.00000000E+00  0.00000000E+00  0.00000000E+00
  0.00000000E+00  0.00000000E+00  0.00000000E+00
  0.00000000E+00  0.00000000E+00  0.00000000E+00
  0.00000000E+00  0.00000000E+00  0.00000000E+00
  0.00000000E+00  0.00000000E+00  0.00000000E+00
  0.00000000E+00  0.00000000E+00  0.00000000E+00
  0.00000000E+00  0.00000000E+00  0.00000000E+00
  0.00000000E+00  0.00000000E+00  0.00000000E+00
  0.00000000E+00  0.00000000E+00  0.00000000E+00
  0.00000000E+00  0.00000000E+00  0.00000000E+00
  0.00000000E+00  0.00000000E+00  0.00000000E+00
  0.00000000E+00  0.00000000E+00  0.00000000E+00
  0.00000000E+00  0.00000000E+00  0.00000000E+00
  0.00000000E+00  0.00000000E+00  0.00000000E+00
  0.00000000E+00  0.00000000E+00  0.00000000E+00
  0.00000000E+00  0.00000000E+00  0.00000000E+00
  0.00000000E+00  0.00000000E+00  0.00000000E+00
  0.00000000E+00  0.00000000E+00  0.00000000E+00
  0.00000000E+00  0.00000000E+00  0.00000000E+00
  0.00000000E+00  0.00000000E+00  0.00000000E+00
