Bi La Sn C  O  H                        
   1.00000000000000     
    29.0000000000000000    0.0000000000000000    0.0000000000000000
     0.2488180851000000   28.9989325590000000    0.0000000000000000
    -0.0631677343000000   -0.4515975666000000   28.9964147692999994
   Bi   La   Sn   C    O    H 
    22    23    23     1     2     1
Selective dynamics
Direct
  0.7606334079723800  0.4758157172726376  0.3993860821609542   T   T   T
  0.6465305924421585  0.6837843169888519  0.5533143804214363   T   T   T
  0.3600247177451989  0.4599235509996531  0.4269665506033462   T   T   T
  0.5507765699781800  0.7131302308983321  0.5854937812672729   T   T   T
  0.5915029568994470  0.5209714444905416  0.5841479689498996   F   F   F
  0.6405448310818713  0.6811782965653537  0.4465728678256281   T   T   T
  0.6963501415210055  0.5230196985183919  0.6542630497809883   T   T   T
  0.4865686937937894  0.7008791510761126  0.5008036603270686   T   T   T
  0.5004839460855024  0.5502791173970252  0.5477141156400123   F   F   F
  0.3247310674887323  0.4871606320606081  0.5734372221163587   T   T   T
  0.3830650924544054  0.6111147286722437  0.5355364638592331   T   T   T
  0.6667129484492236  0.4827404655721850  0.5105018184570156   F   F   F
  0.5763997220267569  0.4263140504383500  0.5448328182496311   F   F   F
  0.6680241409731996  0.3741355848069907  0.5070814187936027   T   T   T
  0.4631267456468030  0.3385774320102307  0.4998033562643803   T   T   T
  0.6484934028780529  0.5775373212088155  0.4602701624361103   F   F   F
  0.5585788239936245  0.4368109602326433  0.7491996809947230   T   T   T
  0.6046945032523263  0.3523794704408055  0.6695835802571819   T   T   T
  0.4919997436649960  0.2993753287259477  0.4095584663588659   T   T   T
  0.6601055792697216  0.6189733090837800  0.6657387530858214   T   T   T
  0.4943630088512324  0.4104598996649393  0.3094175086587397   T   T   T
  0.6213593981243317  0.3162785678033821  0.5732842384265874   T   T   T
  0.5379795420009085  0.6856621770663451  0.4035387818748705   T   T   T
  0.3902699215829853  0.4158847632606616  0.5267323869178456   T   T   T
  0.6309440938419084  0.5522024655890228  0.2836452901501088   T   T   T
  0.4709908208974815  0.4700739011997350  0.6917842160523785   T   T   T
  0.5683115009887700  0.5094300495444983  0.4784716241115703   F   F   F
  0.4203210565129183  0.5084107200613417  0.5018573595042781   F   F   F
  0.4518084079091245  0.4008685137311268  0.4075063406832058   T   T   T
  0.5654015854061807  0.3473835391864734  0.3555508299585013   T   T   T
  0.4106998328322782  0.5401664942582740  0.6097275069641607   T   T   T
  0.5999457993334081  0.4417534522077310  0.3050592590753390   T   T   T
  0.4554962170168593  0.6055183349830143  0.3623549709003645   T   T   T
  0.4202776918142938  0.4880779654472245  0.3384348451887352   T   T   T
  0.6611478193510714  0.4288017069921720  0.6046565769854924   T   T   T
  0.6737555282796944  0.5783221055879570  0.5638573383131131   T   T   T
  0.5266781962035357  0.5110134248952539  0.3276059310520654   T   T   T
  0.5655859473907301  0.3575225570408192  0.4688901904332965   T   T   T
  0.3169888696264223  0.5435195521852130  0.4901744223904311   T   T   T
  0.6601571043821290  0.4289623172784290  0.4156173504692468   T   T   T
  0.5660841929594156  0.6261437171197244  0.5094829013827464   F   F   F
  0.5959287194219172  0.5289997092250562  0.6896184309823991   T   T   T
  0.4705503693759932  0.6413718941470445  0.5892759320438219   T   T   T
  0.4633532763493968  0.6031826369088431  0.4640846607002709   T   T   T
  0.7173406187084987  0.5719678455563306  0.3837662086695220   T   T   T
  0.5499310510395361  0.5822218838566187  0.4076968008106903   F   F   F
  0.4794126430662260  0.5072205383607624  0.4190535757241776   F   F   F
  0.6959522650824691  0.4792821756630025  0.3252462853018805   T   T   T
  0.7514722635683186  0.4283732143493040  0.4889758755690268   T   T   T
  0.7488505419375479  0.5368729546688350  0.4851554392157241   T   T   T
  0.7491191975278582  0.4902753701148759  0.5725875725420148   T   T   T
  0.6488787306948393  0.4382061022257625  0.7092241924661785   T   T   T
  0.5770114509762869  0.7431771020550135  0.4941808825366265   T   T   T
  0.6192554540844384  0.5183157687966542  0.3801816896793397   F   F   F
  0.5046103679007313  0.5588851876195452  0.6504772790277834   T   T   T
  0.4922009500451665  0.4366758245867572  0.4933013002826740   F   F   F
  0.5608844484509063  0.4404139570509003  0.6454865549417619   F   F   F
  0.5768995540305141  0.6157191742146024  0.6136870352502253   T   T   T
  0.5479784721331108  0.6171156887846584  0.3132278074999277   T   T   T
  0.6300206824031533  0.6258381238913467  0.3619368111893185   T   T   T
  0.3789773185462794  0.5570282318920051  0.4112088556042378   T   T   T
  0.4723078164089713  0.4557257050327763  0.5877273803360978   F   F   F
  0.7273014352544006  0.6343813321756440  0.4839081247836145   T   T   T
  0.5041050767776061  0.3679147084914821  0.6843158068781635   T   T   T
  0.3801430842910000  0.4414854805301897  0.6393561474888743   T   T   T
  0.5544592502646992  0.4379899399457940  0.4037542370104745   F   F   F
  0.4338104044498278  0.3642755406749777  0.6106702182853407   T   T   T
  0.5277792136802302  0.3495164638204112  0.5799329518414210   T   T   T
  0.4689857307845091  0.6936140007768800  0.3501065671243092   T   T   T
  0.4849765052531401  0.7337575311762433  0.3544370886556444   T   T   T
  0.4312483227341820  0.6874209586136731  0.3207503629061583   T   T   T
  0.4234246403892207  0.7169753255683504  0.3061813796530028   T   T   T
 
  0.00000000E+00  0.00000000E+00  0.00000000E+00
  0.00000000E+00  0.00000000E+00  0.00000000E+00
  0.00000000E+00  0.00000000E+00  0.00000000E+00
  0.00000000E+00  0.00000000E+00  0.00000000E+00
  0.00000000E+00  0.00000000E+00  0.00000000E+00
  0.00000000E+00  0.00000000E+00  0.00000000E+00
  0.00000000E+00  0.00000000E+00  0.00000000E+00
  0.00000000E+00  0.00000000E+00  0.00000000E+00
  0.00000000E+00  0.00000000E+00  0.00000000E+00
  0.00000000E+00  0.00000000E+00  0.00000000E+00
  0.00000000E+00  0.00000000E+00  0.00000000E+00
  0.00000000E+00  0.00000000E+00  0.00000000E+00
  0.00000000E+00  0.00000000E+00  0.00000000E+00
  0.00000000E+00  0.00000000E+00  0.00000000E+00
  0.00000000E+00  0.00000000E+00  0.00000000E+00
  0.00000000E+00  0.00000000E+00  0.00000000E+00
  0.00000000E+00  0.00000000E+00  0.00000000E+00
  0.00000000E+00  0.00000000E+00  0.00000000E+00
  0.00000000E+00  0.00000000E+00  0.00000000E+00
  0.00000000E+00  0.00000000E+00  0.00000000E+00
  0.00000000E+00  0.00000000E+00  0.00000000E+00
  0.00000000E+00  0.00000000E+00  0.00000000E+00
  0.00000000E+00  0.00000000E+00  0.00000000E+00
  0.00000000E+00  0.00000000E+00  0.00000000E+00
  0.00000000E+00  0.00000000E+00  0.00000000E+00
  0.00000000E+00  0.00000000E+00  0.00000000E+00
  0.00000000E+00  0.00000000E+00  0.00000000E+00
  0.00000000E+00  0.00000000E+00  0.00000000E+00
  0.00000000E+00  0.00000000E+00  0.00000000E+00
  0.00000000E+00  0.00000000E+00  0.00000000E+00
  0.00000000E+00  0.00000000E+00  0.00000000E+00
  0.00000000E+00  0.00000000E+00  0.00000000E+00
  0.00000000E+00  0.00000000E+00  0.00000000E+00
  0.00000000E+00  0.00000000E+00  0.00000000E+00
  0.00000000E+00  0.00000000E+00  0.00000000E+00
  0.00000000E+00  0.00000000E+00  0.00000000E+00
  0.00000000E+00  0.00000000E+00  0.00000000E+00
  0.00000000E+00  0.00000000E+00  0.00000000E+00
  0.00000000E+00  0.00000000E+00  0.00000000E+00
  0.00000000E+00  0.00000000E+00  0.00000000E+00
  0.00000000E+00  0.00000000E+00  0.00000000E+00
  0.00000000E+00  0.00000000E+00  0.00000000E+00
  0.00000000E+00  0.00000000E+00  0.00000000E+00
  0.00000000E+00  0.00000000E+00  0.00000000E+00
  0.00000000E+00  0.00000000E+00  0.00000000E+00
  0.00000000E+00  0.00000000E+00  0.00000000E+00
  0.00000000E+00  0.00000000E+00  0.00000000E+00
  0.00000000E+00  0.00000000E+00  0.00000000E+00
  0.00000000E+00  0.00000000E+00  0.00000000E+00
  0.00000000E+00  0.00000000E+00  0.00000000E+00
  0.00000000E+00  0.00000000E+00  0.00000000E+00
  0.00000000E+00  0.00000000E+00  0.00000000E+00
  0.00000000E+00  0.00000000E+00  0.00000000E+00
  0.00000000E+00  0.00000000E+00  0.00000000E+00
  0.00000000E+00  0.00000000E+00  0.00000000E+00
  0.00000000E+00  0.00000000E+00  0.00000000E+00
  0.00000000E+00  0.00000000E+00  0.00000000E+00
  0.00000000E+00  0.00000000E+00  0.00000000E+00
  0.00000000E+00  0.00000000E+00  0.00000000E+00
  0.00000000E+00  0.00000000E+00  0.00000000E+00
  0.00000000E+00  0.00000000E+00  0.00000000E+00
  0.00000000E+00  0.00000000E+00  0.00000000E+00
  0.00000000E+00  0.00000000E+00  0.00000000E+00
  0.00000000E+00  0.00000000E+00  0.00000000E+00
  0.00000000E+00  0.00000000E+00  0.00000000E+00
  0.00000000E+00  0.00000000E+00  0.00000000E+00
  0.00000000E+00  0.00000000E+00  0.00000000E+00
  0.00000000E+00  0.00000000E+00  0.00000000E+00
  0.00000000E+00  0.00000000E+00  0.00000000E+00
  0.00000000E+00  0.00000000E+00  0.00000000E+00
  0.00000000E+00  0.00000000E+00  0.00000000E+00
  0.00000000E+00  0.00000000E+00  0.00000000E+00
