Bi La Sn C  O  H                        
   1.00000000000000     
    29.0000000000000000    0.0000000000000000    0.0000000000000000
     0.2488180851000000   28.9989325590000000    0.0000000000000000
    -0.0631677343000000   -0.4515975666000000   28.9964147692999994
   Bi   La   Sn   C    O    H 
    22    23    23     1     2     1
Selective dynamics
Direct
  0.7598202922411383  0.4772761423939341  0.3987799658007426   T   T   T
  0.6465760466326951  0.6839813624619110  0.5520172269043229   T   T   T
  0.3597223554124492  0.4587437163732104  0.4290331987191935   T   T   T
  0.5511285653587921  0.7134328463038412  0.5857018021939925   T   T   T
  0.5915029568994470  0.5209714444905416  0.5841479689498996   F   F   F
  0.6395851138094631  0.6801238970414804  0.4456461199012070   T   T   T
  0.6988791157123139  0.5225072650028629  0.6538464245581554   T   T   T
  0.4860779603457390  0.6999798559794366  0.5027196737126127   T   T   T
  0.5004839460855024  0.5502791173970252  0.5477141156400123   F   F   F
  0.3251658097525252  0.4872043982874809  0.5738149414319696   T   T   T
  0.3832622215470586  0.6120654423190057  0.5347115746170685   T   T   T
  0.6667129484492236  0.4827404655721850  0.5105018184570156   F   F   F
  0.5763997220267569  0.4263140504383500  0.5448328182496311   F   F   F
  0.6680016534290182  0.3745366364054257  0.5074007136080038   T   T   T
  0.4632851322884021  0.3388437711143650  0.5008155445722029   T   T   T
  0.6484934028780529  0.5775373212088155  0.4602701624361103   F   F   F
  0.5593704734426055  0.4387812565217118  0.7497067467434152   T   T   T
  0.6077641999520531  0.3506468140177587  0.6667761706485418   T   T   T
  0.4909735062773144  0.2986252575189195  0.4110888506072883   T   T   T
  0.6613498509691068  0.6181168104896184  0.6656916088488218   T   T   T
  0.4912415911463796  0.4102590910622319  0.3060503006116762   T   T   T
  0.6210293457430700  0.3145066314678291  0.5709496834645241   T   T   T
  0.5377211029051615  0.6836228926810177  0.4056340540346188   T   T   T
  0.3906245481435435  0.4150556234319483  0.5284438073977238   T   T   T
  0.6283024287337848  0.5518683896586374  0.2830976511968329   T   T   T
  0.4710716038552403  0.4659230425434691  0.6921751836982619   T   T   T
  0.5683115009887700  0.5094300495444983  0.4784716241115703   F   F   F
  0.4203210565129183  0.5084107200613417  0.5018573595042781   F   F   F
  0.4517857735075787  0.4007721198564702  0.4066893837415561   T   T   T
  0.5608025508173925  0.3483586741085685  0.3542146849742935   T   T   T
  0.4098429818324727  0.5430388198142030  0.6101672366832100   T   T   T
  0.5994189091222500  0.4405178962087564  0.3051554283209864   T   T   T
  0.4550878657818486  0.5999658520750569  0.3629767675967569   T   T   T
  0.4182643766167722  0.4870042587276637  0.3401868576062698   T   T   T
  0.6612182375823288  0.4296414769274976  0.6047927968824487   T   T   T
  0.6740376669695041  0.5782763989701242  0.5636279266493422   T   T   T
  0.5260392887629451  0.5094173707487452  0.3280556128011635   T   T   T
  0.5655226039680455  0.3574873835778615  0.4686378634944675   T   T   T
  0.3164895351963418  0.5440587068671908  0.4913439824118574   T   T   T
  0.6604454085970394  0.4292444627106067  0.4157659717595006   T   T   T
  0.5660841929594156  0.6261437171197244  0.5094829013827464   F   F   F
  0.5988249042852588  0.5278162421978559  0.6893874402027611   T   T   T
  0.4697400579546098  0.6408499314564543  0.5936627289285890   T   T   T
  0.4630363385800523  0.6029175326691548  0.4639878682165012   T   T   T
  0.7162904280902844  0.5731072877477517  0.3830103843276154   T   T   T
  0.5499310510395361  0.5822218838566187  0.4076968008106903   F   F   F
  0.4794126430662260  0.5072205383607624  0.4190535757241776   F   F   F
  0.6949364124583106  0.4800467485140812  0.3244684804635427   T   T   T
  0.7520534757194351  0.4285664783721815  0.4879357620696683   T   T   T
  0.7487120472247537  0.5370042994657548  0.4844168625458681   T   T   T
  0.7498482419494459  0.4903768164475337  0.5717499905183107   T   T   T
  0.6493013163948529  0.4351024358821141  0.7098460383367085   T   T   T
  0.5763889944455634  0.7427571701929198  0.4938872922669992   T   T   T
  0.6192554540844384  0.5183157687966542  0.3801816896793397   F   F   F
  0.5076745158153271  0.5527140106840813  0.6483088426668999   T   T   T
  0.4922009500451665  0.4366758245867572  0.4933013002826740   F   F   F
  0.5608844484509063  0.4404139570509003  0.6454865549417619   F   F   F
  0.5774913343368311  0.6160078648802196  0.6141287658237791   T   T   T
  0.5444511357460278  0.6175947118595444  0.3127080975562693   T   T   T
  0.6275996121163315  0.6256816931150841  0.3604748697047929   T   T   T
  0.3771298702746215  0.5568897227944692  0.4120151840077415   T   T   T
  0.4723078164089713  0.4557257050327763  0.5877273803360978   F   F   F
  0.7274714970549918  0.6340340464984978  0.4838242277390476   T   T   T
  0.5083565866985621  0.3649260877076150  0.6858642680641961   T   T   T
  0.3807469589805411  0.4431589004063644  0.6399447345183734   T   T   T
  0.5544592502646992  0.4379899399457940  0.4037542370104745   F   F   F
  0.4355101376225294  0.3657127757096880  0.6142929302458497   T   T   T
  0.5281825040502153  0.3493633242890140  0.5802886409510716   T   T   T
  0.4133882792599190  0.6208864833032225  0.6574615158693567   T   T   T
  0.4240861597915471  0.6614108558345331  0.6684484897567399   T   T   T
  0.3817188763398912  0.5977269505245102  0.6845500071983383   T   T   T
  0.3704365862662569  0.6181582921024977  0.7096378565312134   T   T   T
 
  0.00000000E+00  0.00000000E+00  0.00000000E+00
  0.00000000E+00  0.00000000E+00  0.00000000E+00
  0.00000000E+00  0.00000000E+00  0.00000000E+00
  0.00000000E+00  0.00000000E+00  0.00000000E+00
  0.00000000E+00  0.00000000E+00  0.00000000E+00
  0.00000000E+00  0.00000000E+00  0.00000000E+00
  0.00000000E+00  0.00000000E+00  0.00000000E+00
  0.00000000E+00  0.00000000E+00  0.00000000E+00
  0.00000000E+00  0.00000000E+00  0.00000000E+00
  0.00000000E+00  0.00000000E+00  0.00000000E+00
  0.00000000E+00  0.00000000E+00  0.00000000E+00
  0.00000000E+00  0.00000000E+00  0.00000000E+00
  0.00000000E+00  0.00000000E+00  0.00000000E+00
  0.00000000E+00  0.00000000E+00  0.00000000E+00
  0.00000000E+00  0.00000000E+00  0.00000000E+00
  0.00000000E+00  0.00000000E+00  0.00000000E+00
  0.00000000E+00  0.00000000E+00  0.00000000E+00
  0.00000000E+00  0.00000000E+00  0.00000000E+00
  0.00000000E+00  0.00000000E+00  0.00000000E+00
  0.00000000E+00  0.00000000E+00  0.00000000E+00
  0.00000000E+00  0.00000000E+00  0.00000000E+00
  0.00000000E+00  0.00000000E+00  0.00000000E+00
  0.00000000E+00  0.00000000E+00  0.00000000E+00
  0.00000000E+00  0.00000000E+00  0.00000000E+00
  0.00000000E+00  0.00000000E+00  0.00000000E+00
  0.00000000E+00  0.00000000E+00  0.00000000E+00
  0.00000000E+00  0.00000000E+00  0.00000000E+00
  0.00000000E+00  0.00000000E+00  0.00000000E+00
  0.00000000E+00  0.00000000E+00  0.00000000E+00
  0.00000000E+00  0.00000000E+00  0.00000000E+00
  0.00000000E+00  0.00000000E+00  0.00000000E+00
  0.00000000E+00  0.00000000E+00  0.00000000E+00
  0.00000000E+00  0.00000000E+00  0.00000000E+00
  0.00000000E+00  0.00000000E+00  0.00000000E+00
  0.00000000E+00  0.00000000E+00  0.00000000E+00
  0.00000000E+00  0.00000000E+00  0.00000000E+00
  0.00000000E+00  0.00000000E+00  0.00000000E+00
  0.00000000E+00  0.00000000E+00  0.00000000E+00
  0.00000000E+00  0.00000000E+00  0.00000000E+00
  0.00000000E+00  0.00000000E+00  0.00000000E+00
  0.00000000E+00  0.00000000E+00  0.00000000E+00
  0.00000000E+00  0.00000000E+00  0.00000000E+00
  0.00000000E+00  0.00000000E+00  0.00000000E+00
  0.00000000E+00  0.00000000E+00  0.00000000E+00
  0.00000000E+00  0.00000000E+00  0.00000000E+00
  0.00000000E+00  0.00000000E+00  0.00000000E+00
  0.00000000E+00  0.00000000E+00  0.00000000E+00
  0.00000000E+00  0.00000000E+00  0.00000000E+00
  0.00000000E+00  0.00000000E+00  0.00000000E+00
  0.00000000E+00  0.00000000E+00  0.00000000E+00
  0.00000000E+00  0.00000000E+00  0.00000000E+00
  0.00000000E+00  0.00000000E+00  0.00000000E+00
  0.00000000E+00  0.00000000E+00  0.00000000E+00
  0.00000000E+00  0.00000000E+00  0.00000000E+00
  0.00000000E+00  0.00000000E+00  0.00000000E+00
  0.00000000E+00  0.00000000E+00  0.00000000E+00
  0.00000000E+00  0.00000000E+00  0.00000000E+00
  0.00000000E+00  0.00000000E+00  0.00000000E+00
  0.00000000E+00  0.00000000E+00  0.00000000E+00
  0.00000000E+00  0.00000000E+00  0.00000000E+00
  0.00000000E+00  0.00000000E+00  0.00000000E+00
  0.00000000E+00  0.00000000E+00  0.00000000E+00
  0.00000000E+00  0.00000000E+00  0.00000000E+00
  0.00000000E+00  0.00000000E+00  0.00000000E+00
  0.00000000E+00  0.00000000E+00  0.00000000E+00
  0.00000000E+00  0.00000000E+00  0.00000000E+00
  0.00000000E+00  0.00000000E+00  0.00000000E+00
  0.00000000E+00  0.00000000E+00  0.00000000E+00
  0.00000000E+00  0.00000000E+00  0.00000000E+00
  0.00000000E+00  0.00000000E+00  0.00000000E+00
  0.00000000E+00  0.00000000E+00  0.00000000E+00
  0.00000000E+00  0.00000000E+00  0.00000000E+00
