Bi La Sn C  O  H                        
   1.00000000000000     
    29.0000000000000000    0.0000000000000000    0.0000000000000000
     0.2488180851000000   28.9989325590000000    0.0000000000000000
    -0.0631677343000000   -0.4515975666000000   28.9964147692999994
   Bi   La   Sn   C    O    H 
    22    23    23     1     2     1
Selective dynamics
Direct
  0.7588123944523453  0.4791386284887613  0.3989967305581271   T   T   T
  0.6461415509038430  0.6846507840118694  0.5526681142638347   T   T   T
  0.3558484724315527  0.4598256720308974  0.4317064966610458   T   T   T
  0.5496694668452755  0.7131887383959833  0.5849074280030306   T   T   T
  0.5915029568994470  0.5209714444905416  0.5841479689498996   F   F   F
  0.6398859716045034  0.6807630971341420  0.4457694868991559   T   T   T
  0.6957541826644262  0.5226313998611565  0.6550166140991662   T   T   T
  0.4855455414919390  0.7005055558243179  0.5003586459866440   T   T   T
  0.5004839460855024  0.5502791173970252  0.5477141156400123   F   F   F
  0.3241784941608069  0.4859332655186375  0.5725432975784380   T   T   T
  0.3823807992601347  0.6119305069091404  0.5344191107386345   T   T   T
  0.6667129484492236  0.4827404655721850  0.5105018184570156   F   F   F
  0.5763997220267569  0.4263140504383500  0.5448328182496311   F   F   F
  0.6704242275851658  0.3744678137981767  0.5059762594624954   T   T   T
  0.4655207506679564  0.3384359882683970  0.5031677165975021   T   T   T
  0.6484934028780529  0.5775373212088155  0.4602701624361103   F   F   F
  0.5575469035646445  0.4382786101666069  0.7498981328496073   T   T   T
  0.6078180439985376  0.3516551527205419  0.6692117195979204   T   T   T
  0.4933633322999514  0.2970047126044479  0.4144971735563786   T   T   T
  0.6592575768118685  0.6188913086095630  0.6659917168562409   T   T   T
  0.4931780573745014  0.4102864547703431  0.3102296888006564   T   T   T
  0.6234952035947949  0.3171697512460370  0.5724151232300039   T   T   T
  0.5381349231639777  0.6837184747959391  0.4049518491461946   T   T   T
  0.3914926263177944  0.4146940253116208  0.5286162929076799   T   T   T
  0.6298466057670206  0.5535334905371740  0.2830429374892738   T   T   T
  0.4706366409135861  0.4687498934868591  0.6907966557723675   T   T   T
  0.5683115009887700  0.5094300495444983  0.4784716241115703   F   F   F
  0.4203210565129183  0.5084107200613417  0.5018573595042781   F   F   F
  0.4491536598115152  0.3983216593832722  0.4086929703275289   T   T   T
  0.5622721005906423  0.3470515871835565  0.3564974932718337   T   T   T
  0.4098038480208326  0.5406541545092918  0.6083560362476069   T   T   T
  0.5988354478607237  0.4430601068920927  0.3045867222084627   T   T   T
  0.4550695481200328  0.5992723251737199  0.3630888180821155   T   T   T
  0.4134033284827017  0.4836908387359627  0.3415749640697798   T   T   T
  0.6614256697533291  0.4287387090907795  0.6042402647074747   T   T   T
  0.6728808481665326  0.5787660439657680  0.5640760148875510   T   T   T
  0.5268290888950544  0.5095726588774112  0.3278259338095049   T   T   T
  0.5672786954340727  0.3584359383602524  0.4687866084245773   T   T   T
  0.3141116404500855  0.5450719570786193  0.4919314311447974   T   T   T
  0.6608315818271485  0.4297476788150204  0.4152790724675934   T   T   T
  0.5660841929594156  0.6261437171197244  0.5094829013827464   F   F   F
  0.5949987220255085  0.5293846481809525  0.6895336758961662   T   T   T
  0.4697514583468043  0.6412194495136100  0.5889779458217244   T   T   T
  0.4628230363971813  0.6030032563112808  0.4633113021980557   T   T   T
  0.7161848894023158  0.5746118437581582  0.3832230218938994   T   T   T
  0.5499310510395361  0.5822218838566187  0.4076968008106903   F   F   F
  0.4794126430662260  0.5072205383607624  0.4190535757241776   F   F   F
  0.6952118021370400  0.4807276247747607  0.3240962031776715   T   T   T
  0.7530783668679057  0.4311300816439526  0.4887134814062288   T   T   T
  0.7482856953331308  0.5390326912887343  0.4857487064218505   T   T   T
  0.7482412320046060  0.4923268333737983  0.5733819725190087   T   T   T
  0.6482390014622802  0.4385829415698803  0.7094478625626843   T   T   T
  0.5759427779768556  0.7425720378854095  0.4934754051765885   T   T   T
  0.6192554540844384  0.5183157687966542  0.3801816896793397   F   F   F
  0.5035963953804322  0.5584481089454186  0.6502237426294373   T   T   T
  0.4922009500451665  0.4366758245867572  0.4933013002826740   F   F   F
  0.5608844484509063  0.4404139570509003  0.6454865549417619   F   F   F
  0.5762213030994906  0.6157995793670908  0.6138430416820860   T   T   T
  0.5442850468668123  0.6173273391861964  0.3122190478456481   T   T   T
  0.6267167275835870  0.6260007629578977  0.3610991306694012   T   T   T
  0.3764295063755210  0.5567131435029442  0.4129069376090432   T   T   T
  0.4723078164089713  0.4557257050327763  0.5877273803360978   F   F   F
  0.7265302116943076  0.6358621330382037  0.4856355213359790   T   T   T
  0.5082480655223928  0.3667941834936342  0.6870222525578298   T   T   T
  0.3792802365572143  0.4429152446449802  0.6400273833174163   T   T   T
  0.5544592502646992  0.4379899399457940  0.4037542370104745   F   F   F
  0.4364167203577153  0.3665929384460699  0.6152876497417126   T   T   T
  0.5300137236847799  0.3491750497911131  0.5825472999183979   T   T   T
  0.3870613644645678  0.3994800108606298  0.3470919451071978   T   T   T
  0.3822479220614793  0.3601551272485358  0.3633298264553632   T   T   T
  0.3595292335301267  0.4127084727210966  0.3097417585648396   T   T   T
  0.3376794278784087  0.3878686240956758  0.3023798425580066   T   T   T
 
  0.00000000E+00  0.00000000E+00  0.00000000E+00
  0.00000000E+00  0.00000000E+00  0.00000000E+00
  0.00000000E+00  0.00000000E+00  0.00000000E+00
  0.00000000E+00  0.00000000E+00  0.00000000E+00
  0.00000000E+00  0.00000000E+00  0.00000000E+00
  0.00000000E+00  0.00000000E+00  0.00000000E+00
  0.00000000E+00  0.00000000E+00  0.00000000E+00
  0.00000000E+00  0.00000000E+00  0.00000000E+00
  0.00000000E+00  0.00000000E+00  0.00000000E+00
  0.00000000E+00  0.00000000E+00  0.00000000E+00
  0.00000000E+00  0.00000000E+00  0.00000000E+00
  0.00000000E+00  0.00000000E+00  0.00000000E+00
  0.00000000E+00  0.00000000E+00  0.00000000E+00
  0.00000000E+00  0.00000000E+00  0.00000000E+00
  0.00000000E+00  0.00000000E+00  0.00000000E+00
  0.00000000E+00  0.00000000E+00  0.00000000E+00
  0.00000000E+00  0.00000000E+00  0.00000000E+00
  0.00000000E+00  0.00000000E+00  0.00000000E+00
  0.00000000E+00  0.00000000E+00  0.00000000E+00
  0.00000000E+00  0.00000000E+00  0.00000000E+00
  0.00000000E+00  0.00000000E+00  0.00000000E+00
  0.00000000E+00  0.00000000E+00  0.00000000E+00
  0.00000000E+00  0.00000000E+00  0.00000000E+00
  0.00000000E+00  0.00000000E+00  0.00000000E+00
  0.00000000E+00  0.00000000E+00  0.00000000E+00
  0.00000000E+00  0.00000000E+00  0.00000000E+00
  0.00000000E+00  0.00000000E+00  0.00000000E+00
  0.00000000E+00  0.00000000E+00  0.00000000E+00
  0.00000000E+00  0.00000000E+00  0.00000000E+00
  0.00000000E+00  0.00000000E+00  0.00000000E+00
  0.00000000E+00  0.00000000E+00  0.00000000E+00
  0.00000000E+00  0.00000000E+00  0.00000000E+00
  0.00000000E+00  0.00000000E+00  0.00000000E+00
  0.00000000E+00  0.00000000E+00  0.00000000E+00
  0.00000000E+00  0.00000000E+00  0.00000000E+00
  0.00000000E+00  0.00000000E+00  0.00000000E+00
  0.00000000E+00  0.00000000E+00  0.00000000E+00
  0.00000000E+00  0.00000000E+00  0.00000000E+00
  0.00000000E+00  0.00000000E+00  0.00000000E+00
  0.00000000E+00  0.00000000E+00  0.00000000E+00
  0.00000000E+00  0.00000000E+00  0.00000000E+00
  0.00000000E+00  0.00000000E+00  0.00000000E+00
  0.00000000E+00  0.00000000E+00  0.00000000E+00
  0.00000000E+00  0.00000000E+00  0.00000000E+00
  0.00000000E+00  0.00000000E+00  0.00000000E+00
  0.00000000E+00  0.00000000E+00  0.00000000E+00
  0.00000000E+00  0.00000000E+00  0.00000000E+00
  0.00000000E+00  0.00000000E+00  0.00000000E+00
  0.00000000E+00  0.00000000E+00  0.00000000E+00
  0.00000000E+00  0.00000000E+00  0.00000000E+00
  0.00000000E+00  0.00000000E+00  0.00000000E+00
  0.00000000E+00  0.00000000E+00  0.00000000E+00
  0.00000000E+00  0.00000000E+00  0.00000000E+00
  0.00000000E+00  0.00000000E+00  0.00000000E+00
  0.00000000E+00  0.00000000E+00  0.00000000E+00
  0.00000000E+00  0.00000000E+00  0.00000000E+00
  0.00000000E+00  0.00000000E+00  0.00000000E+00
  0.00000000E+00  0.00000000E+00  0.00000000E+00
  0.00000000E+00  0.00000000E+00  0.00000000E+00
  0.00000000E+00  0.00000000E+00  0.00000000E+00
  0.00000000E+00  0.00000000E+00  0.00000000E+00
  0.00000000E+00  0.00000000E+00  0.00000000E+00
  0.00000000E+00  0.00000000E+00  0.00000000E+00
  0.00000000E+00  0.00000000E+00  0.00000000E+00
  0.00000000E+00  0.00000000E+00  0.00000000E+00
  0.00000000E+00  0.00000000E+00  0.00000000E+00
  0.00000000E+00  0.00000000E+00  0.00000000E+00
  0.00000000E+00  0.00000000E+00  0.00000000E+00
  0.00000000E+00  0.00000000E+00  0.00000000E+00
  0.00000000E+00  0.00000000E+00  0.00000000E+00
  0.00000000E+00  0.00000000E+00  0.00000000E+00
  0.00000000E+00  0.00000000E+00  0.00000000E+00
