Bi La Sn C  O  H                        
   1.00000000000000     
    29.0000000000000000    0.0000000000000000    0.0000000000000000
     0.2488180851000000   28.9989325590000000    0.0000000000000000
    -0.0631677343000000   -0.4515975666000000   28.9964147692999994
   Bi   La   Sn   C    O    H 
    22    23    23     1     2     1
Selective dynamics
Direct
  0.7598091785917999  0.4788402321138781  0.3998557673248212   T   T   T
  0.6468798190687065  0.6844851175519725  0.5519734457308434   T   T   T
  0.3574115836832442  0.4592193050032001  0.4290411367195749   T   T   T
  0.5509465558422441  0.7133033783563060  0.5844685894998802   T   T   T
  0.5915029568994470  0.5209714444905416  0.5841479689498996   F   F   F
  0.6401919505560721  0.6803481918968364  0.4457837788980787   T   T   T
  0.6955032139419763  0.5220077712804581  0.6541699251960991   T   T   T
  0.4865495977707555  0.7010955223696113  0.4990079272399068   T   T   T
  0.5004839460855024  0.5502791173970252  0.5477141156400123   F   F   F
  0.3261534645017471  0.4860932944773720  0.5747974573476624   T   T   T
  0.3825505196216103  0.6101420582481827  0.5358246118883115   T   T   T
  0.6667129484492236  0.4827404655721850  0.5105018184570156   F   F   F
  0.5763997220267569  0.4263140504383500  0.5448328182496311   F   F   F
  0.6687278739637317  0.3739503785597083  0.5059238177496255   T   T   T
  0.4627264458860129  0.3367289722039957  0.4987999863391732   T   T   T
  0.6484934028780529  0.5775373212088155  0.4602701624361103   F   F   F
  0.5576224919213550  0.4358505176602638  0.7498662824788955   T   T   T
  0.6006775018737920  0.3509420050553446  0.6690999653443783   T   T   T
  0.4929442167911799  0.3024450175542711  0.4070474508418560   T   T   T
  0.6602228878503942  0.6181910868247604  0.6666735511301932   T   T   T
  0.4971006721180466  0.4073403760082960  0.3153301283361788   T   T   T
  0.6220159394341390  0.3169364668084795  0.5731487914073077   T   T   T
  0.5392503033767616  0.6839647202098122  0.4044081736425208   T   T   T
  0.3904853928215570  0.4150141827814688  0.5263225067494244   T   T   T
  0.6298313029358742  0.5533682470549344  0.2829641700722514   T   T   T
  0.4721273201804181  0.4740286537921603  0.6921221210550844   T   T   T
  0.5683115009887700  0.5094300495444983  0.4784716241115703   F   F   F
  0.4203210565129183  0.5084107200613417  0.5018573595042781   F   F   F
  0.4491225275593770  0.4009147164474911  0.4092065698377130   T   T   T
  0.5750056205715822  0.3454598524319649  0.3588087906992843   T   T   T
  0.4116201021629303  0.5399796397704578  0.6104144649938088   T   T   T
  0.5996775770506274  0.4406820195499463  0.3027852084669507   T   T   T
  0.4552905966448269  0.5995468721828411  0.3627941253381209   T   T   T
  0.4198028547764510  0.4845818568063887  0.3408995854806096   T   T   T
  0.6611682785729661  0.4276746979392374  0.6042820843620060   T   T   T
  0.6735027347998397  0.5786749738041732  0.5641183466307389   T   T   T
  0.5267038726811806  0.5104594718507779  0.3274140629784806   T   T   T
  0.5655382824038000  0.3575034095191299  0.4695660426310873   T   T   T
  0.3155905372197750  0.5424059998411881  0.4915923414752366   T   T   T
  0.6600378914057505  0.4296056048305216  0.4155660277053197   T   T   T
  0.5660841929594156  0.6261437171197244  0.5094829013827464   F   F   F
  0.5955922032554865  0.5284001201250262  0.6899946177653142   T   T   T
  0.4705014543817549  0.6420457432472828  0.5880164194149003   T   T   T
  0.4622163925580888  0.6034190627941912  0.4634375757643971   T   T   T
  0.7168382047661963  0.5749758058773135  0.3838390810605666   T   T   T
  0.5499310510395361  0.5822218838566187  0.4076968008106903   F   F   F
  0.4794126430662260  0.5072205383607624  0.4190535757241776   F   F   F
  0.6957698433293760  0.4817552144597728  0.3257094561386108   T   T   T
  0.7518980027458800  0.4291079546681683  0.4885690567630325   T   T   T
  0.7485101297940049  0.5385002397528742  0.4860760560580253   T   T   T
  0.7487325811103522  0.4904154219006879  0.5727007774213210   T   T   T
  0.6473333840924324  0.4360359828449790  0.7084472717046094   T   T   T
  0.5768922286709252  0.7433768463359205  0.4931220845531992   T   T   T
  0.6192554540844384  0.5183157687966542  0.3801816896793397   F   F   F
  0.5054856841547276  0.5618277318775149  0.6504938051434782   T   T   T
  0.4922009500451665  0.4366758245867572  0.4933013002826740   F   F   F
  0.5608844484509063  0.4404139570509003  0.6454865549417619   F   F   F
  0.5777814816462431  0.6164631688949493  0.6135293679438338   T   T   T
  0.5449714537987194  0.6181537003201557  0.3121729636189218   T   T   T
  0.6273897471598764  0.6255038507361335  0.3609087795228814   T   T   T
  0.3766062541279830  0.5563520859661286  0.4115422170981856   T   T   T
  0.4723078164089713  0.4557257050327763  0.5877273803360978   F   F   F
  0.7274134535947165  0.6351611892729022  0.4849808417006025   T   T   T
  0.5008216670119635  0.3711307063881705  0.6830910331374505   T   T   T
  0.3827191921950507  0.4399053194161149  0.6396330510156257   T   T   T
  0.5544592502646992  0.4379899399457940  0.4037542370104745   F   F   F
  0.4338962297979579  0.3616193010124060  0.6078194226670223   T   T   T
  0.5278214558223485  0.3490344120776634  0.5787360809447403   T   T   T
  0.6123550776347473  0.3560458818688656  0.2776221607159713   T   T   T
  0.6244737667954053  0.3785426501254590  0.2430904103226146   T   T   T
  0.6170914929943907  0.3083091095531441  0.2761388176728346   T   T   T
  0.6302780621253798  0.2984138485827373  0.2461567539029043   T   T   T
 
  0.00000000E+00  0.00000000E+00  0.00000000E+00
  0.00000000E+00  0.00000000E+00  0.00000000E+00
  0.00000000E+00  0.00000000E+00  0.00000000E+00
  0.00000000E+00  0.00000000E+00  0.00000000E+00
  0.00000000E+00  0.00000000E+00  0.00000000E+00
  0.00000000E+00  0.00000000E+00  0.00000000E+00
  0.00000000E+00  0.00000000E+00  0.00000000E+00
  0.00000000E+00  0.00000000E+00  0.00000000E+00
  0.00000000E+00  0.00000000E+00  0.00000000E+00
  0.00000000E+00  0.00000000E+00  0.00000000E+00
  0.00000000E+00  0.00000000E+00  0.00000000E+00
  0.00000000E+00  0.00000000E+00  0.00000000E+00
  0.00000000E+00  0.00000000E+00  0.00000000E+00
  0.00000000E+00  0.00000000E+00  0.00000000E+00
  0.00000000E+00  0.00000000E+00  0.00000000E+00
  0.00000000E+00  0.00000000E+00  0.00000000E+00
  0.00000000E+00  0.00000000E+00  0.00000000E+00
  0.00000000E+00  0.00000000E+00  0.00000000E+00
  0.00000000E+00  0.00000000E+00  0.00000000E+00
  0.00000000E+00  0.00000000E+00  0.00000000E+00
  0.00000000E+00  0.00000000E+00  0.00000000E+00
  0.00000000E+00  0.00000000E+00  0.00000000E+00
  0.00000000E+00  0.00000000E+00  0.00000000E+00
  0.00000000E+00  0.00000000E+00  0.00000000E+00
  0.00000000E+00  0.00000000E+00  0.00000000E+00
  0.00000000E+00  0.00000000E+00  0.00000000E+00
  0.00000000E+00  0.00000000E+00  0.00000000E+00
  0.00000000E+00  0.00000000E+00  0.00000000E+00
  0.00000000E+00  0.00000000E+00  0.00000000E+00
  0.00000000E+00  0.00000000E+00  0.00000000E+00
  0.00000000E+00  0.00000000E+00  0.00000000E+00
  0.00000000E+00  0.00000000E+00  0.00000000E+00
  0.00000000E+00  0.00000000E+00  0.00000000E+00
  0.00000000E+00  0.00000000E+00  0.00000000E+00
  0.00000000E+00  0.00000000E+00  0.00000000E+00
  0.00000000E+00  0.00000000E+00  0.00000000E+00
  0.00000000E+00  0.00000000E+00  0.00000000E+00
  0.00000000E+00  0.00000000E+00  0.00000000E+00
  0.00000000E+00  0.00000000E+00  0.00000000E+00
  0.00000000E+00  0.00000000E+00  0.00000000E+00
  0.00000000E+00  0.00000000E+00  0.00000000E+00
  0.00000000E+00  0.00000000E+00  0.00000000E+00
  0.00000000E+00  0.00000000E+00  0.00000000E+00
  0.00000000E+00  0.00000000E+00  0.00000000E+00
  0.00000000E+00  0.00000000E+00  0.00000000E+00
  0.00000000E+00  0.00000000E+00  0.00000000E+00
  0.00000000E+00  0.00000000E+00  0.00000000E+00
  0.00000000E+00  0.00000000E+00  0.00000000E+00
  0.00000000E+00  0.00000000E+00  0.00000000E+00
  0.00000000E+00  0.00000000E+00  0.00000000E+00
  0.00000000E+00  0.00000000E+00  0.00000000E+00
  0.00000000E+00  0.00000000E+00  0.00000000E+00
  0.00000000E+00  0.00000000E+00  0.00000000E+00
  0.00000000E+00  0.00000000E+00  0.00000000E+00
  0.00000000E+00  0.00000000E+00  0.00000000E+00
  0.00000000E+00  0.00000000E+00  0.00000000E+00
  0.00000000E+00  0.00000000E+00  0.00000000E+00
  0.00000000E+00  0.00000000E+00  0.00000000E+00
  0.00000000E+00  0.00000000E+00  0.00000000E+00
  0.00000000E+00  0.00000000E+00  0.00000000E+00
  0.00000000E+00  0.00000000E+00  0.00000000E+00
  0.00000000E+00  0.00000000E+00  0.00000000E+00
  0.00000000E+00  0.00000000E+00  0.00000000E+00
  0.00000000E+00  0.00000000E+00  0.00000000E+00
  0.00000000E+00  0.00000000E+00  0.00000000E+00
  0.00000000E+00  0.00000000E+00  0.00000000E+00
  0.00000000E+00  0.00000000E+00  0.00000000E+00
  0.00000000E+00  0.00000000E+00  0.00000000E+00
  0.00000000E+00  0.00000000E+00  0.00000000E+00
  0.00000000E+00  0.00000000E+00  0.00000000E+00
  0.00000000E+00  0.00000000E+00  0.00000000E+00
  0.00000000E+00  0.00000000E+00  0.00000000E+00
