Bi La Sn C  O  H                        
   1.00000000000000     
    29.0000000000000000    0.0000000000000000    0.0000000000000000
     0.2488180851000000   28.9989325590000000    0.0000000000000000
    -0.0631677343000000   -0.4515975666000000   28.9964147692999994
   Bi   La   Sn   C    O    H 
    22    23    23     1     2     1
Selective dynamics
Direct
  0.7589809246084790  0.4775502296117836  0.4001483458694601   T   T   T
  0.6480770251583944  0.6849389328769161  0.5501340705270058   T   T   T
  0.3593612217562610  0.4575952378363803  0.4284849768539065   T   T   T
  0.5525539200176035  0.7136617341381477  0.5838278384768224   T   T   T
  0.5915029568994470  0.5209714444905416  0.5841479689498996   F   F   F
  0.6402589270809710  0.6799565179485860  0.4450746535493523   T   T   T
  0.6952475895393311  0.5196255378476342  0.6535832543385824   T   T   T
  0.4874031251052292  0.7013286625048913  0.4981782825600732   T   T   T
  0.5004839460855024  0.5502791173970252  0.5477141156400123   F   F   F
  0.3296728250067325  0.4808053392169946  0.5791356437874611   T   T   T
  0.3834022609957241  0.6079723963366063  0.5390096320131290   T   T   T
  0.6667129484492236  0.4827404655721850  0.5105018184570156   F   F   F
  0.5763997220267569  0.4263140504383500  0.5448328182496311   F   F   F
  0.6669431378513186  0.3723441966607096  0.5088874175765300   T   T   T
  0.4585238080015765  0.3339564672428032  0.4905036999843017   T   T   T
  0.6484934028780529  0.5775373212088155  0.4602701624361103   F   F   F
  0.5522866623578685  0.4317105608547301  0.7474554141888167   T   T   T
  0.5913997894828112  0.3503595007373604  0.6660650211150017   T   T   T
  0.4931391977314085  0.2999947585847619  0.4018050180572219   T   T   T
  0.6615023022530988  0.6153107831673303  0.6677908971589027   T   T   T
  0.4921114872968068  0.4109025670967887  0.3046220663816362   T   T   T
  0.6094535574830590  0.3176874696822892  0.5698339658229137   T   T   T
  0.5398072342847189  0.6836860263764738  0.4039149249104208   T   T   T
  0.3920569778399771  0.4134902728545702  0.5256075794077493   T   T   T
  0.6282360236075154  0.5516079339187532  0.2823429461331847   T   T   T
  0.4735986117678503  0.4802959329394662  0.6928350713052575   T   T   T
  0.5683115009887700  0.5094300495444983  0.4784716241115703   F   F   F
  0.4203210565129183  0.5084107200613417  0.5018573595042781   F   F   F
  0.4523615318738209  0.4019276221133129  0.4041747443947322   T   T   T
  0.5655347034977031  0.3501403489088366  0.3509067844554096   T   T   T
  0.4129537656294700  0.5369681816542242  0.6129613259680669   T   T   T
  0.5983863992521884  0.4428542338971966  0.3049735796348968   T   T   T
  0.4540645650540354  0.6000719612859411  0.3643843255072887   T   T   T
  0.4180066744987339  0.4870250198590433  0.3406573816419707   T   T   T
  0.6597107937175727  0.4258899639952521  0.6056070503635471   T   T   T
  0.6743956477321221  0.5786520050207939  0.5640098834862614   T   T   T
  0.5252843507751894  0.5100167396603050  0.3278563746279152   T   T   T
  0.5636937131443975  0.3565307543996216  0.4684814829636935   T   T   T
  0.3167534014838266  0.5380095568131148  0.4959354692457588   T   T   T
  0.6592241620078300  0.4283065241555718  0.4166861436985456   T   T   T
  0.5660841929594156  0.6261437171197244  0.5094829013827464   F   F   F
  0.5957116984391323  0.5265006799634985  0.6902982802518527   T   T   T
  0.4713665163493247  0.6433362657638140  0.5876203424251328   T   T   T
  0.4620357167202788  0.6033073324603037  0.4640284806536655   T   T   T
  0.7166353139937867  0.5737643336075847  0.3834664749611562   T   T   T
  0.5499310510395361  0.5822218838566187  0.4076968008106903   F   F   F
  0.4794126430662260  0.5072205383607624  0.4190535757241776   F   F   F
  0.6947093125302518  0.4801263773560472  0.3254584751173200   T   T   T
  0.7502274553213003  0.4276915015853864  0.4882841115211088   T   T   T
  0.7488774782519602  0.5375833786366444  0.4856936613797619   T   T   T
  0.7489757250884543  0.4891669618988323  0.5721719043109400   T   T   T
  0.6438680491882803  0.4315862515764198  0.7102455652748560   T   T   T
  0.5776262600421593  0.7437507421803204  0.4923474183554355   T   T   T
  0.6192554540844384  0.5183157687966542  0.3801816896793397   F   F   F
  0.5075364840546901  0.5650858640562714  0.6495500498223635   T   T   T
  0.4922009500451665  0.4366758245867572  0.4933013002826740   F   F   F
  0.5608844484509063  0.4404139570509003  0.6454865549417619   F   F   F
  0.5802007449151836  0.6174514019417201  0.6130189558462952   T   T   T
  0.5437789949896777  0.6170562557535368  0.3123310743077082   T   T   T
  0.6273496878782751  0.6244456470311622  0.3602102413760830   T   T   T
  0.3753754399203483  0.5567562662528738  0.4146119443623426   T   T   T
  0.4723078164089713  0.4557257050327763  0.5877273803360978   F   F   F
  0.7283279915751211  0.6344177070990160  0.4834534311031120   T   T   T
  0.4873430766554323  0.3767470117704536  0.6692606724398513   T   T   T
  0.3916824018893966  0.4300745168224138  0.6403638224873682   T   T   T
  0.5544592502646992  0.4379899399457940  0.4037542370104745   F   F   F
  0.4143468075023317  0.3432177023508280  0.5966068241216390   T   T   T
  0.5130078270891713  0.3554988918467567  0.5732652556173486   T   T   T
  0.4045007923526777  0.2849780562411607  0.6460679734691420   T   T   T
  0.4115606272649071  0.2850463325451474  0.6876001128699835   T   T   T
  0.3891042605463332  0.2464432970586638  0.6223370561769640   T   T   T
  0.3860516677370440  0.2217096280980407  0.6450416470675330   T   T   T
 
  0.00000000E+00  0.00000000E+00  0.00000000E+00
  0.00000000E+00  0.00000000E+00  0.00000000E+00
  0.00000000E+00  0.00000000E+00  0.00000000E+00
  0.00000000E+00  0.00000000E+00  0.00000000E+00
  0.00000000E+00  0.00000000E+00  0.00000000E+00
  0.00000000E+00  0.00000000E+00  0.00000000E+00
  0.00000000E+00  0.00000000E+00  0.00000000E+00
  0.00000000E+00  0.00000000E+00  0.00000000E+00
  0.00000000E+00  0.00000000E+00  0.00000000E+00
  0.00000000E+00  0.00000000E+00  0.00000000E+00
  0.00000000E+00  0.00000000E+00  0.00000000E+00
  0.00000000E+00  0.00000000E+00  0.00000000E+00
  0.00000000E+00  0.00000000E+00  0.00000000E+00
  0.00000000E+00  0.00000000E+00  0.00000000E+00
  0.00000000E+00  0.00000000E+00  0.00000000E+00
  0.00000000E+00  0.00000000E+00  0.00000000E+00
  0.00000000E+00  0.00000000E+00  0.00000000E+00
  0.00000000E+00  0.00000000E+00  0.00000000E+00
  0.00000000E+00  0.00000000E+00  0.00000000E+00
  0.00000000E+00  0.00000000E+00  0.00000000E+00
  0.00000000E+00  0.00000000E+00  0.00000000E+00
  0.00000000E+00  0.00000000E+00  0.00000000E+00
  0.00000000E+00  0.00000000E+00  0.00000000E+00
  0.00000000E+00  0.00000000E+00  0.00000000E+00
  0.00000000E+00  0.00000000E+00  0.00000000E+00
  0.00000000E+00  0.00000000E+00  0.00000000E+00
  0.00000000E+00  0.00000000E+00  0.00000000E+00
  0.00000000E+00  0.00000000E+00  0.00000000E+00
  0.00000000E+00  0.00000000E+00  0.00000000E+00
  0.00000000E+00  0.00000000E+00  0.00000000E+00
  0.00000000E+00  0.00000000E+00  0.00000000E+00
  0.00000000E+00  0.00000000E+00  0.00000000E+00
  0.00000000E+00  0.00000000E+00  0.00000000E+00
  0.00000000E+00  0.00000000E+00  0.00000000E+00
  0.00000000E+00  0.00000000E+00  0.00000000E+00
  0.00000000E+00  0.00000000E+00  0.00000000E+00
  0.00000000E+00  0.00000000E+00  0.00000000E+00
  0.00000000E+00  0.00000000E+00  0.00000000E+00
  0.00000000E+00  0.00000000E+00  0.00000000E+00
  0.00000000E+00  0.00000000E+00  0.00000000E+00
  0.00000000E+00  0.00000000E+00  0.00000000E+00
  0.00000000E+00  0.00000000E+00  0.00000000E+00
  0.00000000E+00  0.00000000E+00  0.00000000E+00
  0.00000000E+00  0.00000000E+00  0.00000000E+00
  0.00000000E+00  0.00000000E+00  0.00000000E+00
  0.00000000E+00  0.00000000E+00  0.00000000E+00
  0.00000000E+00  0.00000000E+00  0.00000000E+00
  0.00000000E+00  0.00000000E+00  0.00000000E+00
  0.00000000E+00  0.00000000E+00  0.00000000E+00
  0.00000000E+00  0.00000000E+00  0.00000000E+00
  0.00000000E+00  0.00000000E+00  0.00000000E+00
  0.00000000E+00  0.00000000E+00  0.00000000E+00
  0.00000000E+00  0.00000000E+00  0.00000000E+00
  0.00000000E+00  0.00000000E+00  0.00000000E+00
  0.00000000E+00  0.00000000E+00  0.00000000E+00
  0.00000000E+00  0.00000000E+00  0.00000000E+00
  0.00000000E+00  0.00000000E+00  0.00000000E+00
  0.00000000E+00  0.00000000E+00  0.00000000E+00
  0.00000000E+00  0.00000000E+00  0.00000000E+00
  0.00000000E+00  0.00000000E+00  0.00000000E+00
  0.00000000E+00  0.00000000E+00  0.00000000E+00
  0.00000000E+00  0.00000000E+00  0.00000000E+00
  0.00000000E+00  0.00000000E+00  0.00000000E+00
  0.00000000E+00  0.00000000E+00  0.00000000E+00
  0.00000000E+00  0.00000000E+00  0.00000000E+00
  0.00000000E+00  0.00000000E+00  0.00000000E+00
  0.00000000E+00  0.00000000E+00  0.00000000E+00
  0.00000000E+00  0.00000000E+00  0.00000000E+00
  0.00000000E+00  0.00000000E+00  0.00000000E+00
  0.00000000E+00  0.00000000E+00  0.00000000E+00
  0.00000000E+00  0.00000000E+00  0.00000000E+00
  0.00000000E+00  0.00000000E+00  0.00000000E+00
