Bi La Sn C  O  H                        
   1.00000000000000     
    29.0000000000000000    0.0000000000000000    0.0000000000000000
     0.2488180851000000   28.9989325590000000    0.0000000000000000
    -0.0631677343000000   -0.4515975666000000   28.9964147692999994
   Bi   La   Sn   C    O    H 
    22    23    23     1     2     1
Selective dynamics
Direct
  0.7594726191614881  0.4781699788432532  0.3984486215969928   T   T   T
  0.6470418882550577  0.6848152598411839  0.5511756700570323   T   T   T
  0.3598630970701570  0.4582723325246867  0.4283101148368222   T   T   T
  0.5502359876988249  0.7146201480955353  0.5840282262320208   T   T   T
  0.5915029568994470  0.5209714444905416  0.5841479689498996   F   F   F
  0.6401083625459909  0.6798715496965759  0.4452933401143379   T   T   T
  0.6943352709390874  0.5169835696977498  0.6527103791006883   T   T   T
  0.4871769968338817  0.7016871441941589  0.4996911615803497   T   T   T
  0.5004839460855024  0.5502791173970252  0.5477141156400123   F   F   F
  0.3255951388113758  0.4856806629051898  0.5764150927161950   T   T   T
  0.3818306629892969  0.6097690590858522  0.5356615455653472   T   T   T
  0.6667129484492236  0.4827404655721850  0.5105018184570156   F   F   F
  0.5763997220267569  0.4263140504383500  0.5448328182496311   F   F   F
  0.6692415620339556  0.3731689974435421  0.5044493258741105   T   T   T
  0.4622871015102267  0.3386862515830180  0.4979343053307090   T   T   T
  0.6484934028780529  0.5775373212088155  0.4602701624361103   F   F   F
  0.5593980568281226  0.4364507817707077  0.7487870086279075   T   T   T
  0.5988714166769235  0.3501013311281586  0.6675558997040147   T   T   T
  0.4931046933168476  0.2999112954670768  0.4082810770567389   T   T   T
  0.6586333611565410  0.6214618401423067  0.6666491454600152   T   T   T
  0.4917768203277299  0.4101479757416114  0.3058676637901608   T   T   T
  0.6223958907740257  0.3158743739436938  0.5722937168493641   T   T   T
  0.5387449753834975  0.6832671032072266  0.4041595309373240   T   T   T
  0.3902968566963915  0.4158196002486528  0.5269646216911702   T   T   T
  0.6283022948154953  0.5522108833089662  0.2830345573907625   T   T   T
  0.4726412509926942  0.4748370536424357  0.6924285849658741   T   T   T
  0.5683115009887700  0.5094300495444983  0.4784716241115703   F   F   F
  0.4203210565129183  0.5084107200613417  0.5018573595042781   F   F   F
  0.4520922756054476  0.4011973809720060  0.4058806412181326   T   T   T
  0.5641441525611034  0.3494845188175207  0.3532014144237429   T   T   T
  0.4115644174887452  0.5398092388121168  0.6102241060972806   T   T   T
  0.5985614680510656  0.4426486205122423  0.3035149406933056   T   T   T
  0.4548661558669024  0.5998049997524083  0.3634977532824363   T   T   T
  0.4182667005645497  0.4873524488074397  0.3400409798158339   T   T   T
  0.6618499377539051  0.4247905491545448  0.6021968798391965   T   T   T
  0.6735100742858289  0.5790400301602078  0.5649359494905069   T   T   T
  0.5259570252129719  0.5093849509674029  0.3280597581767553   T   T   T
  0.5657655356119609  0.3570046475600520  0.4695514714104981   T   T   T
  0.3154686739934627  0.5405126310549531  0.4922342329409145   T   T   T
  0.6602465036544114  0.4300978802268148  0.4150085681796921   T   T   T
  0.5660841929594156  0.6261437171197244  0.5094829013827464   F   F   F
  0.5961352223868198  0.5294758598185327  0.6897313390649330   T   T   T
  0.4696105438905548  0.6421912671692354  0.5877151817306374   T   T   T
  0.4627781057813402  0.6035761032198053  0.4640185410826541   T   T   T
  0.7159893638337556  0.5736454123823018  0.3829138969844201   T   T   T
  0.5499310510395361  0.5822218838566187  0.4076968008106903   F   F   F
  0.4794126430662260  0.5072205383607624  0.4190535757241776   F   F   F
  0.6950233903670335  0.4801907514707588  0.3237644340565683   T   T   T
  0.7521864577749688  0.4298991690875481  0.4880288601521580   T   T   T
  0.7481631081863773  0.5374280538190781  0.4848706305369053   T   T   T
  0.7487508014666618  0.4900923935955412  0.5733399215331689   T   T   T
  0.6487977385483535  0.4352010349816526  0.7061263528627043   T   T   T
  0.5774350102433027  0.7436248873762744  0.4925317701542765   T   T   T
  0.6192554540844384  0.5183157687966542  0.3801816896793397   F   F   F
  0.5054190653840859  0.5623477149741463  0.6504210919306922   T   T   T
  0.4922009500451665  0.4366758245867572  0.4933013002826740   F   F   F
  0.5608844484509063  0.4404139570509003  0.6454865549417619   F   F   F
  0.5766654539619596  0.6167330145451418  0.6126008903010912   T   T   T
  0.5437476657485066  0.6173662907798659  0.3122866848414546   T   T   T
  0.6269344019613102  0.6254112480479561  0.3599723689880260   T   T   T
  0.3767534439090612  0.5571873787136914  0.4133749957795510   T   T   T
  0.4723078164089713  0.4557257050327763  0.5877273803360978   F   F   F
  0.7273741751677917  0.6346236221945112  0.4849577103137642   T   T   T
  0.5000367322939506  0.3718279661397473  0.6835189824503295   T   T   T
  0.3834872222577710  0.4398246585691861  0.6403277451919935   T   T   T
  0.5544592502646992  0.4379899399457940  0.4037542370104745   F   F   F
  0.4347047935063157  0.3613676747137030  0.6076356737356213   T   T   T
  0.5283030504911770  0.3482492629035226  0.5776489764652859   T   T   T
  0.6384193576620723  0.7003833158476322  0.6760517369315704   T   T   T
  0.6011567294013996  0.7207811740185698  0.6739577859189140   T   T   T
  0.6782028524507164  0.7237695074530753  0.6871007643193190   T   T   T
  0.6695795534217364  0.7565021187649630  0.6913937553615295   T   T   T
 
  0.00000000E+00  0.00000000E+00  0.00000000E+00
  0.00000000E+00  0.00000000E+00  0.00000000E+00
  0.00000000E+00  0.00000000E+00  0.00000000E+00
  0.00000000E+00  0.00000000E+00  0.00000000E+00
  0.00000000E+00  0.00000000E+00  0.00000000E+00
  0.00000000E+00  0.00000000E+00  0.00000000E+00
  0.00000000E+00  0.00000000E+00  0.00000000E+00
  0.00000000E+00  0.00000000E+00  0.00000000E+00
  0.00000000E+00  0.00000000E+00  0.00000000E+00
  0.00000000E+00  0.00000000E+00  0.00000000E+00
  0.00000000E+00  0.00000000E+00  0.00000000E+00
  0.00000000E+00  0.00000000E+00  0.00000000E+00
  0.00000000E+00  0.00000000E+00  0.00000000E+00
  0.00000000E+00  0.00000000E+00  0.00000000E+00
  0.00000000E+00  0.00000000E+00  0.00000000E+00
  0.00000000E+00  0.00000000E+00  0.00000000E+00
  0.00000000E+00  0.00000000E+00  0.00000000E+00
  0.00000000E+00  0.00000000E+00  0.00000000E+00
  0.00000000E+00  0.00000000E+00  0.00000000E+00
  0.00000000E+00  0.00000000E+00  0.00000000E+00
  0.00000000E+00  0.00000000E+00  0.00000000E+00
  0.00000000E+00  0.00000000E+00  0.00000000E+00
  0.00000000E+00  0.00000000E+00  0.00000000E+00
  0.00000000E+00  0.00000000E+00  0.00000000E+00
  0.00000000E+00  0.00000000E+00  0.00000000E+00
  0.00000000E+00  0.00000000E+00  0.00000000E+00
  0.00000000E+00  0.00000000E+00  0.00000000E+00
  0.00000000E+00  0.00000000E+00  0.00000000E+00
  0.00000000E+00  0.00000000E+00  0.00000000E+00
  0.00000000E+00  0.00000000E+00  0.00000000E+00
  0.00000000E+00  0.00000000E+00  0.00000000E+00
  0.00000000E+00  0.00000000E+00  0.00000000E+00
  0.00000000E+00  0.00000000E+00  0.00000000E+00
  0.00000000E+00  0.00000000E+00  0.00000000E+00
  0.00000000E+00  0.00000000E+00  0.00000000E+00
  0.00000000E+00  0.00000000E+00  0.00000000E+00
  0.00000000E+00  0.00000000E+00  0.00000000E+00
  0.00000000E+00  0.00000000E+00  0.00000000E+00
  0.00000000E+00  0.00000000E+00  0.00000000E+00
  0.00000000E+00  0.00000000E+00  0.00000000E+00
  0.00000000E+00  0.00000000E+00  0.00000000E+00
  0.00000000E+00  0.00000000E+00  0.00000000E+00
  0.00000000E+00  0.00000000E+00  0.00000000E+00
  0.00000000E+00  0.00000000E+00  0.00000000E+00
  0.00000000E+00  0.00000000E+00  0.00000000E+00
  0.00000000E+00  0.00000000E+00  0.00000000E+00
  0.00000000E+00  0.00000000E+00  0.00000000E+00
  0.00000000E+00  0.00000000E+00  0.00000000E+00
  0.00000000E+00  0.00000000E+00  0.00000000E+00
  0.00000000E+00  0.00000000E+00  0.00000000E+00
  0.00000000E+00  0.00000000E+00  0.00000000E+00
  0.00000000E+00  0.00000000E+00  0.00000000E+00
  0.00000000E+00  0.00000000E+00  0.00000000E+00
  0.00000000E+00  0.00000000E+00  0.00000000E+00
  0.00000000E+00  0.00000000E+00  0.00000000E+00
  0.00000000E+00  0.00000000E+00  0.00000000E+00
  0.00000000E+00  0.00000000E+00  0.00000000E+00
  0.00000000E+00  0.00000000E+00  0.00000000E+00
  0.00000000E+00  0.00000000E+00  0.00000000E+00
  0.00000000E+00  0.00000000E+00  0.00000000E+00
  0.00000000E+00  0.00000000E+00  0.00000000E+00
  0.00000000E+00  0.00000000E+00  0.00000000E+00
  0.00000000E+00  0.00000000E+00  0.00000000E+00
  0.00000000E+00  0.00000000E+00  0.00000000E+00
  0.00000000E+00  0.00000000E+00  0.00000000E+00
  0.00000000E+00  0.00000000E+00  0.00000000E+00
  0.00000000E+00  0.00000000E+00  0.00000000E+00
  0.00000000E+00  0.00000000E+00  0.00000000E+00
  0.00000000E+00  0.00000000E+00  0.00000000E+00
  0.00000000E+00  0.00000000E+00  0.00000000E+00
  0.00000000E+00  0.00000000E+00  0.00000000E+00
  0.00000000E+00  0.00000000E+00  0.00000000E+00
