Bi La Sn C  O  H                        
   1.00000000000000     
    29.0000000000000000    0.0000000000000000    0.0000000000000000
     0.2488180851000000   28.9989325590000000    0.0000000000000000
    -0.0631677343000000   -0.4515975666000000   28.9964147692999994
   Bi   La   Sn   C    O    H 
    22    23    23     1     2     1
Selective dynamics
Direct
  0.7605092199592045  0.4767666604149395  0.3995846176723415   T   T   T
  0.6489817050986715  0.6827471370788033  0.5522507375085616   T   T   T
  0.3596515702883824  0.4588203411066639  0.4273346249154651   T   T   T
  0.5528126236522284  0.7139160777395036  0.5846307242926156   T   T   T
  0.5915029568994470  0.5209714444905416  0.5841479689498996   F   F   F
  0.6418633523338322  0.6803294105587362  0.4467884741245239   T   T   T
  0.6956733112752750  0.5193393433935509  0.6544454707928234   T   T   T
  0.4891726979771177  0.7028115851618592  0.4987634694089079   T   T   T
  0.5004839460855024  0.5502791173970252  0.5477141156400123   F   F   F
  0.3280941279314029  0.4854908361539403  0.5781924835865805   T   T   T
  0.3829930408955131  0.6090408973447766  0.5382013000404238   T   T   T
  0.6667129484492236  0.4827404655721850  0.5105018184570156   F   F   F
  0.5763997220267569  0.4263140504383500  0.5448328182496311   F   F   F
  0.6678827485768785  0.3730669095246611  0.5064791465189040   T   T   T
  0.4607506848707191  0.3378013939877789  0.4946349130246749   T   T   T
  0.6484934028780529  0.5775373212088155  0.4602701624361103   F   F   F
  0.5546808970969449  0.4354729605073732  0.7494568952928070   T   T   T
  0.5918992881627363  0.3488714668701929  0.6673935392494993   T   T   T
  0.4928009857686350  0.3005845201505787  0.4048981622868522   T   T   T
  0.6620212247331007  0.6154227769419168  0.6674738435761653   T   T   T
  0.4924856802082150  0.4102493977043317  0.3047912503164379   T   T   T
  0.6195133153847107  0.3162253194903578  0.5727318020392284   T   T   T
  0.5411611513224098  0.6865470169970841  0.4027976830266933   T   T   T
  0.3897861771408310  0.4157529351759839  0.5253405778259408   T   T   T
  0.6299567155589197  0.5519934890766801  0.2834055806474023   T   T   T
  0.4730363229350708  0.4807313828841491  0.6926254918288691   T   T   T
  0.5683115009887700  0.5094300495444983  0.4784716241115703   F   F   F
  0.4203210565129183  0.5084107200613417  0.5018573595042781   F   F   F
  0.4524687497012403  0.4020389560859522  0.4046871719722803   T   T   T
  0.5650356006572201  0.3499175328909345  0.3521716914777397   T   T   T
  0.4136752280459693  0.5392934360379184  0.6123973240612417   T   T   T
  0.5994804910913861  0.4425915404701407  0.3041662080048042   T   T   T
  0.4551056587297551  0.5996212471876842  0.3633284646900851   T   T   T
  0.4187930074616872  0.4872092528021690  0.3396056816200291   T   T   T
  0.6604867900529734  0.4259393059317852  0.6044784945330367   T   T   T
  0.6748968893214450  0.5773605267607227  0.5645262124710032   T   T   T
  0.5262351498432182  0.5091687115050155  0.3278024137447039   T   T   T
  0.5648613205907087  0.3566586319287559  0.4691035813304519   T   T   T
  0.3167289302787949  0.5404746454454933  0.4936909765336940   T   T   T
  0.6598476406959732  0.4292367301850774  0.4157708156827918   T   T   T
  0.5660841929594156  0.6261437171197244  0.5094829013827464   F   F   F
  0.5958884394308734  0.5271095011358148  0.6900218577927995   T   T   T
  0.4716089012151151  0.6432687235374435  0.5872210820485604   T   T   T
  0.4620243613315971  0.6043259093502525  0.4642948285983834   T   T   T
  0.7169708382190511  0.5724362603714811  0.3838144394218996   T   T   T
  0.5499310510395361  0.5822218838566187  0.4076968008106903   F   F   F
  0.4794126430662260  0.5072205383607624  0.4190535757241776   F   F   F
  0.6957884953916520  0.4794283760441159  0.3250890228488117   T   T   T
  0.7509162631843295  0.4274676007948565  0.4878271740910067   T   T   T
  0.7489868448964905  0.5369035798350772  0.4859069043945530   T   T   T
  0.7488433079043443  0.4878577039271501  0.5724142189813091   T   T   T
  0.6442960557074512  0.4313133733401756  0.7086395763135129   T   T   T
  0.5805349415394364  0.7455369004921407  0.4939868637052904   T   T   T
  0.6192554540844384  0.5183157687966542  0.3801816896793397   F   F   F
  0.5076952049459106  0.5657903718391966  0.6503132723167220   T   T   T
  0.4922009500451665  0.4366758245867572  0.4933013002826740   F   F   F
  0.5608844484509063  0.4404139570509003  0.6454865549417619   F   F   F
  0.5801983163765639  0.6173811047054152  0.6123903747808335   T   T   T
  0.5456416599955730  0.6164457457454832  0.3131882594478325   T   T   T
  0.6288317549427980  0.6254482467975593  0.3613585722776444   T   T   T
  0.3767178440019194  0.5570182602394500  0.4132035285218121   T   T   T
  0.4723078164089713  0.4557257050327763  0.5877273803360978   F   F   F
  0.7283658281869156  0.6339262111207187  0.4847199191694972   T   T   T
  0.4922705020361544  0.3775042937978493  0.6777168909765905   T   T   T
  0.3873263404540182  0.4367719413958456  0.6403414347610860   T   T   T
  0.5544592502646992  0.4379899399457940  0.4037542370104745   F   F   F
  0.4303588006121126  0.3558450510017303  0.6016371800591539   T   T   T
  0.5248236821418617  0.3494488877096054  0.5752794552734799   T   T   T
  0.5766662363590490  0.7633788544969958  0.3918500647465835   T   T   T
  0.5409815960587643  0.7644907609423230  0.3664594436387955   T   T   T
  0.6047852460648333  0.8004236364995325  0.3926232680777151   T   T   T
  0.5916440747278274  0.8238358825995277  0.3718693747906934   T   T   T
 
  0.00000000E+00  0.00000000E+00  0.00000000E+00
  0.00000000E+00  0.00000000E+00  0.00000000E+00
  0.00000000E+00  0.00000000E+00  0.00000000E+00
  0.00000000E+00  0.00000000E+00  0.00000000E+00
  0.00000000E+00  0.00000000E+00  0.00000000E+00
  0.00000000E+00  0.00000000E+00  0.00000000E+00
  0.00000000E+00  0.00000000E+00  0.00000000E+00
  0.00000000E+00  0.00000000E+00  0.00000000E+00
  0.00000000E+00  0.00000000E+00  0.00000000E+00
  0.00000000E+00  0.00000000E+00  0.00000000E+00
  0.00000000E+00  0.00000000E+00  0.00000000E+00
  0.00000000E+00  0.00000000E+00  0.00000000E+00
  0.00000000E+00  0.00000000E+00  0.00000000E+00
  0.00000000E+00  0.00000000E+00  0.00000000E+00
  0.00000000E+00  0.00000000E+00  0.00000000E+00
  0.00000000E+00  0.00000000E+00  0.00000000E+00
  0.00000000E+00  0.00000000E+00  0.00000000E+00
  0.00000000E+00  0.00000000E+00  0.00000000E+00
  0.00000000E+00  0.00000000E+00  0.00000000E+00
  0.00000000E+00  0.00000000E+00  0.00000000E+00
  0.00000000E+00  0.00000000E+00  0.00000000E+00
  0.00000000E+00  0.00000000E+00  0.00000000E+00
  0.00000000E+00  0.00000000E+00  0.00000000E+00
  0.00000000E+00  0.00000000E+00  0.00000000E+00
  0.00000000E+00  0.00000000E+00  0.00000000E+00
  0.00000000E+00  0.00000000E+00  0.00000000E+00
  0.00000000E+00  0.00000000E+00  0.00000000E+00
  0.00000000E+00  0.00000000E+00  0.00000000E+00
  0.00000000E+00  0.00000000E+00  0.00000000E+00
  0.00000000E+00  0.00000000E+00  0.00000000E+00
  0.00000000E+00  0.00000000E+00  0.00000000E+00
  0.00000000E+00  0.00000000E+00  0.00000000E+00
  0.00000000E+00  0.00000000E+00  0.00000000E+00
  0.00000000E+00  0.00000000E+00  0.00000000E+00
  0.00000000E+00  0.00000000E+00  0.00000000E+00
  0.00000000E+00  0.00000000E+00  0.00000000E+00
  0.00000000E+00  0.00000000E+00  0.00000000E+00
  0.00000000E+00  0.00000000E+00  0.00000000E+00
  0.00000000E+00  0.00000000E+00  0.00000000E+00
  0.00000000E+00  0.00000000E+00  0.00000000E+00
  0.00000000E+00  0.00000000E+00  0.00000000E+00
  0.00000000E+00  0.00000000E+00  0.00000000E+00
  0.00000000E+00  0.00000000E+00  0.00000000E+00
  0.00000000E+00  0.00000000E+00  0.00000000E+00
  0.00000000E+00  0.00000000E+00  0.00000000E+00
  0.00000000E+00  0.00000000E+00  0.00000000E+00
  0.00000000E+00  0.00000000E+00  0.00000000E+00
  0.00000000E+00  0.00000000E+00  0.00000000E+00
  0.00000000E+00  0.00000000E+00  0.00000000E+00
  0.00000000E+00  0.00000000E+00  0.00000000E+00
  0.00000000E+00  0.00000000E+00  0.00000000E+00
  0.00000000E+00  0.00000000E+00  0.00000000E+00
  0.00000000E+00  0.00000000E+00  0.00000000E+00
  0.00000000E+00  0.00000000E+00  0.00000000E+00
  0.00000000E+00  0.00000000E+00  0.00000000E+00
  0.00000000E+00  0.00000000E+00  0.00000000E+00
  0.00000000E+00  0.00000000E+00  0.00000000E+00
  0.00000000E+00  0.00000000E+00  0.00000000E+00
  0.00000000E+00  0.00000000E+00  0.00000000E+00
  0.00000000E+00  0.00000000E+00  0.00000000E+00
  0.00000000E+00  0.00000000E+00  0.00000000E+00
  0.00000000E+00  0.00000000E+00  0.00000000E+00
  0.00000000E+00  0.00000000E+00  0.00000000E+00
  0.00000000E+00  0.00000000E+00  0.00000000E+00
  0.00000000E+00  0.00000000E+00  0.00000000E+00
  0.00000000E+00  0.00000000E+00  0.00000000E+00
  0.00000000E+00  0.00000000E+00  0.00000000E+00
  0.00000000E+00  0.00000000E+00  0.00000000E+00
  0.00000000E+00  0.00000000E+00  0.00000000E+00
  0.00000000E+00  0.00000000E+00  0.00000000E+00
  0.00000000E+00  0.00000000E+00  0.00000000E+00
  0.00000000E+00  0.00000000E+00  0.00000000E+00
