Bi La Sn C  O  H                        
   1.00000000000000     
    29.0000000000000000    0.0000000000000000    0.0000000000000000
     0.2488180851000000   28.9989325590000000    0.0000000000000000
    -0.0631677343000000   -0.4515975666000000   28.9964147692999994
   Bi   La   Sn   C    O    H 
    22    23    23     1     2     1
Selective dynamics
Direct
  0.7597150156507881  0.4785058594203908  0.3992959500317054   T   T   T
  0.6467965588349004  0.6843821755678463  0.5522324799038055   T   T   T
  0.3599125516187145  0.4583784514260679  0.4279795951631310   T   T   T
  0.5503301315155388  0.7129449610212227  0.5845114634380711   T   T   T
  0.5915029568994470  0.5209714444905416  0.5841479689498996   F   F   F
  0.6400240661902538  0.6801835165862617  0.4458246095729784   T   T   T
  0.6993566371587555  0.5240396642812835  0.6548934865657416   T   T   T
  0.4860536534673154  0.7006406843590404  0.4996687233375599   T   T   T
  0.5004839460855024  0.5502791173970252  0.5477141156400123   F   F   F
  0.3253013513162885  0.4866466956032717  0.5753382160530136   T   T   T
  0.3819863969587730  0.6104107616439134  0.5353896641572110   T   T   T
  0.6667129484492236  0.4827404655721850  0.5105018184570156   F   F   F
  0.5763997220267569  0.4263140504383500  0.5448328182496311   F   F   F
  0.6683488508227656  0.3742382781144810  0.5076419716838851   T   T   T
  0.4633366063813513  0.3397035406789772  0.5009032693421027   T   T   T
  0.6484934028780529  0.5775373212088155  0.4602701624361103   F   F   F
  0.5627769216117063  0.4373129089985907  0.7491159204250597   T   T   T
  0.6072430921997726  0.3548724061217802  0.6702220399566052   T   T   T
  0.4916470742769276  0.2988728331515329  0.4112253285625625   T   T   T
  0.6602756752318937  0.6194985048272346  0.6656159890456776   T   T   T
  0.4914106830093654  0.4100744078734779  0.3060824502668365   T   T   T
  0.6214215699562526  0.3163360788163902  0.5735935350592204   T   T   T
  0.5388210319713097  0.6835222814964141  0.4045157990173343   T   T   T
  0.3899174747355882  0.4160609938469295  0.5275950024722141   T   T   T
  0.6287674831034856  0.5520339879606021  0.2825950561920769   T   T   T
  0.4736699201626874  0.4696715974213048  0.6930671247108323   T   T   T
  0.5683115009887700  0.5094300495444983  0.4784716241115703   F   F   F
  0.4203210565129183  0.5084107200613417  0.5018573595042781   F   F   F
  0.4524740494063987  0.4006793650370410  0.4065934067739924   T   T   T
  0.5618967735061071  0.3483987579511424  0.3541743251156562   T   T   T
  0.4116643507895988  0.5404291530320555  0.6101524535558412   T   T   T
  0.5989424975952616  0.4419034133902618  0.3046312464234358   T   T   T
  0.4549018907357797  0.6001202397110941  0.3634181684818094   T   T   T
  0.4183564637675916  0.4872381130744771  0.3395171000772382   T   T   T
  0.6609905042180469  0.4300551177681022  0.6050623932313126   T   T   T
  0.6734174000918265  0.5781691086898474  0.5641129241268908   T   T   T
  0.5262109933708491  0.5091808143712231  0.3280000207426242   T   T   T
  0.5659245886659386  0.3572648367725714  0.4691914672506637   T   T   T
  0.3153720513171081  0.5417257722268662  0.4916102458110490   T   T   T
  0.6601975504001395  0.4295088781952669  0.4162345391617205   T   T   T
  0.5660841929594156  0.6261437171197244  0.5094829013827464   F   F   F
  0.5985013596426800  0.5286873873531943  0.6889288267800646   T   T   T
  0.4700188239724542  0.6409132117158429  0.5886686412204170   T   T   T
  0.4623810217358001  0.6031453539118963  0.4636646693902432   T   T   T
  0.7163510713683281  0.5740382162503928  0.3832960964318308   T   T   T
  0.5499310510395361  0.5822218838566187  0.4076968008106903   F   F   F
  0.4794126430662260  0.5072205383607624  0.4190535757241776   F   F   F
  0.6949985747313400  0.4804457057208621  0.3248997046998305   T   T   T
  0.7515680982182060  0.4291871255503464  0.4880401154529385   T   T   T
  0.7483424119427926  0.5381531390451979  0.4852891448675816   T   T   T
  0.7495745910163520  0.4904387558812504  0.5721246597279219   T   T   T
  0.6542286526910788  0.4392447875369337  0.7092593400437384   T   T   T
  0.5764594572435672  0.7430284968004550  0.4931534774915853   T   T   T
  0.6192554540844384  0.5183157687966542  0.3801816896793397   F   F   F
  0.5061970604248759  0.5584673878028618  0.6503508904967537   T   T   T
  0.4922009500451665  0.4366758245867572  0.4933013002826740   F   F   F
  0.5608844484509063  0.4404139570509003  0.6454865549417619   F   F   F
  0.5772557986658113  0.6161772195590226  0.6134663221219395   T   T   T
  0.5442050445774235  0.6165917014403133  0.3122716679400260   T   T   T
  0.6270348671648922  0.6251616444260919  0.3607070900134951   T   T   T
  0.3769281103817028  0.5565041299867669  0.4125440680649182   T   T   T
  0.4723078164089713  0.4557257050327763  0.5877273803360978   F   F   F
  0.7270582784865371  0.6351182947184159  0.4850019440215095   T   T   T
  0.5053289048388960  0.3678415071631218  0.6832439240479090   T   T   T
  0.3826277997098303  0.4423379845747283  0.6405877205102055   T   T   T
  0.5544592502646992  0.4379899399457940  0.4037542370104745   F   F   F
  0.4329851016135617  0.3635023844318870  0.6103136155598552   T   T   T
  0.5281956655160909  0.3497296278340507  0.5811077485594246   T   T   T
  0.6983601151431595  0.4230325132904133  0.7706456328696490   T   T   T
  0.6863964182980731  0.4034359861578710  0.8055556898933169   T   T   T
  0.7435439049639273  0.4358008570338849  0.7633942967357744   T   T   T
  0.7608616522678082  0.4258770194727919  0.7908629860161208   T   T   T
 
  0.00000000E+00  0.00000000E+00  0.00000000E+00
  0.00000000E+00  0.00000000E+00  0.00000000E+00
  0.00000000E+00  0.00000000E+00  0.00000000E+00
  0.00000000E+00  0.00000000E+00  0.00000000E+00
  0.00000000E+00  0.00000000E+00  0.00000000E+00
  0.00000000E+00  0.00000000E+00  0.00000000E+00
  0.00000000E+00  0.00000000E+00  0.00000000E+00
  0.00000000E+00  0.00000000E+00  0.00000000E+00
  0.00000000E+00  0.00000000E+00  0.00000000E+00
  0.00000000E+00  0.00000000E+00  0.00000000E+00
  0.00000000E+00  0.00000000E+00  0.00000000E+00
  0.00000000E+00  0.00000000E+00  0.00000000E+00
  0.00000000E+00  0.00000000E+00  0.00000000E+00
  0.00000000E+00  0.00000000E+00  0.00000000E+00
  0.00000000E+00  0.00000000E+00  0.00000000E+00
  0.00000000E+00  0.00000000E+00  0.00000000E+00
  0.00000000E+00  0.00000000E+00  0.00000000E+00
  0.00000000E+00  0.00000000E+00  0.00000000E+00
  0.00000000E+00  0.00000000E+00  0.00000000E+00
  0.00000000E+00  0.00000000E+00  0.00000000E+00
  0.00000000E+00  0.00000000E+00  0.00000000E+00
  0.00000000E+00  0.00000000E+00  0.00000000E+00
  0.00000000E+00  0.00000000E+00  0.00000000E+00
  0.00000000E+00  0.00000000E+00  0.00000000E+00
  0.00000000E+00  0.00000000E+00  0.00000000E+00
  0.00000000E+00  0.00000000E+00  0.00000000E+00
  0.00000000E+00  0.00000000E+00  0.00000000E+00
  0.00000000E+00  0.00000000E+00  0.00000000E+00
  0.00000000E+00  0.00000000E+00  0.00000000E+00
  0.00000000E+00  0.00000000E+00  0.00000000E+00
  0.00000000E+00  0.00000000E+00  0.00000000E+00
  0.00000000E+00  0.00000000E+00  0.00000000E+00
  0.00000000E+00  0.00000000E+00  0.00000000E+00
  0.00000000E+00  0.00000000E+00  0.00000000E+00
  0.00000000E+00  0.00000000E+00  0.00000000E+00
  0.00000000E+00  0.00000000E+00  0.00000000E+00
  0.00000000E+00  0.00000000E+00  0.00000000E+00
  0.00000000E+00  0.00000000E+00  0.00000000E+00
  0.00000000E+00  0.00000000E+00  0.00000000E+00
  0.00000000E+00  0.00000000E+00  0.00000000E+00
  0.00000000E+00  0.00000000E+00  0.00000000E+00
  0.00000000E+00  0.00000000E+00  0.00000000E+00
  0.00000000E+00  0.00000000E+00  0.00000000E+00
  0.00000000E+00  0.00000000E+00  0.00000000E+00
  0.00000000E+00  0.00000000E+00  0.00000000E+00
  0.00000000E+00  0.00000000E+00  0.00000000E+00
  0.00000000E+00  0.00000000E+00  0.00000000E+00
  0.00000000E+00  0.00000000E+00  0.00000000E+00
  0.00000000E+00  0.00000000E+00  0.00000000E+00
  0.00000000E+00  0.00000000E+00  0.00000000E+00
  0.00000000E+00  0.00000000E+00  0.00000000E+00
  0.00000000E+00  0.00000000E+00  0.00000000E+00
  0.00000000E+00  0.00000000E+00  0.00000000E+00
  0.00000000E+00  0.00000000E+00  0.00000000E+00
  0.00000000E+00  0.00000000E+00  0.00000000E+00
  0.00000000E+00  0.00000000E+00  0.00000000E+00
  0.00000000E+00  0.00000000E+00  0.00000000E+00
  0.00000000E+00  0.00000000E+00  0.00000000E+00
  0.00000000E+00  0.00000000E+00  0.00000000E+00
  0.00000000E+00  0.00000000E+00  0.00000000E+00
  0.00000000E+00  0.00000000E+00  0.00000000E+00
  0.00000000E+00  0.00000000E+00  0.00000000E+00
  0.00000000E+00  0.00000000E+00  0.00000000E+00
  0.00000000E+00  0.00000000E+00  0.00000000E+00
  0.00000000E+00  0.00000000E+00  0.00000000E+00
  0.00000000E+00  0.00000000E+00  0.00000000E+00
  0.00000000E+00  0.00000000E+00  0.00000000E+00
  0.00000000E+00  0.00000000E+00  0.00000000E+00
  0.00000000E+00  0.00000000E+00  0.00000000E+00
  0.00000000E+00  0.00000000E+00  0.00000000E+00
  0.00000000E+00  0.00000000E+00  0.00000000E+00
  0.00000000E+00  0.00000000E+00  0.00000000E+00
