Bi La Sn C  O  H                        
   1.00000000000000     
    29.0000000000000000    0.0000000000000000    0.0000000000000000
     0.2488180851000000   28.9989325590000000    0.0000000000000000
    -0.0631677343000000   -0.4515975666000000   28.9964147692999994
   Bi   La   Sn   C    O    H 
    22    23    23     1     2     1
Selective dynamics
Direct
  0.7603360510519175  0.4760918527932582  0.3994320629229133   T   T   T
  0.6459690546787455  0.6845039583099062  0.5527478305866407   T   T   T
  0.3613356432294365  0.4593081915517550  0.4269028460706253   T   T   T
  0.5500347313620125  0.7130994449637771  0.5853258508594954   T   T   T
  0.5915029568994470  0.5209714444905416  0.5841479689498996   F   F   F
  0.6399632243667283  0.6814749294614024  0.4457788037681321   T   T   T
  0.6959883252831210  0.5224348237425015  0.6537596488511482   T   T   T
  0.4856368311778149  0.7004390348505726  0.5006813908374129   T   T   T
  0.5004839460855024  0.5502791173970252  0.5477141156400123   F   F   F
  0.3251508850993056  0.4869928658675552  0.5736377631028196   T   T   T
  0.3827639489479754  0.6108269137331305  0.5354867919003732   T   T   T
  0.6667129484492236  0.4827404655721850  0.5105018184570156   F   F   F
  0.5763997220267569  0.4263140504383500  0.5448328182496311   F   F   F
  0.6682069976984105  0.3738307269456687  0.5059331582624099   T   T   T
  0.4630588088919680  0.3383322121828169  0.5000008417803888   T   T   T
  0.6484934028780529  0.5775373212088155  0.4602701624361103   F   F   F
  0.5587359341031997  0.4365691430082193  0.7494136784632374   T   T   T
  0.6039876357238518  0.3516651596877310  0.6694144968642664   T   T   T
  0.4922060122312706  0.2984362196767401  0.4102257566258553   T   T   T
  0.6599365507615291  0.6186471256632663  0.6657421108226259   T   T   T
  0.4932769091013570  0.4104431075306487  0.3076605839141031   T   T   T
  0.6220419896382817  0.3167331160599288  0.5731561651947202   T   T   T
  0.5383737914321051  0.6841170898569487  0.4049972751297568   T   T   T
  0.3903741226429142  0.4155638618937700  0.5270006345799126   T   T   T
  0.6301215551988671  0.5528142569484591  0.2837006868206144   T   T   T
  0.4711429596141020  0.4704940503600242  0.6919157259299432   T   T   T
  0.5683115009887700  0.5094300495444983  0.4784716241115703   F   F   F
  0.4203210565129183  0.5084107200613417  0.5018573595042781   F   F   F
  0.4527444904289174  0.4004048429528133  0.4071253400758246   T   T   T
  0.5637903088421597  0.3478952271596667  0.3550079592551731   T   T   T
  0.4109569548929159  0.5402029502053182  0.6098667435743944   T   T   T
  0.5996957327026508  0.4417999911759985  0.3045569956823231   T   T   T
  0.4546628653142429  0.6036022096890098  0.3603675474086993   T   T   T
  0.4199528824551108  0.4887870819494000  0.3376636548941305   T   T   T
  0.6612351184608757  0.4283043082284959  0.6040436853669291   T   T   T
  0.6733735318320251  0.5785730312015138  0.5637023729632026   T   T   T
  0.5266180864545813  0.5101779480141926  0.3280697769392464   T   T   T
  0.5654649127006262  0.3574908242936951  0.4689599803392566   T   T   T
  0.3168940471263024  0.5429297895345897  0.4901557971094292   T   T   T
  0.6601849865877523  0.4295480807416659  0.4155259935282226   T   T   T
  0.5660841929594156  0.6261437171197244  0.5094829013827464   F   F   F
  0.5959872259249748  0.5287783234935722  0.6898273843153513   T   T   T
  0.4701580381966883  0.6413753377345293  0.5897767206428104   T   T   T
  0.4629344386415460  0.6029686460785233  0.4639175963679438   T   T   T
  0.7174405945572563  0.5721916483472268  0.3838454689207303   T   T   T
  0.5499310510395361  0.5822218838566187  0.4076968008106903   F   F   F
  0.4794126430662260  0.5072205383607624  0.4190535757241776   F   F   F
  0.6957456869554323  0.4798018948348705  0.3247603159898158   T   T   T
  0.7514369852214260  0.4282906097472991  0.4888421437091655   T   T   T
  0.7486033414232142  0.5372691758738881  0.4851669994655868   T   T   T
  0.7493138571829530  0.4903095735643134  0.5723538788095519   T   T   T
  0.6485461740071267  0.4371748004921536  0.7084919721082471   T   T   T
  0.5760715193616215  0.7428189878749422  0.4937117295705246   T   T   T
  0.6192554540844384  0.5183157687966542  0.3801816896793397   F   F   F
  0.5048148233926347  0.5590710166793555  0.6505137446417869   T   T   T
  0.4922009500451665  0.4366758245867572  0.4933013002826740   F   F   F
  0.5608844484509063  0.4404139570509003  0.6454865549417619   F   F   F
  0.5767969233408277  0.6160647857862939  0.6138091752824468   T   T   T
  0.5469006052108449  0.6185785135075588  0.3137321446012389   T   T   T
  0.6298918512365047  0.6254265354553306  0.3623587906186603   T   T   T
  0.3782633385554703  0.5563713283561240  0.4109753100361878   T   T   T
  0.4723078164089713  0.4557257050327763  0.5877273803360978   F   F   F
  0.7269912625276777  0.6346069229989724  0.4842730032135726   T   T   T
  0.5039923756135990  0.3684664645135332  0.6849771041820814   T   T   T
  0.3804142541724857  0.4414943694647327  0.6397319338529025   T   T   T
  0.5544592502646992  0.4379899399457940  0.4037542370104745   F   F   F
  0.4345316163665057  0.3642347210203137  0.6109409536858182   T   T   T
  0.5280987137434636  0.3492591819981142  0.5797903461195596   T   T   T
  0.4454764008689719  0.6322571209742760  0.2819680308388876   T   T   T
  0.4234177106234251  0.6630896214306947  0.3044243754429130   T   T   T
  0.4496803528521119  0.6369094083488454  0.2356054885367635   T   T   T
  0.4338504245868647  0.6660229568533901  0.2273049415700601   T   T   T
 
  0.00000000E+00  0.00000000E+00  0.00000000E+00
  0.00000000E+00  0.00000000E+00  0.00000000E+00
  0.00000000E+00  0.00000000E+00  0.00000000E+00
  0.00000000E+00  0.00000000E+00  0.00000000E+00
  0.00000000E+00  0.00000000E+00  0.00000000E+00
  0.00000000E+00  0.00000000E+00  0.00000000E+00
  0.00000000E+00  0.00000000E+00  0.00000000E+00
  0.00000000E+00  0.00000000E+00  0.00000000E+00
  0.00000000E+00  0.00000000E+00  0.00000000E+00
  0.00000000E+00  0.00000000E+00  0.00000000E+00
  0.00000000E+00  0.00000000E+00  0.00000000E+00
  0.00000000E+00  0.00000000E+00  0.00000000E+00
  0.00000000E+00  0.00000000E+00  0.00000000E+00
  0.00000000E+00  0.00000000E+00  0.00000000E+00
  0.00000000E+00  0.00000000E+00  0.00000000E+00
  0.00000000E+00  0.00000000E+00  0.00000000E+00
  0.00000000E+00  0.00000000E+00  0.00000000E+00
  0.00000000E+00  0.00000000E+00  0.00000000E+00
  0.00000000E+00  0.00000000E+00  0.00000000E+00
  0.00000000E+00  0.00000000E+00  0.00000000E+00
  0.00000000E+00  0.00000000E+00  0.00000000E+00
  0.00000000E+00  0.00000000E+00  0.00000000E+00
  0.00000000E+00  0.00000000E+00  0.00000000E+00
  0.00000000E+00  0.00000000E+00  0.00000000E+00
  0.00000000E+00  0.00000000E+00  0.00000000E+00
  0.00000000E+00  0.00000000E+00  0.00000000E+00
  0.00000000E+00  0.00000000E+00  0.00000000E+00
  0.00000000E+00  0.00000000E+00  0.00000000E+00
  0.00000000E+00  0.00000000E+00  0.00000000E+00
  0.00000000E+00  0.00000000E+00  0.00000000E+00
  0.00000000E+00  0.00000000E+00  0.00000000E+00
  0.00000000E+00  0.00000000E+00  0.00000000E+00
  0.00000000E+00  0.00000000E+00  0.00000000E+00
  0.00000000E+00  0.00000000E+00  0.00000000E+00
  0.00000000E+00  0.00000000E+00  0.00000000E+00
  0.00000000E+00  0.00000000E+00  0.00000000E+00
  0.00000000E+00  0.00000000E+00  0.00000000E+00
  0.00000000E+00  0.00000000E+00  0.00000000E+00
  0.00000000E+00  0.00000000E+00  0.00000000E+00
  0.00000000E+00  0.00000000E+00  0.00000000E+00
  0.00000000E+00  0.00000000E+00  0.00000000E+00
  0.00000000E+00  0.00000000E+00  0.00000000E+00
  0.00000000E+00  0.00000000E+00  0.00000000E+00
  0.00000000E+00  0.00000000E+00  0.00000000E+00
  0.00000000E+00  0.00000000E+00  0.00000000E+00
  0.00000000E+00  0.00000000E+00  0.00000000E+00
  0.00000000E+00  0.00000000E+00  0.00000000E+00
  0.00000000E+00  0.00000000E+00  0.00000000E+00
  0.00000000E+00  0.00000000E+00  0.00000000E+00
  0.00000000E+00  0.00000000E+00  0.00000000E+00
  0.00000000E+00  0.00000000E+00  0.00000000E+00
  0.00000000E+00  0.00000000E+00  0.00000000E+00
  0.00000000E+00  0.00000000E+00  0.00000000E+00
  0.00000000E+00  0.00000000E+00  0.00000000E+00
  0.00000000E+00  0.00000000E+00  0.00000000E+00
  0.00000000E+00  0.00000000E+00  0.00000000E+00
  0.00000000E+00  0.00000000E+00  0.00000000E+00
  0.00000000E+00  0.00000000E+00  0.00000000E+00
  0.00000000E+00  0.00000000E+00  0.00000000E+00
  0.00000000E+00  0.00000000E+00  0.00000000E+00
  0.00000000E+00  0.00000000E+00  0.00000000E+00
  0.00000000E+00  0.00000000E+00  0.00000000E+00
  0.00000000E+00  0.00000000E+00  0.00000000E+00
  0.00000000E+00  0.00000000E+00  0.00000000E+00
  0.00000000E+00  0.00000000E+00  0.00000000E+00
  0.00000000E+00  0.00000000E+00  0.00000000E+00
  0.00000000E+00  0.00000000E+00  0.00000000E+00
  0.00000000E+00  0.00000000E+00  0.00000000E+00
  0.00000000E+00  0.00000000E+00  0.00000000E+00
  0.00000000E+00  0.00000000E+00  0.00000000E+00
  0.00000000E+00  0.00000000E+00  0.00000000E+00
  0.00000000E+00  0.00000000E+00  0.00000000E+00
