Bi La Sn C  O  H                        
   1.00000000000000     
    29.0000000000000000    0.0000000000000000    0.0000000000000000
     0.2488180851000000   28.9989325590000000    0.0000000000000000
    -0.0631677343000000   -0.4515975666000000   28.9964147692999994
   Bi   La   Sn   C    O    H 
    22    23    23     1     2     1
Selective dynamics
Direct
  0.7583498296221232  0.4815168091234723  0.3999246063059983   T   T   T
  0.6459868843428423  0.6849675727991115  0.5520421592530372   T   T   T
  0.3591551529041307  0.4589853639527348  0.4287068748916979   T   T   T
  0.5494208963380448  0.7128955097998115  0.5852978642868542   T   T   T
  0.5915029568994470  0.5209714444905416  0.5841479689498996   F   F   F
  0.6395288910406445  0.6800169100963194  0.4453245284040288   T   T   T
  0.6967926147781947  0.5241104263701286  0.6554275503501881   T   T   T
  0.4859372346358034  0.7008593977823364  0.5007871981591681   T   T   T
  0.5004839460855024  0.5502791173970252  0.5477141156400123   F   F   F
  0.3251092270159144  0.4849537123831024  0.5751326592144316   T   T   T
  0.3817869568868839  0.6100209705625300  0.5354348675549757   T   T   T
  0.6667129484492236  0.4827404655721850  0.5105018184570156   F   F   F
  0.5763997220267569  0.4263140504383500  0.5448328182496311   F   F   F
  0.6701665373956697  0.3766092888517120  0.5097695095508783   T   T   T
  0.4645042340250730  0.3386279776311680  0.4991400480692635   T   T   T
  0.6484934028780529  0.5775373212088155  0.4602701624361103   F   F   F
  0.5589066503852868  0.4365916414723912  0.7497631059778661   T   T   T
  0.6042652554885742  0.3521639905258124  0.6695662873426951   T   T   T
  0.4938953164290589  0.3005808880827056  0.4094445048403944   T   T   T
  0.6591575038066624  0.6193809904939087  0.6666561398505473   T   T   T
  0.4925363834876019  0.4117013376092221  0.3082044389379018   T   T   T
  0.6242978720510216  0.3164753139763651  0.5741408817723310   T   T   T
  0.5382659489248844  0.6839001908458390  0.4053788753311925   T   T   T
  0.3905360897631097  0.4147275935999432  0.5269295552168024   T   T   T
  0.6268772471825028  0.5541232897673267  0.2816558446695637   T   T   T
  0.4718551670925009  0.4708812270181424  0.6923164785902505   T   T   T
  0.5683115009887700  0.5094300495444983  0.4784716241115703   F   F   F
  0.4203210565129183  0.5084107200613417  0.5018573595042781   F   F   F
  0.4513446955854739  0.4012023159286002  0.4065226576437928   T   T   T
  0.5662192579637985  0.3478946196796113  0.3522386466664841   T   T   T
  0.4106437610222075  0.5394539225547694  0.6096792741025975   T   T   T
  0.5989604759621348  0.4430245278873712  0.3058591146386379   T   T   T
  0.4544950840969772  0.6008508431671796  0.3638587997980749   T   T   T
  0.4179474182848338  0.4880203341361644  0.3407015106497450   T   T   T
  0.6613396583605499  0.4297834521941705  0.6058625930452773   T   T   T
  0.6730598277986521  0.5788532913510535  0.5647237777674970   T   T   T
  0.5259745688905610  0.5109388262726253  0.3277440478170396   T   T   T
  0.5676807082351931  0.3568351225704579  0.4697333712539973   T   T   T
  0.3150405155305183  0.5411828512655387  0.4919680951834282   T   T   T
  0.6608968215388351  0.4266132283640616  0.4136682255051148   T   T   T
  0.5660841929594156  0.6261437171197244  0.5094829013827464   F   F   F
  0.5958860862266254  0.5287488350031473  0.6895934772477109   T   T   T
  0.4693078192936977  0.6410512936319466  0.5889756476297018   T   T   T
  0.4629727077758259  0.6033490698667285  0.4641922218058649   T   T   T
  0.7169642822965571  0.5777723549308301  0.3840600604530904   T   T   T
  0.5499310510395361  0.5822218838566187  0.4076968008106903   F   F   F
  0.4794126430662260  0.5072205383607624  0.4190535757241776   F   F   F
  0.6949515857891709  0.4854402894356481  0.3249956946805897   T   T   T
  0.7530807554439655  0.4313103931593831  0.4877129409152492   T   T   T
  0.7483009799477222  0.5404304679466940  0.4862690921993799   T   T   T
  0.7485196300868806  0.4918309271000857  0.5725389229838951   T   T   T
  0.6487689901410510  0.4378288048824494  0.7098600329201044   T   T   T
  0.5764667346655090  0.7429180153834748  0.4938231464981385   T   T   T
  0.6192554540844384  0.5183157687966542  0.3801816896793397   F   F   F
  0.5048448687670393  0.5591071474819773  0.6501976433793916   T   T   T
  0.4922009500451665  0.4366758245867572  0.4933013002826740   F   F   F
  0.5608844484509063  0.4404139570509003  0.6454865549417619   F   F   F
  0.5765821062925082  0.6161473119565711  0.6137674787237607   T   T   T
  0.5435519959619759  0.6191187468704514  0.3123358917713085   T   T   T
  0.6264651588825183  0.6256136240868246  0.3603575433681587   T   T   T
  0.3762637238249148  0.5581674488137164  0.4134017025219876   T   T   T
  0.4723078164089713  0.4557257050327763  0.5877273803360978   F   F   F
  0.7264794956470596  0.6370808540357731  0.4860860101413380   T   T   T
  0.5039659161122083  0.3685982544849962  0.6837999102405263   T   T   T
  0.3823869925075372  0.4395423493697350  0.6397948488388174   T   T   T
  0.5544592502646992  0.4379899399457940  0.4037542370104745   F   F   F
  0.4357199491308374  0.3627108792489081  0.6088093852727593   T   T   T
  0.5301617686546851  0.3477099655908032  0.5795317508992943   T   T   T
  0.6525385244262732  0.3447436048633067  0.3766198252334775   T   T   T
  0.6941496229572881  0.3512486762134014  0.3873596826665013   T   T   T
  0.6434697700992349  0.3018228733951564  0.3534709211802822   T   T   T
  0.6727209229193710  0.2847498671895691  0.3500861788509902   T   T   T
 
  0.00000000E+00  0.00000000E+00  0.00000000E+00
  0.00000000E+00  0.00000000E+00  0.00000000E+00
  0.00000000E+00  0.00000000E+00  0.00000000E+00
  0.00000000E+00  0.00000000E+00  0.00000000E+00
  0.00000000E+00  0.00000000E+00  0.00000000E+00
  0.00000000E+00  0.00000000E+00  0.00000000E+00
  0.00000000E+00  0.00000000E+00  0.00000000E+00
  0.00000000E+00  0.00000000E+00  0.00000000E+00
  0.00000000E+00  0.00000000E+00  0.00000000E+00
  0.00000000E+00  0.00000000E+00  0.00000000E+00
  0.00000000E+00  0.00000000E+00  0.00000000E+00
  0.00000000E+00  0.00000000E+00  0.00000000E+00
  0.00000000E+00  0.00000000E+00  0.00000000E+00
  0.00000000E+00  0.00000000E+00  0.00000000E+00
  0.00000000E+00  0.00000000E+00  0.00000000E+00
  0.00000000E+00  0.00000000E+00  0.00000000E+00
  0.00000000E+00  0.00000000E+00  0.00000000E+00
  0.00000000E+00  0.00000000E+00  0.00000000E+00
  0.00000000E+00  0.00000000E+00  0.00000000E+00
  0.00000000E+00  0.00000000E+00  0.00000000E+00
  0.00000000E+00  0.00000000E+00  0.00000000E+00
  0.00000000E+00  0.00000000E+00  0.00000000E+00
  0.00000000E+00  0.00000000E+00  0.00000000E+00
  0.00000000E+00  0.00000000E+00  0.00000000E+00
  0.00000000E+00  0.00000000E+00  0.00000000E+00
  0.00000000E+00  0.00000000E+00  0.00000000E+00
  0.00000000E+00  0.00000000E+00  0.00000000E+00
  0.00000000E+00  0.00000000E+00  0.00000000E+00
  0.00000000E+00  0.00000000E+00  0.00000000E+00
  0.00000000E+00  0.00000000E+00  0.00000000E+00
  0.00000000E+00  0.00000000E+00  0.00000000E+00
  0.00000000E+00  0.00000000E+00  0.00000000E+00
  0.00000000E+00  0.00000000E+00  0.00000000E+00
  0.00000000E+00  0.00000000E+00  0.00000000E+00
  0.00000000E+00  0.00000000E+00  0.00000000E+00
  0.00000000E+00  0.00000000E+00  0.00000000E+00
  0.00000000E+00  0.00000000E+00  0.00000000E+00
  0.00000000E+00  0.00000000E+00  0.00000000E+00
  0.00000000E+00  0.00000000E+00  0.00000000E+00
  0.00000000E+00  0.00000000E+00  0.00000000E+00
  0.00000000E+00  0.00000000E+00  0.00000000E+00
  0.00000000E+00  0.00000000E+00  0.00000000E+00
  0.00000000E+00  0.00000000E+00  0.00000000E+00
  0.00000000E+00  0.00000000E+00  0.00000000E+00
  0.00000000E+00  0.00000000E+00  0.00000000E+00
  0.00000000E+00  0.00000000E+00  0.00000000E+00
  0.00000000E+00  0.00000000E+00  0.00000000E+00
  0.00000000E+00  0.00000000E+00  0.00000000E+00
  0.00000000E+00  0.00000000E+00  0.00000000E+00
  0.00000000E+00  0.00000000E+00  0.00000000E+00
  0.00000000E+00  0.00000000E+00  0.00000000E+00
  0.00000000E+00  0.00000000E+00  0.00000000E+00
  0.00000000E+00  0.00000000E+00  0.00000000E+00
  0.00000000E+00  0.00000000E+00  0.00000000E+00
  0.00000000E+00  0.00000000E+00  0.00000000E+00
  0.00000000E+00  0.00000000E+00  0.00000000E+00
  0.00000000E+00  0.00000000E+00  0.00000000E+00
  0.00000000E+00  0.00000000E+00  0.00000000E+00
  0.00000000E+00  0.00000000E+00  0.00000000E+00
  0.00000000E+00  0.00000000E+00  0.00000000E+00
  0.00000000E+00  0.00000000E+00  0.00000000E+00
  0.00000000E+00  0.00000000E+00  0.00000000E+00
  0.00000000E+00  0.00000000E+00  0.00000000E+00
  0.00000000E+00  0.00000000E+00  0.00000000E+00
  0.00000000E+00  0.00000000E+00  0.00000000E+00
  0.00000000E+00  0.00000000E+00  0.00000000E+00
  0.00000000E+00  0.00000000E+00  0.00000000E+00
  0.00000000E+00  0.00000000E+00  0.00000000E+00
  0.00000000E+00  0.00000000E+00  0.00000000E+00
  0.00000000E+00  0.00000000E+00  0.00000000E+00
  0.00000000E+00  0.00000000E+00  0.00000000E+00
  0.00000000E+00  0.00000000E+00  0.00000000E+00
