Bi La Sn C  O  H                        
   1.00000000000000     
    29.0000000000000000    0.0000000000000000    0.0000000000000000
     0.2488180851000000   28.9989325590000000    0.0000000000000000
    -0.0631677343000000   -0.4515975666000000   28.9964147692999994
   Bi   La   Sn   C    O    H 
    22    23    23     1     2     1
Selective dynamics
Direct
  0.7603189885394668  0.4767749227096925  0.3970631440930954   T   T   T
  0.6487832105431917  0.6859100077634239  0.5474663471321146   T   T   T
  0.3599102854202506  0.4578625591537415  0.4279773458147688   T   T   T
  0.5512676952048283  0.7166276982892501  0.5768555518097973   T   T   T
  0.5915029568994470  0.5209714444905416  0.5841479689498996   F   F   F
  0.6404429751214185  0.6784386662440738  0.4433952722196079   T   T   T
  0.6953916665720171  0.5135355998007523  0.6535797735187476   T   T   T
  0.4870420773091826  0.7018697658291513  0.4942038245767347   T   T   T
  0.5004839460855024  0.5502791173970252  0.5477141156400123   F   F   F
  0.3291514689422326  0.4859310581299014  0.5802106403212157   T   T   T
  0.3824036937836406  0.6083108581768094  0.5376916961083087   T   T   T
  0.6667129484492236  0.4827404655721850  0.5105018184570156   F   F   F
  0.5763997220267569  0.4263140504383500  0.5448328182496311   F   F   F
  0.6679657748353144  0.3728758516177296  0.5047490361135721   T   T   T
  0.4597701064558048  0.3381572836034287  0.4944980859950450   T   T   T
  0.6484934028780529  0.5775373212088155  0.4602701624361103   F   F   F
  0.5535610429781984  0.4356144093345208  0.7497705541370905   T   T   T
  0.5883489374793522  0.3470900297835429  0.6649115281176748   T   T   T
  0.4921534529493424  0.3001085507807564  0.4052371632766444   T   T   T
  0.6664939658050490  0.6087935940033539  0.6699170024911818   T   T   T
  0.4897022016922135  0.4109692951428388  0.3026953077993106   T   T   T
  0.6188280071799164  0.3159540239058118  0.5706872490968550   T   T   T
  0.5395096645956988  0.6827659245072926  0.4004809926651647   T   T   T
  0.3892466670081619  0.4160881350793502  0.5262226532115390   T   T   T
  0.6278610479326284  0.5494448883490324  0.2821389359171868   T   T   T
  0.4743748576500584  0.4842373270107942  0.6918320278061659   T   T   T
  0.5683115009887700  0.5094300495444983  0.4784716241115703   F   F   F
  0.4203210565129183  0.5084107200613417  0.5018573595042781   F   F   F
  0.4525597179824897  0.4020993918659396  0.4041019971526364   T   T   T
  0.5616523849615493  0.3510692048726857  0.3507821551022427   T   T   T
  0.4149799511806032  0.5399261389982133  0.6127927044391962   T   T   T
  0.5979840687593232  0.4424329464621565  0.3025978841300485   T   T   T
  0.4540824471697004  0.5991206974536981  0.3635028520935876   T   T   T
  0.4175607483003859  0.4879601017884714  0.3400081001726795   T   T   T
  0.6605248792705233  0.4234177682371970  0.6032823873652280   T   T   T
  0.6744054099451405  0.5788771081317705  0.5644724661648290   T   T   T
  0.5257405329312747  0.5083239861179617  0.3284524470875397   T   T   T
  0.5643411580077321  0.3564667195553378  0.4691545213108216   T   T   T
  0.3155417439095378  0.5388949855768587  0.4945196354448893   T   T   T
  0.6599201377142075  0.4299867526770721  0.4153159150900314   T   T   T
  0.5660841929594156  0.6261437171197244  0.5094829013827464   F   F   F
  0.5959341371644772  0.5264537980505434  0.6898474303440321   T   T   T
  0.4709181275049946  0.6446497391376215  0.5850202930650976   T   T   T
  0.4622232970644558  0.6030620360894269  0.4636210636274337   T   T   T
  0.7155910411222327  0.5721013669064655  0.3819939746840014   T   T   T
  0.5499310510395361  0.5822218838566187  0.4076968008106903   F   F   F
  0.4794126430662260  0.5072205383607624  0.4190535757241776   F   F   F
  0.6948986375363525  0.4781658096085619  0.3233854769445402   T   T   T
  0.7513814461435397  0.4283411419026016  0.4858163204810177   T   T   T
  0.7483255550685080  0.5360591694494339  0.4833764452791006   T   T   T
  0.7490724991238511  0.4885380392466036  0.5711150079444001   T   T   T
  0.6426794004318708  0.4279678492690374  0.7079806157195485   T   T   T
  0.5771695813540271  0.7444076282062033  0.4862870075575466   T   T   T
  0.6192554540844384  0.5183157687966542  0.3801816896793397   F   F   F
  0.5103634866987822  0.5690683188425605  0.6482500419205088   T   T   T
  0.4922009500451665  0.4366758245867572  0.4933013002826740   F   F   F
  0.5608844484509063  0.4404139570509003  0.6454865549417619   F   F   F
  0.5833523141853064  0.6216673626413266  0.6139349693480904   T   T   T
  0.5426281885948674  0.6147978114413234  0.3106970701145658   T   T   T
  0.6263693302491413  0.6236075515543266  0.3580408526499213   T   T   T
  0.3753938385447095  0.5571706033435299  0.4145205213562154   T   T   T
  0.4723078164089713  0.4557257050327763  0.5877273803360978   F   F   F
  0.7283261641744805  0.6334047555858475  0.4825829243568039   T   T   T
  0.4900832737790777  0.3804900014623603  0.6771260376623321   T   T   T
  0.3890773713258280  0.4370143993292100  0.6419411118671643   T   T   T
  0.5544592502646992  0.4379899399457940  0.4037542370104745   F   F   F
  0.4295796765568322  0.3550556584741028  0.6015717300507261   T   T   T
  0.5238475950470312  0.3498687874508195  0.5744410602167109   T   T   T
  0.5770285292349421  0.6775016423901701  0.6719148427623138   T   T   T
  0.5446633965276650  0.6802853090145656  0.6990329854911886   T   T   T
  0.6148608244217345  0.7062567773358547  0.6761151999654177   T   T   T
  0.6094228961951716  0.7267383284121401  0.7030935753038365   T   T   T
 
  0.00000000E+00  0.00000000E+00  0.00000000E+00
  0.00000000E+00  0.00000000E+00  0.00000000E+00
  0.00000000E+00  0.00000000E+00  0.00000000E+00
  0.00000000E+00  0.00000000E+00  0.00000000E+00
  0.00000000E+00  0.00000000E+00  0.00000000E+00
  0.00000000E+00  0.00000000E+00  0.00000000E+00
  0.00000000E+00  0.00000000E+00  0.00000000E+00
  0.00000000E+00  0.00000000E+00  0.00000000E+00
  0.00000000E+00  0.00000000E+00  0.00000000E+00
  0.00000000E+00  0.00000000E+00  0.00000000E+00
  0.00000000E+00  0.00000000E+00  0.00000000E+00
  0.00000000E+00  0.00000000E+00  0.00000000E+00
  0.00000000E+00  0.00000000E+00  0.00000000E+00
  0.00000000E+00  0.00000000E+00  0.00000000E+00
  0.00000000E+00  0.00000000E+00  0.00000000E+00
  0.00000000E+00  0.00000000E+00  0.00000000E+00
  0.00000000E+00  0.00000000E+00  0.00000000E+00
  0.00000000E+00  0.00000000E+00  0.00000000E+00
  0.00000000E+00  0.00000000E+00  0.00000000E+00
  0.00000000E+00  0.00000000E+00  0.00000000E+00
  0.00000000E+00  0.00000000E+00  0.00000000E+00
  0.00000000E+00  0.00000000E+00  0.00000000E+00
  0.00000000E+00  0.00000000E+00  0.00000000E+00
  0.00000000E+00  0.00000000E+00  0.00000000E+00
  0.00000000E+00  0.00000000E+00  0.00000000E+00
  0.00000000E+00  0.00000000E+00  0.00000000E+00
  0.00000000E+00  0.00000000E+00  0.00000000E+00
  0.00000000E+00  0.00000000E+00  0.00000000E+00
  0.00000000E+00  0.00000000E+00  0.00000000E+00
  0.00000000E+00  0.00000000E+00  0.00000000E+00
  0.00000000E+00  0.00000000E+00  0.00000000E+00
  0.00000000E+00  0.00000000E+00  0.00000000E+00
  0.00000000E+00  0.00000000E+00  0.00000000E+00
  0.00000000E+00  0.00000000E+00  0.00000000E+00
  0.00000000E+00  0.00000000E+00  0.00000000E+00
  0.00000000E+00  0.00000000E+00  0.00000000E+00
  0.00000000E+00  0.00000000E+00  0.00000000E+00
  0.00000000E+00  0.00000000E+00  0.00000000E+00
  0.00000000E+00  0.00000000E+00  0.00000000E+00
  0.00000000E+00  0.00000000E+00  0.00000000E+00
  0.00000000E+00  0.00000000E+00  0.00000000E+00
  0.00000000E+00  0.00000000E+00  0.00000000E+00
  0.00000000E+00  0.00000000E+00  0.00000000E+00
  0.00000000E+00  0.00000000E+00  0.00000000E+00
  0.00000000E+00  0.00000000E+00  0.00000000E+00
  0.00000000E+00  0.00000000E+00  0.00000000E+00
  0.00000000E+00  0.00000000E+00  0.00000000E+00
  0.00000000E+00  0.00000000E+00  0.00000000E+00
  0.00000000E+00  0.00000000E+00  0.00000000E+00
  0.00000000E+00  0.00000000E+00  0.00000000E+00
  0.00000000E+00  0.00000000E+00  0.00000000E+00
  0.00000000E+00  0.00000000E+00  0.00000000E+00
  0.00000000E+00  0.00000000E+00  0.00000000E+00
  0.00000000E+00  0.00000000E+00  0.00000000E+00
  0.00000000E+00  0.00000000E+00  0.00000000E+00
  0.00000000E+00  0.00000000E+00  0.00000000E+00
  0.00000000E+00  0.00000000E+00  0.00000000E+00
  0.00000000E+00  0.00000000E+00  0.00000000E+00
  0.00000000E+00  0.00000000E+00  0.00000000E+00
  0.00000000E+00  0.00000000E+00  0.00000000E+00
  0.00000000E+00  0.00000000E+00  0.00000000E+00
  0.00000000E+00  0.00000000E+00  0.00000000E+00
  0.00000000E+00  0.00000000E+00  0.00000000E+00
  0.00000000E+00  0.00000000E+00  0.00000000E+00
  0.00000000E+00  0.00000000E+00  0.00000000E+00
  0.00000000E+00  0.00000000E+00  0.00000000E+00
  0.00000000E+00  0.00000000E+00  0.00000000E+00
  0.00000000E+00  0.00000000E+00  0.00000000E+00
  0.00000000E+00  0.00000000E+00  0.00000000E+00
  0.00000000E+00  0.00000000E+00  0.00000000E+00
  0.00000000E+00  0.00000000E+00  0.00000000E+00
  0.00000000E+00  0.00000000E+00  0.00000000E+00
