Bi La Sn C  O  H                        
   1.00000000000000     
    29.0000000000000000    0.0000000000000000    0.0000000000000000
     0.2488180851000000   28.9989325590000000    0.0000000000000000
    -0.0631677343000000   -0.4515975666000000   28.9964147692999994
   Bi   La   Sn   C    O    H 
    22    23    23     1     2     1
Selective dynamics
Direct
  0.7584766768120418  0.4819930516528675  0.3984763887036173   T   T   T
  0.6484918902453884  0.6849601971265155  0.5478701723589238   T   T   T
  0.3597867402444206  0.4581431697544096  0.4281815229627506   T   T   T
  0.5513211095035698  0.7139644060825353  0.5819449599625027   T   T   T
  0.5915029568994470  0.5209714444905416  0.5841479689498996   F   F   F
  0.6397531099333975  0.6783607911588397  0.4425095827538908   T   T   T
  0.6931828241803234  0.5183059719099316  0.6535833779784886   T   T   T
  0.4878119823429372  0.7020292877073240  0.4969224489794777   T   T   T
  0.5004839460855024  0.5502791173970252  0.5477141156400123   F   F   F
  0.3280086563371724  0.4846648394655438  0.5782526392543703   T   T   T
  0.3821471579961574  0.6083836576149325  0.5371060590411981   T   T   T
  0.6667129484492236  0.4827404655721850  0.5105018184570156   F   F   F
  0.5763997220267569  0.4263140504383500  0.5448328182496311   F   F   F
  0.6687733066816940  0.3736605181479837  0.5051377572393804   T   T   T
  0.4612729449781556  0.3376766293643719  0.4955847327364112   T   T   T
  0.6484934028780529  0.5775373212088155  0.4602701624361103   F   F   F
  0.5550239984692277  0.4329345240860644  0.7495712048767867   T   T   T
  0.5920140532981368  0.3480105780917567  0.6668097783633709   T   T   T
  0.4932370553623389  0.3002135099563541  0.4063088080649830   T   T   T
  0.6601724399253994  0.6146361775435129  0.6687979843122503   T   T   T
  0.4915211030262909  0.4118630482186315  0.3048847700419681   T   T   T
  0.6214740531963239  0.3160926552587034  0.5722321759541046   T   T   T
  0.5385927495904611  0.6827355499854999  0.4019782571116003   T   T   T
  0.3896695971713643  0.4147850243273189  0.5257160457538315   T   T   T
  0.6267072767526755  0.5526138050407134  0.2782556580471171   T   T   T
  0.4733750865413653  0.4808376107140427  0.6924627633644111   T   T   T
  0.5683115009887700  0.5094300495444983  0.4784716241115703   F   F   F
  0.4203210565129183  0.5084107200613417  0.5018573595042781   F   F   F
  0.4525083422400490  0.4018261754699488  0.4051029356110035   T   T   T
  0.5634300584467570  0.3507368272745993  0.3513144735505687   T   T   T
  0.4132236953276290  0.5392587933249264  0.6119921719092730   T   T   T
  0.6000365741594896  0.4418435292261881  0.3050618301585387   T   T   T
  0.4552361300258090  0.5982797534292936  0.3622541466730653   T   T   T
  0.4176718719297571  0.4877407037257562  0.3401224046680686   T   T   T
  0.6608873012448916  0.4239743852623348  0.6033377800912522   T   T   T
  0.6738351825897702  0.5789989014723247  0.5643590137268909   T   T   T
  0.5255599935068392  0.5108441790878456  0.3281814162611602   T   T   T
  0.5653026950043870  0.3568204141635417  0.4692244478147417   T   T   T
  0.3155546255813445  0.5390426537894141  0.4934714558907231   T   T   T
  0.6604827645251615  0.4300108345966281  0.4142659614846548   T   T   T
  0.5660841929594156  0.6261437171197244  0.5094829013827464   F   F   F
  0.5942875956168190  0.5268068636091509  0.6906253890774835   T   T   T
  0.4701835889835227  0.6435013322401677  0.5864213706301009   T   T   T
  0.4625400946417506  0.6035515644598274  0.4641362510264249   T   T   T
  0.7152553877220421  0.5773768668388635  0.3829383778469831   T   T   T
  0.5499310510395361  0.5822218838566187  0.4076968008106903   F   F   F
  0.4794126430662260  0.5072205383607624  0.4190535757241776   F   F   F
  0.6950139192219948  0.4843177427988629  0.3232364019131957   T   T   T
  0.7514680371013024  0.4302087489060068  0.4858527748471071   T   T   T
  0.7479381163342879  0.5396810669005597  0.4855200571156983   T   T   T
  0.7480021007177130  0.4892562850459444  0.5716563931016323   T   T   T
  0.6443455489248321  0.4308520703447191  0.7074035701777748   T   T   T
  0.5783758955073816  0.7438095089878107  0.4905598503304031   T   T   T
  0.6192554540844384  0.5183157687966542  0.3801816896793397   F   F   F
  0.5069313229412843  0.5665396737485515  0.6500492829831563   T   T   T
  0.4922009500451665  0.4366758245867572  0.4933013002826740   F   F   F
  0.5608844484509063  0.4404139570509003  0.6454865549417619   F   F   F
  0.5796511601085192  0.6178695943729688  0.6129534990734794   T   T   T
  0.5416536903976410  0.6191227391566577  0.3046225484733176   T   T   T
  0.6225817068492987  0.6233603302353294  0.3575323966662370   T   T   T
  0.3759341246690931  0.5577136848432421  0.4140152955214964   T   T   T
  0.4723078164089713  0.4557257050327763  0.5877273803360978   F   F   F
  0.7272086229693649  0.6367070482208281  0.4845188255779972   T   T   T
  0.4929979438941975  0.3776937218764824  0.6777916615319917   T   T   T
  0.3873251207314412  0.4368327838416171  0.6410159361697769   T   T   T
  0.5544592502646992  0.4379899399457940  0.4037542370104745   F   F   F
  0.4317006244626139  0.3564965356432738  0.6021406230426040   T   T   T
  0.5265421644015217  0.3486921758270907  0.5755053835733186   T   T   T
  0.5717952780533530  0.6326003464616423  0.2325873167366470   T   T   T
  0.6085926719175060  0.6130061025041329  0.2186474171522048   T   T   T
  0.5474219855922648  0.6580950503308076  0.2019548392227465   T   T   T
  0.5637596579375578  0.6565857554351129  0.1720077936526652   T   T   T
 
  0.00000000E+00  0.00000000E+00  0.00000000E+00
  0.00000000E+00  0.00000000E+00  0.00000000E+00
  0.00000000E+00  0.00000000E+00  0.00000000E+00
  0.00000000E+00  0.00000000E+00  0.00000000E+00
  0.00000000E+00  0.00000000E+00  0.00000000E+00
  0.00000000E+00  0.00000000E+00  0.00000000E+00
  0.00000000E+00  0.00000000E+00  0.00000000E+00
  0.00000000E+00  0.00000000E+00  0.00000000E+00
  0.00000000E+00  0.00000000E+00  0.00000000E+00
  0.00000000E+00  0.00000000E+00  0.00000000E+00
  0.00000000E+00  0.00000000E+00  0.00000000E+00
  0.00000000E+00  0.00000000E+00  0.00000000E+00
  0.00000000E+00  0.00000000E+00  0.00000000E+00
  0.00000000E+00  0.00000000E+00  0.00000000E+00
  0.00000000E+00  0.00000000E+00  0.00000000E+00
  0.00000000E+00  0.00000000E+00  0.00000000E+00
  0.00000000E+00  0.00000000E+00  0.00000000E+00
  0.00000000E+00  0.00000000E+00  0.00000000E+00
  0.00000000E+00  0.00000000E+00  0.00000000E+00
  0.00000000E+00  0.00000000E+00  0.00000000E+00
  0.00000000E+00  0.00000000E+00  0.00000000E+00
  0.00000000E+00  0.00000000E+00  0.00000000E+00
  0.00000000E+00  0.00000000E+00  0.00000000E+00
  0.00000000E+00  0.00000000E+00  0.00000000E+00
  0.00000000E+00  0.00000000E+00  0.00000000E+00
  0.00000000E+00  0.00000000E+00  0.00000000E+00
  0.00000000E+00  0.00000000E+00  0.00000000E+00
  0.00000000E+00  0.00000000E+00  0.00000000E+00
  0.00000000E+00  0.00000000E+00  0.00000000E+00
  0.00000000E+00  0.00000000E+00  0.00000000E+00
  0.00000000E+00  0.00000000E+00  0.00000000E+00
  0.00000000E+00  0.00000000E+00  0.00000000E+00
  0.00000000E+00  0.00000000E+00  0.00000000E+00
  0.00000000E+00  0.00000000E+00  0.00000000E+00
  0.00000000E+00  0.00000000E+00  0.00000000E+00
  0.00000000E+00  0.00000000E+00  0.00000000E+00
  0.00000000E+00  0.00000000E+00  0.00000000E+00
  0.00000000E+00  0.00000000E+00  0.00000000E+00
  0.00000000E+00  0.00000000E+00  0.00000000E+00
  0.00000000E+00  0.00000000E+00  0.00000000E+00
  0.00000000E+00  0.00000000E+00  0.00000000E+00
  0.00000000E+00  0.00000000E+00  0.00000000E+00
  0.00000000E+00  0.00000000E+00  0.00000000E+00
  0.00000000E+00  0.00000000E+00  0.00000000E+00
  0.00000000E+00  0.00000000E+00  0.00000000E+00
  0.00000000E+00  0.00000000E+00  0.00000000E+00
  0.00000000E+00  0.00000000E+00  0.00000000E+00
  0.00000000E+00  0.00000000E+00  0.00000000E+00
  0.00000000E+00  0.00000000E+00  0.00000000E+00
  0.00000000E+00  0.00000000E+00  0.00000000E+00
  0.00000000E+00  0.00000000E+00  0.00000000E+00
  0.00000000E+00  0.00000000E+00  0.00000000E+00
  0.00000000E+00  0.00000000E+00  0.00000000E+00
  0.00000000E+00  0.00000000E+00  0.00000000E+00
  0.00000000E+00  0.00000000E+00  0.00000000E+00
  0.00000000E+00  0.00000000E+00  0.00000000E+00
  0.00000000E+00  0.00000000E+00  0.00000000E+00
  0.00000000E+00  0.00000000E+00  0.00000000E+00
  0.00000000E+00  0.00000000E+00  0.00000000E+00
  0.00000000E+00  0.00000000E+00  0.00000000E+00
  0.00000000E+00  0.00000000E+00  0.00000000E+00
  0.00000000E+00  0.00000000E+00  0.00000000E+00
  0.00000000E+00  0.00000000E+00  0.00000000E+00
  0.00000000E+00  0.00000000E+00  0.00000000E+00
  0.00000000E+00  0.00000000E+00  0.00000000E+00
  0.00000000E+00  0.00000000E+00  0.00000000E+00
  0.00000000E+00  0.00000000E+00  0.00000000E+00
  0.00000000E+00  0.00000000E+00  0.00000000E+00
  0.00000000E+00  0.00000000E+00  0.00000000E+00
  0.00000000E+00  0.00000000E+00  0.00000000E+00
  0.00000000E+00  0.00000000E+00  0.00000000E+00
  0.00000000E+00  0.00000000E+00  0.00000000E+00
