Bi La Sn C  O  H                        
   1.00000000000000     
    29.0000000000000000    0.0000000000000000    0.0000000000000000
     0.2488180851000000   28.9989325590000000    0.0000000000000000
    -0.0631677343000000   -0.4515975666000000   28.9964147692999994
   Bi   La   Sn   C    O    H 
    22    23    23     1     2     1
Selective dynamics
Direct
  0.7590824057589763  0.4785407075360015  0.4002779729996783   T   T   T
  0.6483431194438418  0.6846807062845590  0.5498942721721928   T   T   T
  0.3594807042435489  0.4573334534116454  0.4273234480299606   T   T   T
  0.5517630828692379  0.7137033725190344  0.5836235444397020   T   T   T
  0.5915029568994470  0.5209714444905416  0.5841479689498996   F   F   F
  0.6403927375791137  0.6799325567147891  0.4446558392277617   T   T   T
  0.6945900297035718  0.5195636078914765  0.6537188117674529   T   T   T
  0.4871663387917886  0.7022908376733853  0.4984629370942001   T   T   T
  0.5004839460855024  0.5502791173970252  0.5477141156400123   F   F   F
  0.3289198544789018  0.4826458898421155  0.5807591072924783   T   T   T
  0.3830542087676219  0.6083595842319586  0.5382325439793720   T   T   T
  0.6667129484492236  0.4827404655721850  0.5105018184570156   F   F   F
  0.5763997220267569  0.4263140504383500  0.5448328182496311   F   F   F
  0.6688008994458976  0.3731749192804189  0.5052869034786928   T   T   T
  0.4613463199536576  0.3377332274115225  0.4944132648520191   T   T   T
  0.6484934028780529  0.5775373212088155  0.4602701624361103   F   F   F
  0.5551634444157630  0.4324584568032664  0.7493791407035184   T   T   T
  0.5907587226906682  0.3486310746583606  0.6675251973375439   T   T   T
  0.4934217412592056  0.3006666130080432  0.4050792088277326   T   T   T
  0.6604962488678428  0.6156525247886755  0.6680083966635963   T   T   T
  0.4927454995300630  0.4097219951769013  0.3041292706387850   T   T   T
  0.6209214553023782  0.3173093759489802  0.5728688548221925   T   T   T
  0.5394057061492904  0.6836441073698060  0.4038576133861437   T   T   T
  0.3902976563285278  0.4144079528653400  0.5262761024192186   T   T   T
  0.6290008502320072  0.5522232512701450  0.2822606352346232   T   T   T
  0.4740125895500763  0.4816256239866391  0.6929311858957559   T   T   T
  0.5683115009887700  0.5094300495444983  0.4784716241115703   F   F   F
  0.4203210565129183  0.5084107200613417  0.5018573595042781   F   F   F
  0.4527424091735270  0.4020422565831384  0.4043109179658420   T   T   T
  0.5654268776933595  0.3499919378409310  0.3519246717373046   T   T   T
  0.4137969638514290  0.5390381342799069  0.6129197809873064   T   T   T
  0.5997093690194855  0.4419569312076110  0.3047868476958579   T   T   T
  0.4555746380806091  0.5994984131301393  0.3627875147357151   T   T   T
  0.4195546133613890  0.4855553109620930  0.3392721352913269   T   T   T
  0.6608146659998591  0.4254671350707640  0.6037922610317396   T   T   T
  0.6738233788632675  0.5786499208928965  0.5641156327365268   T   T   T
  0.5263045944260111  0.5090925594942763  0.3276096276774692   T   T   T
  0.5656643005236037  0.3568166823855320  0.4690299826461993   T   T   T
  0.3167682422232214  0.5375861598115343  0.4954273222786461   T   T   T
  0.6600259024949549  0.4291085049285429  0.4152330097343443   T   T   T
  0.5660841929594156  0.6261437171197244  0.5094829013827464   F   F   F
  0.5954484593141383  0.5267203413352306  0.6903621469826828   T   T   T
  0.4710058384034872  0.6432543267858479  0.5874785459936016   T   T   T
  0.4627873468777353  0.6042646651078910  0.4644798823297210   T   T   T
  0.7166479626343583  0.5740081282440069  0.3837052124786597   T   T   T
  0.5499310510395361  0.5822218838566187  0.4076968008106903   F   F   F
  0.4794126430662260  0.5072205383607624  0.4190535757241776   F   F   F
  0.6955890598593483  0.4811443231634959  0.3246111270231847   T   T   T
  0.7515828260079533  0.4283827490116885  0.4881555238257535   T   T   T
  0.7488515386270310  0.5384811440375462  0.4865352258764437   T   T   T
  0.7483881339724275  0.4886760249718286  0.5726009577680019   T   T   T
  0.6446037624475568  0.4307846909627607  0.7077637714884593   T   T   T
  0.5779249468502377  0.7436040649953840  0.4923487817251009   T   T   T
  0.6192554540844384  0.5183157687966542  0.3801816896793397   F   F   F
  0.5077013991686461  0.5663949712743590  0.6504268389398009   T   T   T
  0.4922009500451665  0.4366758245867572  0.4933013002826740   F   F   F
  0.5608844484509063  0.4404139570509003  0.6454865549417619   F   F   F
  0.5797705440139332  0.6178294298047909  0.6129668496316698   T   T   T
  0.5445845456258372  0.6166455213707550  0.3120607936746254   T   T   T
  0.6272556000918373  0.6247667803655952  0.3603568348998097   T   T   T
  0.3787418824386764  0.5556045712525423  0.4140145212792714   T   T   T
  0.4723078164089713  0.4557257050327763  0.5877273803360978   F   F   F
  0.7276173616538075  0.6350775616684973  0.4846323831755239   T   T   T
  0.4916263631083566  0.3787374325527992  0.6779826348429910   T   T   T
  0.3885951003965774  0.4359349773941941  0.6427081090830623   T   T   T
  0.5544592502646992  0.4379899399457940  0.4037542370104745   F   F   F
  0.4311704238339230  0.3549715506219095  0.6024121983047817   T   T   T
  0.5256354435661643  0.3491154586939959  0.5752181485809044   T   T   T
  0.2976887587573832  0.5845501341424237  0.4179857791857767   T   T   T
  0.2650152213333382  0.5839575450346469  0.4467154765402870   T   T   T
  0.2928894799807547  0.6114418719335024  0.3805647566204391   T   T   T
  0.2626760541246797  0.6273486274509243  0.3829204313674701   T   T   T
 
  0.00000000E+00  0.00000000E+00  0.00000000E+00
  0.00000000E+00  0.00000000E+00  0.00000000E+00
  0.00000000E+00  0.00000000E+00  0.00000000E+00
  0.00000000E+00  0.00000000E+00  0.00000000E+00
  0.00000000E+00  0.00000000E+00  0.00000000E+00
  0.00000000E+00  0.00000000E+00  0.00000000E+00
  0.00000000E+00  0.00000000E+00  0.00000000E+00
  0.00000000E+00  0.00000000E+00  0.00000000E+00
  0.00000000E+00  0.00000000E+00  0.00000000E+00
  0.00000000E+00  0.00000000E+00  0.00000000E+00
  0.00000000E+00  0.00000000E+00  0.00000000E+00
  0.00000000E+00  0.00000000E+00  0.00000000E+00
  0.00000000E+00  0.00000000E+00  0.00000000E+00
  0.00000000E+00  0.00000000E+00  0.00000000E+00
  0.00000000E+00  0.00000000E+00  0.00000000E+00
  0.00000000E+00  0.00000000E+00  0.00000000E+00
  0.00000000E+00  0.00000000E+00  0.00000000E+00
  0.00000000E+00  0.00000000E+00  0.00000000E+00
  0.00000000E+00  0.00000000E+00  0.00000000E+00
  0.00000000E+00  0.00000000E+00  0.00000000E+00
  0.00000000E+00  0.00000000E+00  0.00000000E+00
  0.00000000E+00  0.00000000E+00  0.00000000E+00
  0.00000000E+00  0.00000000E+00  0.00000000E+00
  0.00000000E+00  0.00000000E+00  0.00000000E+00
  0.00000000E+00  0.00000000E+00  0.00000000E+00
  0.00000000E+00  0.00000000E+00  0.00000000E+00
  0.00000000E+00  0.00000000E+00  0.00000000E+00
  0.00000000E+00  0.00000000E+00  0.00000000E+00
  0.00000000E+00  0.00000000E+00  0.00000000E+00
  0.00000000E+00  0.00000000E+00  0.00000000E+00
  0.00000000E+00  0.00000000E+00  0.00000000E+00
  0.00000000E+00  0.00000000E+00  0.00000000E+00
  0.00000000E+00  0.00000000E+00  0.00000000E+00
  0.00000000E+00  0.00000000E+00  0.00000000E+00
  0.00000000E+00  0.00000000E+00  0.00000000E+00
  0.00000000E+00  0.00000000E+00  0.00000000E+00
  0.00000000E+00  0.00000000E+00  0.00000000E+00
  0.00000000E+00  0.00000000E+00  0.00000000E+00
  0.00000000E+00  0.00000000E+00  0.00000000E+00
  0.00000000E+00  0.00000000E+00  0.00000000E+00
  0.00000000E+00  0.00000000E+00  0.00000000E+00
  0.00000000E+00  0.00000000E+00  0.00000000E+00
  0.00000000E+00  0.00000000E+00  0.00000000E+00
  0.00000000E+00  0.00000000E+00  0.00000000E+00
  0.00000000E+00  0.00000000E+00  0.00000000E+00
  0.00000000E+00  0.00000000E+00  0.00000000E+00
  0.00000000E+00  0.00000000E+00  0.00000000E+00
  0.00000000E+00  0.00000000E+00  0.00000000E+00
  0.00000000E+00  0.00000000E+00  0.00000000E+00
  0.00000000E+00  0.00000000E+00  0.00000000E+00
  0.00000000E+00  0.00000000E+00  0.00000000E+00
  0.00000000E+00  0.00000000E+00  0.00000000E+00
  0.00000000E+00  0.00000000E+00  0.00000000E+00
  0.00000000E+00  0.00000000E+00  0.00000000E+00
  0.00000000E+00  0.00000000E+00  0.00000000E+00
  0.00000000E+00  0.00000000E+00  0.00000000E+00
  0.00000000E+00  0.00000000E+00  0.00000000E+00
  0.00000000E+00  0.00000000E+00  0.00000000E+00
  0.00000000E+00  0.00000000E+00  0.00000000E+00
  0.00000000E+00  0.00000000E+00  0.00000000E+00
  0.00000000E+00  0.00000000E+00  0.00000000E+00
  0.00000000E+00  0.00000000E+00  0.00000000E+00
  0.00000000E+00  0.00000000E+00  0.00000000E+00
  0.00000000E+00  0.00000000E+00  0.00000000E+00
  0.00000000E+00  0.00000000E+00  0.00000000E+00
  0.00000000E+00  0.00000000E+00  0.00000000E+00
  0.00000000E+00  0.00000000E+00  0.00000000E+00
  0.00000000E+00  0.00000000E+00  0.00000000E+00
  0.00000000E+00  0.00000000E+00  0.00000000E+00
  0.00000000E+00  0.00000000E+00  0.00000000E+00
  0.00000000E+00  0.00000000E+00  0.00000000E+00
  0.00000000E+00  0.00000000E+00  0.00000000E+00
