Bi La Sn C  O  H                        
   1.00000000000000     
    29.0000000000000000    0.0000000000000000    0.0000000000000000
     0.2488180851000000   28.9989325590000000    0.0000000000000000
    -0.0631677343000000   -0.4515975666000000   28.9964147692999994
   Bi   La   Sn   C    O    H 
    22    23    23     1     2     1
Selective dynamics
Direct
  0.7598140466160569  0.4766179672055123  0.3982769697777784   T   T   T
  0.6467126622945306  0.6839347307947691  0.5546095086125350   T   T   T
  0.3589117776509291  0.4591822615864585  0.4284379200515100   T   T   T
  0.5508706170548409  0.7130511748387253  0.5847484705986142   T   T   T
  0.5915029568994470  0.5209714444905416  0.5841479689498996   F   F   F
  0.6405168581433428  0.6816556548732088  0.4487457336560701   T   T   T
  0.6960841110171170  0.5226153848685596  0.6542550009552410   T   T   T
  0.4865699527370574  0.7015382566753992  0.4993361581441332   T   T   T
  0.5004839460855024  0.5502791173970252  0.5477141156400123   F   F   F
  0.3249283021888397  0.4867247506855699  0.5740769520179411   T   T   T
  0.3821627930038222  0.6103194349521948  0.5345642111651382   T   T   T
  0.6667129484492236  0.4827404655721850  0.5105018184570156   F   F   F
  0.5763997220267569  0.4263140504383500  0.5448328182496311   F   F   F
  0.6687606572234041  0.3741658890944374  0.5086248440257189   T   T   T
  0.4634809930328090  0.3387142180158123  0.5000661420270229   T   T   T
  0.6484934028780529  0.5775373212088155  0.4602701624361103   F   F   F
  0.5576254734994561  0.4376736887091719  0.7497130435686949   T   T   T
  0.6041594893718395  0.3518169695762936  0.6695792170143301   T   T   T
  0.4929661154086364  0.3000173294193988  0.4096024783194241   T   T   T
  0.6600044260722830  0.6189089626581450  0.6656498875818591   T   T   T
  0.4926672838867430  0.4109241797480947  0.3094850625378824   T   T   T
  0.6213033688937665  0.3156967925277498  0.5734817588307048   T   T   T
  0.5395689751815497  0.6842489651699529  0.4047586290316747   T   T   T
  0.3902826423725339  0.4156536972960346  0.5271806861644563   T   T   T
  0.6351268924740542  0.5563254695127348  0.2836423168952710   T   T   T
  0.4711073204127509  0.4707832240713725  0.6917630992938945   T   T   T
  0.5683115009887700  0.5094300495444983  0.4784716241115703   F   F   F
  0.4203210565129183  0.5084107200613417  0.5018573595042781   F   F   F
  0.4508779432814015  0.4008921371514872  0.4077881861863011   T   T   T
  0.5656627282280787  0.3482346591674796  0.3548222832836245   T   T   T
  0.4108120888780724  0.5402926639406452  0.6094503158571680   T   T   T
  0.5980740958095447  0.4406820900982977  0.3044798192728311   T   T   T
  0.4553062215986533  0.6011086488920748  0.3634484031875904   T   T   T
  0.4178045969951096  0.4877750115887745  0.3401264540006324   T   T   T
  0.6611726691780990  0.4288374301232066  0.6052018120676821   T   T   T
  0.6732907057691827  0.5782395422910658  0.5636591607291257   T   T   T
  0.5271366577795701  0.5107661595032104  0.3280250578519492   T   T   T
  0.5662372127706848  0.3575244207813558  0.4693087374026207   T   T   T
  0.3148372016759299  0.5422929500585093  0.4908620720269133   T   T   T
  0.6593197497517009  0.4287927503062879  0.4164434717190933   T   T   T
  0.5660841929594156  0.6261437171197244  0.5094829013827464   F   F   F
  0.5958112799336654  0.5289961210561656  0.6894326017257536   T   T   T
  0.4701198298451661  0.6414903891109136  0.5879656302863838   T   T   T
  0.4640290249095724  0.6034221700096315  0.4638551566305023   T   T   T
  0.7167696256014884  0.5732124462135598  0.3799543618125822   T   T   T
  0.5499310510395361  0.5822218838566187  0.4076968008106903   F   F   F
  0.4794126430662260  0.5072205383607624  0.4190535757241776   F   F   F
  0.6938357849295567  0.4761550459649168  0.3256152322150371   T   T   T
  0.7514684957092338  0.4291463637974777  0.4878964035009442   T   T   T
  0.7483919534220539  0.5365625235327157  0.4843947168343151   T   T   T
  0.7488191237802396  0.4904990368286461  0.5729031255108006   T   T   T
  0.6478863932188984  0.4372075290489720  0.7097951933905202   T   T   T
  0.5762259328194045  0.7444278099327383  0.4939109537320724   T   T   T
  0.6192554540844384  0.5183157687966542  0.3801816896793397   F   F   F
  0.5046438290486754  0.5594252544616651  0.6501797337032835   T   T   T
  0.4922009500451665  0.4366758245867572  0.4933013002826740   F   F   F
  0.5608844484509063  0.4404139570509003  0.6454865549417619   F   F   F
  0.5768642366174106  0.6157099559544691  0.6136408745712032   T   T   T
  0.5447995256512801  0.6170678342073806  0.3120383037317269   T   T   T
  0.6259629435884818  0.6263854134348183  0.3636342758014406   T   T   T
  0.3773200697102307  0.5576985211674405  0.4129928438421318   T   T   T
  0.4723078164089713  0.4557257050327763  0.5877273803360978   F   F   F
  0.7275353699596535  0.6336602653731984  0.4835722250570468   T   T   T
  0.5039753182787544  0.3683401111213468  0.6848642152134525   T   T   T
  0.3806440586321369  0.4414526001476535  0.6398088091788500   T   T   T
  0.5544592502646992  0.4379899399457940  0.4037542370104745   F   F   F
  0.4341116530035977  0.3639320199328334  0.6109521140451114   T   T   T
  0.5280013919571582  0.3495348335597905  0.5801551610738203   T   T   T
  0.7169451296603289  0.5909056894727784  0.2933629299403395   T   T   T
  0.7543432374102206  0.6059869764189147  0.3092764763712237   T   T   T
  0.7101216776189802  0.5942173179868010  0.2455505107201258   T   T   T
  0.7378342820570617  0.6074172542168218  0.2314197367244696   T   T   T
 
  0.00000000E+00  0.00000000E+00  0.00000000E+00
  0.00000000E+00  0.00000000E+00  0.00000000E+00
  0.00000000E+00  0.00000000E+00  0.00000000E+00
  0.00000000E+00  0.00000000E+00  0.00000000E+00
  0.00000000E+00  0.00000000E+00  0.00000000E+00
  0.00000000E+00  0.00000000E+00  0.00000000E+00
  0.00000000E+00  0.00000000E+00  0.00000000E+00
  0.00000000E+00  0.00000000E+00  0.00000000E+00
  0.00000000E+00  0.00000000E+00  0.00000000E+00
  0.00000000E+00  0.00000000E+00  0.00000000E+00
  0.00000000E+00  0.00000000E+00  0.00000000E+00
  0.00000000E+00  0.00000000E+00  0.00000000E+00
  0.00000000E+00  0.00000000E+00  0.00000000E+00
  0.00000000E+00  0.00000000E+00  0.00000000E+00
  0.00000000E+00  0.00000000E+00  0.00000000E+00
  0.00000000E+00  0.00000000E+00  0.00000000E+00
  0.00000000E+00  0.00000000E+00  0.00000000E+00
  0.00000000E+00  0.00000000E+00  0.00000000E+00
  0.00000000E+00  0.00000000E+00  0.00000000E+00
  0.00000000E+00  0.00000000E+00  0.00000000E+00
  0.00000000E+00  0.00000000E+00  0.00000000E+00
  0.00000000E+00  0.00000000E+00  0.00000000E+00
  0.00000000E+00  0.00000000E+00  0.00000000E+00
  0.00000000E+00  0.00000000E+00  0.00000000E+00
  0.00000000E+00  0.00000000E+00  0.00000000E+00
  0.00000000E+00  0.00000000E+00  0.00000000E+00
  0.00000000E+00  0.00000000E+00  0.00000000E+00
  0.00000000E+00  0.00000000E+00  0.00000000E+00
  0.00000000E+00  0.00000000E+00  0.00000000E+00
  0.00000000E+00  0.00000000E+00  0.00000000E+00
  0.00000000E+00  0.00000000E+00  0.00000000E+00
  0.00000000E+00  0.00000000E+00  0.00000000E+00
  0.00000000E+00  0.00000000E+00  0.00000000E+00
  0.00000000E+00  0.00000000E+00  0.00000000E+00
  0.00000000E+00  0.00000000E+00  0.00000000E+00
  0.00000000E+00  0.00000000E+00  0.00000000E+00
  0.00000000E+00  0.00000000E+00  0.00000000E+00
  0.00000000E+00  0.00000000E+00  0.00000000E+00
  0.00000000E+00  0.00000000E+00  0.00000000E+00
  0.00000000E+00  0.00000000E+00  0.00000000E+00
  0.00000000E+00  0.00000000E+00  0.00000000E+00
  0.00000000E+00  0.00000000E+00  0.00000000E+00
  0.00000000E+00  0.00000000E+00  0.00000000E+00
  0.00000000E+00  0.00000000E+00  0.00000000E+00
  0.00000000E+00  0.00000000E+00  0.00000000E+00
  0.00000000E+00  0.00000000E+00  0.00000000E+00
  0.00000000E+00  0.00000000E+00  0.00000000E+00
  0.00000000E+00  0.00000000E+00  0.00000000E+00
  0.00000000E+00  0.00000000E+00  0.00000000E+00
  0.00000000E+00  0.00000000E+00  0.00000000E+00
  0.00000000E+00  0.00000000E+00  0.00000000E+00
  0.00000000E+00  0.00000000E+00  0.00000000E+00
  0.00000000E+00  0.00000000E+00  0.00000000E+00
  0.00000000E+00  0.00000000E+00  0.00000000E+00
  0.00000000E+00  0.00000000E+00  0.00000000E+00
  0.00000000E+00  0.00000000E+00  0.00000000E+00
  0.00000000E+00  0.00000000E+00  0.00000000E+00
  0.00000000E+00  0.00000000E+00  0.00000000E+00
  0.00000000E+00  0.00000000E+00  0.00000000E+00
  0.00000000E+00  0.00000000E+00  0.00000000E+00
  0.00000000E+00  0.00000000E+00  0.00000000E+00
  0.00000000E+00  0.00000000E+00  0.00000000E+00
  0.00000000E+00  0.00000000E+00  0.00000000E+00
  0.00000000E+00  0.00000000E+00  0.00000000E+00
  0.00000000E+00  0.00000000E+00  0.00000000E+00
  0.00000000E+00  0.00000000E+00  0.00000000E+00
  0.00000000E+00  0.00000000E+00  0.00000000E+00
  0.00000000E+00  0.00000000E+00  0.00000000E+00
  0.00000000E+00  0.00000000E+00  0.00000000E+00
  0.00000000E+00  0.00000000E+00  0.00000000E+00
  0.00000000E+00  0.00000000E+00  0.00000000E+00
  0.00000000E+00  0.00000000E+00  0.00000000E+00
