Bi La Sn C  O  H                        
   1.00000000000000     
    29.0000000000000000    0.0000000000000000    0.0000000000000000
     0.2488180851000000   28.9989325590000000    0.0000000000000000
    -0.0631677343000000   -0.4515975666000000   28.9964147692999994
   Bi   La   Sn   C    O    H 
    22    23    23     1     2     1
Selective dynamics
Direct
  0.7586784029869887  0.4789037051340370  0.3990865587550581   T   T   T
  0.6465350558144377  0.6848862637812844  0.5516007469273483   T   T   T
  0.3589110982595527  0.4584015221157757  0.4293287121712510   T   T   T
  0.5497201492829940  0.7129476931631484  0.5849793960141283   T   T   T
  0.5915029568994470  0.5209714444905416  0.5841479689498996   F   F   F
  0.6398507125795699  0.6800613405522442  0.4452455932652213   T   T   T
  0.6966371796797138  0.5229253541420175  0.6535299604190490   T   T   T
  0.4857486517645606  0.7005121497072290  0.5007888149908986   T   T   T
  0.5004839460855024  0.5502791173970252  0.5477141156400123   F   F   F
  0.3243540387059782  0.4869353880231279  0.5741947902084349   T   T   T
  0.3819329694846064  0.6106548741870621  0.5353240137253412   T   T   T
  0.6667129484492236  0.4827404655721850  0.5105018184570156   F   F   F
  0.5763997220267569  0.4263140504383500  0.5448328182496311   F   F   F
  0.6684391310960278  0.3740722688504239  0.5068835798105048   T   T   T
  0.4625218099077874  0.3381851802856009  0.5003613407388094   T   T   T
  0.6484934028780529  0.5775373212088155  0.4602701624361103   F   F   F
  0.5588556159236865  0.4437764603242392  0.7492881900772681   T   T   T
  0.6055626030791535  0.3517663783150179  0.6684253433782451   T   T   T
  0.4917855740194227  0.2997785781747339  0.4098311516445127   T   T   T
  0.6600645128583043  0.6191331391506821  0.6655588672787557   T   T   T
  0.4926151602979101  0.4090696458100487  0.3090262730084473   T   T   T
  0.6216661173053979  0.3159482356888611  0.5729581302724660   T   T   T
  0.5377628290549110  0.6833152240786834  0.4051702302989115   T   T   T
  0.3904297681540800  0.4153848731458985  0.5287144566120116   T   T   T
  0.6280410325368355  0.5525881437813991  0.2829212877714899   T   T   T
  0.4698419485712853  0.4686394358022909  0.6916484114773479   T   T   T
  0.5683115009887700  0.5094300495444983  0.4784716241115703   F   F   F
  0.4203210565129183  0.5084107200613417  0.5018573595042781   F   F   F
  0.4510190346131924  0.4008266280834099  0.4078518956638506   T   T   T
  0.5653485915394686  0.3480462862359187  0.3560357641028283   T   T   T
  0.4107423006791555  0.5402111195421525  0.6094909237667352   T   T   T
  0.5982558051348305  0.4421485745901220  0.3043485925850277   T   T   T
  0.4549066348057054  0.5996641721499130  0.3635887414081345   T   T   T
  0.4181064050402633  0.4859864570060169  0.3408367415514532   T   T   T
  0.6613513385081905  0.4289728663086478  0.6044753713907948   T   T   T
  0.6730592375008599  0.5790478326207580  0.5637034533996429   T   T   T
  0.5259406065510156  0.5096103020755676  0.3278090647938491   T   T   T
  0.5649562301662970  0.3567925365780392  0.4699999221700317   T   T   T
  0.3151665069502512  0.5423559785946765  0.4910358867022944   T   T   T
  0.6597303016971681  0.4293929024019739  0.4157565916241047   T   T   T
  0.5660841929594156  0.6261437171197244  0.5094829013827464   F   F   F
  0.5975184130615222  0.5303109086068811  0.6898597791307203   T   T   T
  0.4696028135737779  0.6407841443794280  0.5894297590783426   T   T   T
  0.4624988098384148  0.6030914090427140  0.4639130742735968   T   T   T
  0.7158076625747331  0.5744926440193233  0.3828623024355115   T   T   T
  0.5499310510395361  0.5822218838566187  0.4076968008106903   F   F   F
  0.4794126430662260  0.5072205383607624  0.4190535757241776   F   F   F
  0.6945701374633587  0.4802339149952865  0.3245108563965347   T   T   T
  0.7514482808790102  0.4297141997362854  0.4879058369317202   T   T   T
  0.7480934662628451  0.5387820721899007  0.4852862603848130   T   T   T
  0.7491639057657693  0.4911698701875077  0.5725160802801867   T   T   T
  0.6503413695821206  0.4377572827630855  0.7094115072667757   T   T   T
  0.5764978418273937  0.7425275321726994  0.4934981193174958   T   T   T
  0.6192554540844384  0.5183157687966542  0.3801816896793397   F   F   F
  0.5053766729307673  0.5575086813676330  0.6504481494309262   T   T   T
  0.4922009500451665  0.4366758245867572  0.4933013002826740   F   F   F
  0.5608844484509063  0.4404139570509003  0.6454865549417619   F   F   F
  0.5766340637301661  0.6161803900966571  0.6137879521523609   T   T   T
  0.5434632861412416  0.6179303180962669  0.3120818558644453   T   T   T
  0.6262281698573785  0.6256781804752304  0.3604263822164823   T   T   T
  0.3767674215199810  0.5566148401493738  0.4122457086284911   T   T   T
  0.4723078164089713  0.4557257050327763  0.5877273803360978   F   F   F
  0.7271379920574010  0.6354163926117359  0.4846912613769367   T   T   T
  0.5057130248270645  0.3675394828272354  0.6875905803872379   T   T   T
  0.3798212906642984  0.4419003557505568  0.6399722049467779   T   T   T
  0.5544592502646992  0.4379899399457940  0.4037542370104745   F   F   F
  0.4357836021250149  0.3652384331127485  0.6135417129305438   T   T   T
  0.5280311300058265  0.3485578879207452  0.5803151976909402   T   T   T
  0.5529599134860977  0.4120923940583295  0.8225939060746171   T   T   T
  0.5801011435710655  0.4152069528920310  0.8544809805316920   T   T   T
  0.5113833910046709  0.3895871357348824  0.8254706016440109   T   T   T
  0.5094684952959695  0.3775276210951652  0.8570397737635612   T   T   T
 
  0.00000000E+00  0.00000000E+00  0.00000000E+00
  0.00000000E+00  0.00000000E+00  0.00000000E+00
  0.00000000E+00  0.00000000E+00  0.00000000E+00
  0.00000000E+00  0.00000000E+00  0.00000000E+00
  0.00000000E+00  0.00000000E+00  0.00000000E+00
  0.00000000E+00  0.00000000E+00  0.00000000E+00
  0.00000000E+00  0.00000000E+00  0.00000000E+00
  0.00000000E+00  0.00000000E+00  0.00000000E+00
  0.00000000E+00  0.00000000E+00  0.00000000E+00
  0.00000000E+00  0.00000000E+00  0.00000000E+00
  0.00000000E+00  0.00000000E+00  0.00000000E+00
  0.00000000E+00  0.00000000E+00  0.00000000E+00
  0.00000000E+00  0.00000000E+00  0.00000000E+00
  0.00000000E+00  0.00000000E+00  0.00000000E+00
  0.00000000E+00  0.00000000E+00  0.00000000E+00
  0.00000000E+00  0.00000000E+00  0.00000000E+00
  0.00000000E+00  0.00000000E+00  0.00000000E+00
  0.00000000E+00  0.00000000E+00  0.00000000E+00
  0.00000000E+00  0.00000000E+00  0.00000000E+00
  0.00000000E+00  0.00000000E+00  0.00000000E+00
  0.00000000E+00  0.00000000E+00  0.00000000E+00
  0.00000000E+00  0.00000000E+00  0.00000000E+00
  0.00000000E+00  0.00000000E+00  0.00000000E+00
  0.00000000E+00  0.00000000E+00  0.00000000E+00
  0.00000000E+00  0.00000000E+00  0.00000000E+00
  0.00000000E+00  0.00000000E+00  0.00000000E+00
  0.00000000E+00  0.00000000E+00  0.00000000E+00
  0.00000000E+00  0.00000000E+00  0.00000000E+00
  0.00000000E+00  0.00000000E+00  0.00000000E+00
  0.00000000E+00  0.00000000E+00  0.00000000E+00
  0.00000000E+00  0.00000000E+00  0.00000000E+00
  0.00000000E+00  0.00000000E+00  0.00000000E+00
  0.00000000E+00  0.00000000E+00  0.00000000E+00
  0.00000000E+00  0.00000000E+00  0.00000000E+00
  0.00000000E+00  0.00000000E+00  0.00000000E+00
  0.00000000E+00  0.00000000E+00  0.00000000E+00
  0.00000000E+00  0.00000000E+00  0.00000000E+00
  0.00000000E+00  0.00000000E+00  0.00000000E+00
  0.00000000E+00  0.00000000E+00  0.00000000E+00
  0.00000000E+00  0.00000000E+00  0.00000000E+00
  0.00000000E+00  0.00000000E+00  0.00000000E+00
  0.00000000E+00  0.00000000E+00  0.00000000E+00
  0.00000000E+00  0.00000000E+00  0.00000000E+00
  0.00000000E+00  0.00000000E+00  0.00000000E+00
  0.00000000E+00  0.00000000E+00  0.00000000E+00
  0.00000000E+00  0.00000000E+00  0.00000000E+00
  0.00000000E+00  0.00000000E+00  0.00000000E+00
  0.00000000E+00  0.00000000E+00  0.00000000E+00
  0.00000000E+00  0.00000000E+00  0.00000000E+00
  0.00000000E+00  0.00000000E+00  0.00000000E+00
  0.00000000E+00  0.00000000E+00  0.00000000E+00
  0.00000000E+00  0.00000000E+00  0.00000000E+00
  0.00000000E+00  0.00000000E+00  0.00000000E+00
  0.00000000E+00  0.00000000E+00  0.00000000E+00
  0.00000000E+00  0.00000000E+00  0.00000000E+00
  0.00000000E+00  0.00000000E+00  0.00000000E+00
  0.00000000E+00  0.00000000E+00  0.00000000E+00
  0.00000000E+00  0.00000000E+00  0.00000000E+00
  0.00000000E+00  0.00000000E+00  0.00000000E+00
  0.00000000E+00  0.00000000E+00  0.00000000E+00
  0.00000000E+00  0.00000000E+00  0.00000000E+00
  0.00000000E+00  0.00000000E+00  0.00000000E+00
  0.00000000E+00  0.00000000E+00  0.00000000E+00
  0.00000000E+00  0.00000000E+00  0.00000000E+00
  0.00000000E+00  0.00000000E+00  0.00000000E+00
  0.00000000E+00  0.00000000E+00  0.00000000E+00
  0.00000000E+00  0.00000000E+00  0.00000000E+00
  0.00000000E+00  0.00000000E+00  0.00000000E+00
  0.00000000E+00  0.00000000E+00  0.00000000E+00
  0.00000000E+00  0.00000000E+00  0.00000000E+00
  0.00000000E+00  0.00000000E+00  0.00000000E+00
  0.00000000E+00  0.00000000E+00  0.00000000E+00
