Bi La Sn C  O  H                        
   1.00000000000000     
    29.0000000000000000    0.0000000000000000    0.0000000000000000
     0.2488180851000000   28.9989325590000000    0.0000000000000000
    -0.0631677343000000   -0.4515975666000000   28.9964147692999994
   Bi   La   Sn   C    O    H 
    22    23    23     1     2     1
Selective dynamics
Direct
  0.7594765014959006  0.4778461656347882  0.3992443036027308   T   T   T
  0.6463575203297369  0.6845121414285259  0.5527368937594013   T   T   T
  0.3596554027632843  0.4593861885687073  0.4279288165162640   T   T   T
  0.5500575170784423  0.7128922876497500  0.5850155255475180   T   T   T
  0.5915029568994470  0.5209714444905416  0.5841479689498996   F   F   F
  0.6400758428666830  0.6808489902218159  0.4463364675934879   T   T   T
  0.6966645001493270  0.5231787443996287  0.6544668492300686   T   T   T
  0.4859083379280998  0.7007651612691786  0.5005113042626690   T   T   T
  0.5004839460855024  0.5502791173970252  0.5477141156400123   F   F   F
  0.3250903526758160  0.4856655414829339  0.5716023553654777   T   T   T
  0.3824195391807006  0.6115147468440585  0.5344332900468255   T   T   T
  0.6667129484492236  0.4827404655721850  0.5105018184570156   F   F   F
  0.5763997220267569  0.4263140504383500  0.5448328182496311   F   F   F
  0.6689019760921191  0.3744930183634230  0.5074605023929613   T   T   T
  0.4640571898196040  0.3382864471788855  0.4993427576158272   T   T   T
  0.6484934028780529  0.5775373212088155  0.4602701624361103   F   F   F
  0.5603445280423311  0.4347936400596611  0.7493282220173794   T   T   T
  0.6040244100594699  0.3516041054467473  0.6686122015625815   T   T   T
  0.4926069641351782  0.2996826368255245  0.4089267551159431   T   T   T
  0.6594823827158132  0.6189254550930310  0.6659200543602483   T   T   T
  0.4927964521143902  0.4104273935697948  0.3072533751381845   T   T   T
  0.6220467621909905  0.3159393867707566  0.5726064647893568   T   T   T
  0.5388538377183897  0.6838001596693997  0.4052666224857714   T   T   T
  0.3908947675927821  0.4146853020517472  0.5259832358881601   T   T   T
  0.6296140583857177  0.5527830011923310  0.2832523856926426   T   T   T
  0.4698242355427928  0.4692901622827925  0.6953122231366593   T   T   T
  0.5683115009887700  0.5094300495444983  0.4784716241115703   F   F   F
  0.4203210565129183  0.5084107200613417  0.5018573595042781   F   F   F
  0.4517348467184816  0.4010179751926599  0.4064643157737004   T   T   T
  0.5644285555355497  0.3483357561106076  0.3539104259985708   T   T   T
  0.4099497247032599  0.5401556261279256  0.6086174890750224   T   T   T
  0.5989739510725178  0.4422645291062070  0.3047541419899507   T   T   T
  0.4555580937523411  0.6005529386968748  0.3626147492234658   T   T   T
  0.4190018967688354  0.4875829079115174  0.3395273213180425   T   T   T
  0.6615736146424033  0.4289704380840328  0.6045025811017849   T   T   T
  0.6730930582152256  0.5785831380138189  0.5640651976896773   T   T   T
  0.5263269537240659  0.5102162112830768  0.3278992257106221   T   T   T
  0.5665003350614304  0.3574023624204811  0.4686513700347822   T   T   T
  0.3153755837802331  0.5439245594955682  0.4900973987071742   T   T   T
  0.6602554061250837  0.4294576937068978  0.4158960064497764   T   T   T
  0.5660841929594156  0.6261437171197244  0.5094829013827464   F   F   F
  0.5964544702899146  0.5281626494558466  0.6896017222396285   T   T   T
  0.4698665812699665  0.6411941233076761  0.5888398850872675   T   T   T
  0.4630660126240823  0.6033383095378541  0.4636246948623727   T   T   T
  0.7167381378688450  0.5734877802952095  0.3834487892796861   T   T   T
  0.5499310510395361  0.5822218838566187  0.4076968008106903   F   F   F
  0.4794126430662260  0.5072205383607624  0.4190535757241776   F   F   F
  0.6951985861412214  0.4799590479500344  0.3247341933172056   T   T   T
  0.7520680990150838  0.4296096623114026  0.4885916541526459   T   T   T
  0.7483805184732941  0.5381760041047942  0.4853816538970921   T   T   T
  0.7491247123847659  0.4912521193192723  0.5726349277778940   T   T   T
  0.6494084335964814  0.4363418560893514  0.7086193549791131   T   T   T
  0.5764230330045982  0.7431829116156110  0.4938380775038137   T   T   T
  0.6192554540844384  0.5183157687966542  0.3801816896793397   F   F   F
  0.5050479080940837  0.5572504582764120  0.6492940664899501   T   T   T
  0.4922009500451665  0.4366758245867572  0.4933013002826740   F   F   F
  0.5608844484509063  0.4404139570509003  0.6454865549417619   F   F   F
  0.5762471640398530  0.6158186839164644  0.6139379737523213   T   T   T
  0.5456592618763674  0.6183890596941923  0.3130068193508799   T   T   T
  0.6282979545123112  0.6256512786459237  0.3615661925676160   T   T   T
  0.3776465109283650  0.5572730100295097  0.4118251718241503   T   T   T
  0.4723078164089713  0.4557257050327763  0.5877273803360978   F   F   F
  0.7270647617505488  0.6350406469134369  0.4850122218934586   T   T   T
  0.5037824876054741  0.3677870063040024  0.6845499226628809   T   T   T
  0.3810585706027644  0.4410394793612588  0.6382748767412998   T   T   T
  0.5544592502646992  0.4379899399457940  0.4037542370104745   F   F   F
  0.4347816079761390  0.3636874533560058  0.6103750576186693   T   T   T
  0.5285369276007751  0.3490749418907128  0.5800292412780257   T   T   T
  0.4069819064653789  0.4343354318082760  0.7413441688564055   T   T   T
  0.4124281638273523  0.4742385518035951  0.7593803772749028   T   T   T
  0.3728869112857398  0.4078315880248693  0.7582107524585755   T   T   T
  0.3568444395543630  0.4260050825633344  0.7826006847411834   T   T   T
 
  0.00000000E+00  0.00000000E+00  0.00000000E+00
  0.00000000E+00  0.00000000E+00  0.00000000E+00
  0.00000000E+00  0.00000000E+00  0.00000000E+00
  0.00000000E+00  0.00000000E+00  0.00000000E+00
  0.00000000E+00  0.00000000E+00  0.00000000E+00
  0.00000000E+00  0.00000000E+00  0.00000000E+00
  0.00000000E+00  0.00000000E+00  0.00000000E+00
  0.00000000E+00  0.00000000E+00  0.00000000E+00
  0.00000000E+00  0.00000000E+00  0.00000000E+00
  0.00000000E+00  0.00000000E+00  0.00000000E+00
  0.00000000E+00  0.00000000E+00  0.00000000E+00
  0.00000000E+00  0.00000000E+00  0.00000000E+00
  0.00000000E+00  0.00000000E+00  0.00000000E+00
  0.00000000E+00  0.00000000E+00  0.00000000E+00
  0.00000000E+00  0.00000000E+00  0.00000000E+00
  0.00000000E+00  0.00000000E+00  0.00000000E+00
  0.00000000E+00  0.00000000E+00  0.00000000E+00
  0.00000000E+00  0.00000000E+00  0.00000000E+00
  0.00000000E+00  0.00000000E+00  0.00000000E+00
  0.00000000E+00  0.00000000E+00  0.00000000E+00
  0.00000000E+00  0.00000000E+00  0.00000000E+00
  0.00000000E+00  0.00000000E+00  0.00000000E+00
  0.00000000E+00  0.00000000E+00  0.00000000E+00
  0.00000000E+00  0.00000000E+00  0.00000000E+00
  0.00000000E+00  0.00000000E+00  0.00000000E+00
  0.00000000E+00  0.00000000E+00  0.00000000E+00
  0.00000000E+00  0.00000000E+00  0.00000000E+00
  0.00000000E+00  0.00000000E+00  0.00000000E+00
  0.00000000E+00  0.00000000E+00  0.00000000E+00
  0.00000000E+00  0.00000000E+00  0.00000000E+00
  0.00000000E+00  0.00000000E+00  0.00000000E+00
  0.00000000E+00  0.00000000E+00  0.00000000E+00
  0.00000000E+00  0.00000000E+00  0.00000000E+00
  0.00000000E+00  0.00000000E+00  0.00000000E+00
  0.00000000E+00  0.00000000E+00  0.00000000E+00
  0.00000000E+00  0.00000000E+00  0.00000000E+00
  0.00000000E+00  0.00000000E+00  0.00000000E+00
  0.00000000E+00  0.00000000E+00  0.00000000E+00
  0.00000000E+00  0.00000000E+00  0.00000000E+00
  0.00000000E+00  0.00000000E+00  0.00000000E+00
  0.00000000E+00  0.00000000E+00  0.00000000E+00
  0.00000000E+00  0.00000000E+00  0.00000000E+00
  0.00000000E+00  0.00000000E+00  0.00000000E+00
  0.00000000E+00  0.00000000E+00  0.00000000E+00
  0.00000000E+00  0.00000000E+00  0.00000000E+00
  0.00000000E+00  0.00000000E+00  0.00000000E+00
  0.00000000E+00  0.00000000E+00  0.00000000E+00
  0.00000000E+00  0.00000000E+00  0.00000000E+00
  0.00000000E+00  0.00000000E+00  0.00000000E+00
  0.00000000E+00  0.00000000E+00  0.00000000E+00
  0.00000000E+00  0.00000000E+00  0.00000000E+00
  0.00000000E+00  0.00000000E+00  0.00000000E+00
  0.00000000E+00  0.00000000E+00  0.00000000E+00
  0.00000000E+00  0.00000000E+00  0.00000000E+00
  0.00000000E+00  0.00000000E+00  0.00000000E+00
  0.00000000E+00  0.00000000E+00  0.00000000E+00
  0.00000000E+00  0.00000000E+00  0.00000000E+00
  0.00000000E+00  0.00000000E+00  0.00000000E+00
  0.00000000E+00  0.00000000E+00  0.00000000E+00
  0.00000000E+00  0.00000000E+00  0.00000000E+00
  0.00000000E+00  0.00000000E+00  0.00000000E+00
  0.00000000E+00  0.00000000E+00  0.00000000E+00
  0.00000000E+00  0.00000000E+00  0.00000000E+00
  0.00000000E+00  0.00000000E+00  0.00000000E+00
  0.00000000E+00  0.00000000E+00  0.00000000E+00
  0.00000000E+00  0.00000000E+00  0.00000000E+00
  0.00000000E+00  0.00000000E+00  0.00000000E+00
  0.00000000E+00  0.00000000E+00  0.00000000E+00
  0.00000000E+00  0.00000000E+00  0.00000000E+00
  0.00000000E+00  0.00000000E+00  0.00000000E+00
  0.00000000E+00  0.00000000E+00  0.00000000E+00
  0.00000000E+00  0.00000000E+00  0.00000000E+00
