Bi La Sn C  O  H                        
   1.00000000000000     
    29.0000000000000000    0.0000000000000000    0.0000000000000000
     0.2488180851000000   28.9989325590000000    0.0000000000000000
    -0.0631677343000000   -0.4515975666000000   28.9964147692999994
   Bi   La   Sn   C    O    H 
    22    23    23     1     2     1
Selective dynamics
Direct
  0.7598519287552919  0.4784877473157793  0.3983232249957283   T   T   T
  0.6479221119671164  0.6849320848479322  0.5499656615290822   T   T   T
  0.3613114008930316  0.4601470014902094  0.4247144188860325   T   T   T
  0.5516583247673965  0.7136913920091188  0.5838963491605925   T   T   T
  0.5915029568994470  0.5209714444905416  0.5841479689498996   F   F   F
  0.6402949210657775  0.6795794044214907  0.4445097708751528   T   T   T
  0.6950030553382677  0.5195925467968344  0.6538756945084158   T   T   T
  0.4873276573754078  0.7016794175371862  0.4987707882797455   T   T   T
  0.5004839460855024  0.5502791173970252  0.5477141156400123   F   F   F
  0.3273010493013090  0.4857627113254169  0.5780125825134839   T   T   T
  0.3826788723185072  0.6089167991277772  0.5371111339697862   T   T   T
  0.6667129484492236  0.4827404655721850  0.5105018184570156   F   F   F
  0.5763997220267569  0.4263140504383500  0.5448328182496311   F   F   F
  0.6683004530270084  0.3739457934870983  0.5071863915127678   T   T   T
  0.4613766070329140  0.3390605057055937  0.4946605368212341   T   T   T
  0.6484934028780529  0.5775373212088155  0.4602701624361103   F   F   F
  0.5528594121224698  0.4315718233106512  0.7484144338231086   T   T   T
  0.5927626478126785  0.3490879711661922  0.6672543758915905   T   T   T
  0.4927596659606036  0.2998277978939786  0.4056981406251712   T   T   T
  0.6603794234012411  0.6152722774659858  0.6683638711437668   T   T   T
  0.4900025961295074  0.4125528184220129  0.3024998217481296   T   T   T
  0.6182309878521783  0.3165816527213739  0.5718981192891187   T   T   T
  0.5394594680614158  0.6837201982045823  0.4039396108572299   T   T   T
  0.3868919459720565  0.4157846624829328  0.5224478499835459   T   T   T
  0.6274584471903044  0.5516390610838322  0.2820626052324436   T   T   T
  0.4721355141336424  0.4788172517571682  0.6922482384004571   T   T   T
  0.5683115009887700  0.5094300495444983  0.4784716241115703   F   F   F
  0.4203210565129183  0.5084107200613417  0.5018573595042781   F   F   F
  0.4532592499561264  0.4021350607489302  0.4036952756899704   T   T   T
  0.5613876101929074  0.3512737887691549  0.3500459400300936   T   T   T
  0.4128105158710491  0.5388507199585991  0.6118189922895508   T   T   T
  0.5989501233455967  0.4419437406690410  0.3043949250021403   T   T   T
  0.4548756161654683  0.6013822491889369  0.3639493881680126   T   T   T
  0.4189958052089141  0.4911900520157253  0.3374334613281960   T   T   T
  0.6604198343803764  0.4261744067373641  0.6047290137249979   T   T   T
  0.6738926840679607  0.5788033138224525  0.5642428129016946   T   T   T
  0.5257941317966692  0.5098888448350948  0.3284684603650483   T   T   T
  0.5654852661858483  0.3569849697262122  0.4684752739863839   T   T   T
  0.3161148335999475  0.5398905767619359  0.4929853390564968   T   T   T
  0.6606022914677948  0.4295724943400849  0.4153630497675328   T   T   T
  0.5660841929594156  0.6261437171197244  0.5094829013827464   F   F   F
  0.5954756946502582  0.5264416576519376  0.6904331442724152   T   T   T
  0.4707152954305596  0.6427731762589579  0.5875603565508964   T   T   T
  0.4632959076865303  0.6035605215223762  0.4642483357226472   T   T   T
  0.7162247687900005  0.5737929864948287  0.3831535892850706   T   T   T
  0.5499310510395361  0.5822218838566187  0.4076968008106903   F   F   F
  0.4794126430662260  0.5072205383607624  0.4190535757241776   F   F   F
  0.6949394359873222  0.4810460104078523  0.3238230452059769   T   T   T
  0.7514051678816716  0.4292566579119921  0.4866293856755127   T   T   T
  0.7482501516661334  0.5376249134366525  0.4849915893743890   T   T   T
  0.7483825619819410  0.4891768862405231  0.5722625983822567   T   T   T
  0.6439352536933215  0.4313244494581188  0.7093799770845405   T   T   T
  0.5781061933634365  0.7435479023725725  0.4926173117830428   T   T   T
  0.6192554540844384  0.5183157687966542  0.3801816896793397   F   F   F
  0.5072143463678306  0.5640575265767255  0.6499321914631084   T   T   T
  0.4922009500451665  0.4366758245867572  0.4933013002826740   F   F   F
  0.5608844484509063  0.4404139570509003  0.6454865549417619   F   F   F
  0.5791444296124921  0.6173855293152830  0.6132514615345949   T   T   T
  0.5436866155125094  0.6173224636242344  0.3117601347085331   T   T   T
  0.6270551120886224  0.6246100880399442  0.3595176146211908   T   T   T
  0.3766005704290046  0.5582106612493285  0.4134653896535466   T   T   T
  0.4723078164089713  0.4557257050327763  0.5877273803360978   F   F   F
  0.7275230024893355  0.6350327632751885  0.4837867052712895   T   T   T
  0.4923158505636754  0.3764080986769219  0.6738149096299026   T   T   T
  0.3870592854676127  0.4350876184193576  0.6382505358762643   T   T   T
  0.5544592502646992  0.4379899399457940  0.4037542370104745   F   F   F
  0.4259236048281417  0.3519277488582115  0.5987957973645713   T   T   T
  0.5236353989841102  0.3506588834353092  0.5756954788770229   T   T   T
  0.3517936811627250  0.3379691891963515  0.5345734614016274   T   T   T
  0.3314021441175595  0.3534387057782275  0.4995540773823386   T   T   T
  0.3414492295223404  0.2952365713176393  0.5491032454687068   T   T   T
  0.3179886448181221  0.2824400713169047  0.5278015689162886   T   T   T
 
  0.00000000E+00  0.00000000E+00  0.00000000E+00
  0.00000000E+00  0.00000000E+00  0.00000000E+00
  0.00000000E+00  0.00000000E+00  0.00000000E+00
  0.00000000E+00  0.00000000E+00  0.00000000E+00
  0.00000000E+00  0.00000000E+00  0.00000000E+00
  0.00000000E+00  0.00000000E+00  0.00000000E+00
  0.00000000E+00  0.00000000E+00  0.00000000E+00
  0.00000000E+00  0.00000000E+00  0.00000000E+00
  0.00000000E+00  0.00000000E+00  0.00000000E+00
  0.00000000E+00  0.00000000E+00  0.00000000E+00
  0.00000000E+00  0.00000000E+00  0.00000000E+00
  0.00000000E+00  0.00000000E+00  0.00000000E+00
  0.00000000E+00  0.00000000E+00  0.00000000E+00
  0.00000000E+00  0.00000000E+00  0.00000000E+00
  0.00000000E+00  0.00000000E+00  0.00000000E+00
  0.00000000E+00  0.00000000E+00  0.00000000E+00
  0.00000000E+00  0.00000000E+00  0.00000000E+00
  0.00000000E+00  0.00000000E+00  0.00000000E+00
  0.00000000E+00  0.00000000E+00  0.00000000E+00
  0.00000000E+00  0.00000000E+00  0.00000000E+00
  0.00000000E+00  0.00000000E+00  0.00000000E+00
  0.00000000E+00  0.00000000E+00  0.00000000E+00
  0.00000000E+00  0.00000000E+00  0.00000000E+00
  0.00000000E+00  0.00000000E+00  0.00000000E+00
  0.00000000E+00  0.00000000E+00  0.00000000E+00
  0.00000000E+00  0.00000000E+00  0.00000000E+00
  0.00000000E+00  0.00000000E+00  0.00000000E+00
  0.00000000E+00  0.00000000E+00  0.00000000E+00
  0.00000000E+00  0.00000000E+00  0.00000000E+00
  0.00000000E+00  0.00000000E+00  0.00000000E+00
  0.00000000E+00  0.00000000E+00  0.00000000E+00
  0.00000000E+00  0.00000000E+00  0.00000000E+00
  0.00000000E+00  0.00000000E+00  0.00000000E+00
  0.00000000E+00  0.00000000E+00  0.00000000E+00
  0.00000000E+00  0.00000000E+00  0.00000000E+00
  0.00000000E+00  0.00000000E+00  0.00000000E+00
  0.00000000E+00  0.00000000E+00  0.00000000E+00
  0.00000000E+00  0.00000000E+00  0.00000000E+00
  0.00000000E+00  0.00000000E+00  0.00000000E+00
  0.00000000E+00  0.00000000E+00  0.00000000E+00
  0.00000000E+00  0.00000000E+00  0.00000000E+00
  0.00000000E+00  0.00000000E+00  0.00000000E+00
  0.00000000E+00  0.00000000E+00  0.00000000E+00
  0.00000000E+00  0.00000000E+00  0.00000000E+00
  0.00000000E+00  0.00000000E+00  0.00000000E+00
  0.00000000E+00  0.00000000E+00  0.00000000E+00
  0.00000000E+00  0.00000000E+00  0.00000000E+00
  0.00000000E+00  0.00000000E+00  0.00000000E+00
  0.00000000E+00  0.00000000E+00  0.00000000E+00
  0.00000000E+00  0.00000000E+00  0.00000000E+00
  0.00000000E+00  0.00000000E+00  0.00000000E+00
  0.00000000E+00  0.00000000E+00  0.00000000E+00
  0.00000000E+00  0.00000000E+00  0.00000000E+00
  0.00000000E+00  0.00000000E+00  0.00000000E+00
  0.00000000E+00  0.00000000E+00  0.00000000E+00
  0.00000000E+00  0.00000000E+00  0.00000000E+00
  0.00000000E+00  0.00000000E+00  0.00000000E+00
  0.00000000E+00  0.00000000E+00  0.00000000E+00
  0.00000000E+00  0.00000000E+00  0.00000000E+00
  0.00000000E+00  0.00000000E+00  0.00000000E+00
  0.00000000E+00  0.00000000E+00  0.00000000E+00
  0.00000000E+00  0.00000000E+00  0.00000000E+00
  0.00000000E+00  0.00000000E+00  0.00000000E+00
  0.00000000E+00  0.00000000E+00  0.00000000E+00
  0.00000000E+00  0.00000000E+00  0.00000000E+00
  0.00000000E+00  0.00000000E+00  0.00000000E+00
  0.00000000E+00  0.00000000E+00  0.00000000E+00
  0.00000000E+00  0.00000000E+00  0.00000000E+00
  0.00000000E+00  0.00000000E+00  0.00000000E+00
  0.00000000E+00  0.00000000E+00  0.00000000E+00
  0.00000000E+00  0.00000000E+00  0.00000000E+00
  0.00000000E+00  0.00000000E+00  0.00000000E+00
