Bi La Sn C  O  H                        
   1.00000000000000     
    29.0000000000000000    0.0000000000000000    0.0000000000000000
     0.2488180851000000   28.9989325590000000    0.0000000000000000
    -0.0631677343000000   -0.4515975666000000   28.9964147692999994
   Bi   La   Sn   C    O    H 
    22    23    23     1     2     1
Selective dynamics
Direct
  0.7599569871792922  0.4766043750386406  0.3961041271575478   T   T   T
  0.6510212715398851  0.6789844687582814  0.5467925155284641   T   T   T
  0.3594063809095694  0.4583858325827522  0.4287712256434379   T   T   T
  0.5513897802730671  0.7126122836565090  0.5822372655005654   T   T   T
  0.5915029568994470  0.5209714444905416  0.5841479689498996   F   F   F
  0.6413948317602178  0.6785056728237152  0.4410555261944422   T   T   T
  0.6956650011388272  0.5189289708296946  0.6546613244221829   T   T   T
  0.4867401252478167  0.7019311146307177  0.4990025134711273   T   T   T
  0.5004839460855024  0.5502791173970252  0.5477141156400123   F   F   F
  0.3257199173382324  0.4855644756800694  0.5769847518598138   T   T   T
  0.3820157895619269  0.6098166291737694  0.5361872193163894   T   T   T
  0.6667129484492236  0.4827404655721850  0.5105018184570156   F   F   F
  0.5763997220267569  0.4263140504383500  0.5448328182496311   F   F   F
  0.6680421731603028  0.3743536304959814  0.5065797290929095   T   T   T
  0.4612250316808558  0.3383574271992016  0.4984390597899599   T   T   T
  0.6484934028780529  0.5775373212088155  0.4602701624361103   F   F   F
  0.5581947691151437  0.4345699944845464  0.7495289944583133   T   T   T
  0.5996181294277632  0.3504576973473574  0.6679155810489681   T   T   T
  0.4917200334901347  0.2988477287431001  0.4092989714323917   T   T   T
  0.6619583798130545  0.6154309494104786  0.6667555776562291   T   T   T
  0.4894471979578536  0.4107985713026128  0.3054108951533855   T   T   T
  0.6209043947991939  0.3156678678807928  0.5719933438698682   T   T   T
  0.5385970193858926  0.6832042363922606  0.4039360017420063   T   T   T
  0.3898533417441589  0.4157003567232776  0.5271779821674349   T   T   T
  0.6270933969635317  0.5507034173733381  0.2818834133845618   T   T   T
  0.4725276734367437  0.4741261198003510  0.6926159448371797   T   T   T
  0.5683115009887700  0.5094300495444983  0.4784716241115703   F   F   F
  0.4203210565129183  0.5084107200613417  0.5018573595042781   F   F   F
  0.4519448930782179  0.4010815604898189  0.4064649313555366   T   T   T
  0.5608627498543826  0.3496086922371073  0.3526564809068409   T   T   T
  0.4118698486984093  0.5397804749109351  0.6103568861804488   T   T   T
  0.5977532499443948  0.4411523416179075  0.3039077399085588   T   T   T
  0.4543522755745368  0.5997301395186222  0.3642244764157591   T   T   T
  0.4171276981326973  0.4878077300916957  0.3405965035080343   T   T   T
  0.6612487443660902  0.4262957817676990  0.6040160950016009   T   T   T
  0.6755641700069073  0.5771911431891714  0.5643595090839543   T   T   T
  0.5257326190897587  0.5091035266079702  0.3282536077296618   T   T   T
  0.5647834424723083  0.3570797646001299  0.4690652465898364   T   T   T
  0.3151550280958453  0.5405573197485268  0.4930323397868577   T   T   T
  0.6605450332276951  0.4304725876455465  0.4152635603211275   T   T   T
  0.5660841929594156  0.6261437171197244  0.5094829013827464   F   F   F
  0.5957251162540825  0.5274866925125458  0.6899558889636177   T   T   T
  0.4703674439980133  0.6422458316854870  0.5880798516536326   T   T   T
  0.4625199809779654  0.6040024040687363  0.4646028113756737   T   T   T
  0.7151977809880747  0.5720751212056174  0.3811559013622438   T   T   T
  0.5499310510395361  0.5822218838566187  0.4076968008106903   F   F   F
  0.4794126430662260  0.5072205383607624  0.4190535757241776   F   F   F
  0.6940308823305177  0.4785855376531895  0.3222162941827996   T   T   T
  0.7518100895945049  0.4289021741904939  0.4863802643989801   T   T   T
  0.7485511567622285  0.5350525639131197  0.4826116803246670   T   T   T
  0.7491283233914234  0.4895853023789853  0.5717437532387716   T   T   T
  0.6479277830100941  0.4345063810206440  0.7084504973836038   T   T   T
  0.5785608652709733  0.7417800273754339  0.4916609783819688   T   T   T
  0.6192554540844384  0.5183157687966542  0.3801816896793397   F   F   F
  0.5057891676056001  0.5618133333424741  0.6506428965121014   T   T   T
  0.4922009500451665  0.4366758245867572  0.4933013002826740   F   F   F
  0.5608844484509063  0.4404139570509003  0.6454865549417619   F   F   F
  0.5786284769544641  0.6161362082065768  0.6140823025978096   T   T   T
  0.5422827246228391  0.6164476530108182  0.3116335330448938   T   T   T
  0.6261023453972669  0.6239956099485572  0.3579456787741703   T   T   T
  0.3758293016610101  0.5574960278977408  0.4140816252806785   T   T   T
  0.4723078164089713  0.4557257050327763  0.5877273803360978   F   F   F
  0.7300393520735238  0.6318503276069434  0.4810788958390126   T   T   T
  0.5001833889853042  0.3713598836722141  0.6821341294975278   T   T   T
  0.3834496737571516  0.4397802010354195  0.6408930358830542   T   T   T
  0.5544592502646992  0.4379899399457940  0.4037542370104745   F   F   F
  0.4330354151991344  0.3610166255896627  0.6076059794746488   T   T   T
  0.5270745207651572  0.3488991092907320  0.5772683643437754   T   T   T
  0.6611213335698142  0.7482123953809471  0.5888967472819594   T   T   T
  0.6573950593429673  0.7872979998915668  0.5745918089200837   T   T   T
  0.6784443611649972  0.7378728227621253  0.6317249313245196   T   T   T
  0.6864862771868893  0.7674845363444428  0.6467055306217947   T   T   T
 
  0.00000000E+00  0.00000000E+00  0.00000000E+00
  0.00000000E+00  0.00000000E+00  0.00000000E+00
  0.00000000E+00  0.00000000E+00  0.00000000E+00
  0.00000000E+00  0.00000000E+00  0.00000000E+00
  0.00000000E+00  0.00000000E+00  0.00000000E+00
  0.00000000E+00  0.00000000E+00  0.00000000E+00
  0.00000000E+00  0.00000000E+00  0.00000000E+00
  0.00000000E+00  0.00000000E+00  0.00000000E+00
  0.00000000E+00  0.00000000E+00  0.00000000E+00
  0.00000000E+00  0.00000000E+00  0.00000000E+00
  0.00000000E+00  0.00000000E+00  0.00000000E+00
  0.00000000E+00  0.00000000E+00  0.00000000E+00
  0.00000000E+00  0.00000000E+00  0.00000000E+00
  0.00000000E+00  0.00000000E+00  0.00000000E+00
  0.00000000E+00  0.00000000E+00  0.00000000E+00
  0.00000000E+00  0.00000000E+00  0.00000000E+00
  0.00000000E+00  0.00000000E+00  0.00000000E+00
  0.00000000E+00  0.00000000E+00  0.00000000E+00
  0.00000000E+00  0.00000000E+00  0.00000000E+00
  0.00000000E+00  0.00000000E+00  0.00000000E+00
  0.00000000E+00  0.00000000E+00  0.00000000E+00
  0.00000000E+00  0.00000000E+00  0.00000000E+00
  0.00000000E+00  0.00000000E+00  0.00000000E+00
  0.00000000E+00  0.00000000E+00  0.00000000E+00
  0.00000000E+00  0.00000000E+00  0.00000000E+00
  0.00000000E+00  0.00000000E+00  0.00000000E+00
  0.00000000E+00  0.00000000E+00  0.00000000E+00
  0.00000000E+00  0.00000000E+00  0.00000000E+00
  0.00000000E+00  0.00000000E+00  0.00000000E+00
  0.00000000E+00  0.00000000E+00  0.00000000E+00
  0.00000000E+00  0.00000000E+00  0.00000000E+00
  0.00000000E+00  0.00000000E+00  0.00000000E+00
  0.00000000E+00  0.00000000E+00  0.00000000E+00
  0.00000000E+00  0.00000000E+00  0.00000000E+00
  0.00000000E+00  0.00000000E+00  0.00000000E+00
  0.00000000E+00  0.00000000E+00  0.00000000E+00
  0.00000000E+00  0.00000000E+00  0.00000000E+00
  0.00000000E+00  0.00000000E+00  0.00000000E+00
  0.00000000E+00  0.00000000E+00  0.00000000E+00
  0.00000000E+00  0.00000000E+00  0.00000000E+00
  0.00000000E+00  0.00000000E+00  0.00000000E+00
  0.00000000E+00  0.00000000E+00  0.00000000E+00
  0.00000000E+00  0.00000000E+00  0.00000000E+00
  0.00000000E+00  0.00000000E+00  0.00000000E+00
  0.00000000E+00  0.00000000E+00  0.00000000E+00
  0.00000000E+00  0.00000000E+00  0.00000000E+00
  0.00000000E+00  0.00000000E+00  0.00000000E+00
  0.00000000E+00  0.00000000E+00  0.00000000E+00
  0.00000000E+00  0.00000000E+00  0.00000000E+00
  0.00000000E+00  0.00000000E+00  0.00000000E+00
  0.00000000E+00  0.00000000E+00  0.00000000E+00
  0.00000000E+00  0.00000000E+00  0.00000000E+00
  0.00000000E+00  0.00000000E+00  0.00000000E+00
  0.00000000E+00  0.00000000E+00  0.00000000E+00
  0.00000000E+00  0.00000000E+00  0.00000000E+00
  0.00000000E+00  0.00000000E+00  0.00000000E+00
  0.00000000E+00  0.00000000E+00  0.00000000E+00
  0.00000000E+00  0.00000000E+00  0.00000000E+00
  0.00000000E+00  0.00000000E+00  0.00000000E+00
  0.00000000E+00  0.00000000E+00  0.00000000E+00
  0.00000000E+00  0.00000000E+00  0.00000000E+00
  0.00000000E+00  0.00000000E+00  0.00000000E+00
  0.00000000E+00  0.00000000E+00  0.00000000E+00
  0.00000000E+00  0.00000000E+00  0.00000000E+00
  0.00000000E+00  0.00000000E+00  0.00000000E+00
  0.00000000E+00  0.00000000E+00  0.00000000E+00
  0.00000000E+00  0.00000000E+00  0.00000000E+00
  0.00000000E+00  0.00000000E+00  0.00000000E+00
  0.00000000E+00  0.00000000E+00  0.00000000E+00
  0.00000000E+00  0.00000000E+00  0.00000000E+00
  0.00000000E+00  0.00000000E+00  0.00000000E+00
  0.00000000E+00  0.00000000E+00  0.00000000E+00
