Bi La Sn C  O  H                        
   1.00000000000000     
    29.0000000000000000    0.0000000000000000    0.0000000000000000
     0.2488180851000000   28.9989325590000000    0.0000000000000000
    -0.0631677343000000   -0.4515975666000000   28.9964147692999994
   Bi   La   Sn   C    O    H 
    22    23    23     1     2     1
Selective dynamics
Direct
  0.7618672856484200  0.4769269312504884  0.3952579602627917   T   T   T
  0.6486253970018933  0.6820815193198471  0.5523799406512258   T   T   T
  0.3597483542208627  0.4580609588786372  0.4286041989101427   T   T   T
  0.5522250793850637  0.7129398309592335  0.5842178431711530   T   T   T
  0.5915029568994470  0.5209714444905416  0.5841479689498996   F   F   F
  0.6413641414447518  0.6798669716083212  0.4463933233868317   T   T   T
  0.6969710291765632  0.5203237204069889  0.6545872902162547   T   T   T
  0.4870551233499689  0.7012458667099511  0.4987353980006207   T   T   T
  0.5004839460855024  0.5502791173970252  0.5477141156400123   F   F   F
  0.3258206925663606  0.4860714967789658  0.5753334074355732   T   T   T
  0.3825732276042326  0.6100884171354184  0.5353657924093455   T   T   T
  0.6667129484492236  0.4827404655721850  0.5105018184570156   F   F   F
  0.5763997220267569  0.4263140504383500  0.5448328182496311   F   F   F
  0.6713931208403140  0.3751064853015210  0.5077155560840889   T   T   T
  0.4642303810423513  0.3389151531717856  0.4994721459219970   T   T   T
  0.6484934028780529  0.5775373212088155  0.4602701624361103   F   F   F
  0.5595939303752377  0.4367561936730525  0.7492644780288963   T   T   T
  0.6041716607954624  0.3520556013200502  0.6687686670443574   T   T   T
  0.4939439756944897  0.2997528120068551  0.4097076663776618   T   T   T
  0.6620258652288823  0.6167333754992671  0.6656245608795252   T   T   T
  0.4920425172477667  0.4098739034915150  0.3068410501871452   T   T   T
  0.6224824131967091  0.3165780328760657  0.5724775271664888   T   T   T
  0.5403118781309042  0.6836631948252962  0.4042566362931795   T   T   T
  0.3906272433326108  0.4149776034373814  0.5275800281847138   T   T   T
  0.6280921174085405  0.5523173873344588  0.2815615766096540   T   T   T
  0.4726526509504543  0.4722567700772458  0.6918015537454232   T   T   T
  0.5683115009887700  0.5094300495444983  0.4784716241115703   F   F   F
  0.4203210565129183  0.5084107200613417  0.5018573595042781   F   F   F
  0.4524008385360760  0.4008369350302145  0.4066391793482367   T   T   T
  0.5651552527813691  0.3489527326063434  0.3536406476598314   T   T   T
  0.4112668088601130  0.5402399987396800  0.6102606602849757   T   T   T
  0.5981712646035605  0.4423806404860523  0.3046175072568535   T   T   T
  0.4550468431051377  0.6003713435595026  0.3632613596334995   T   T   T
  0.4183930503920477  0.4868014914840990  0.3402366481688987   T   T   T
  0.6609845388963023  0.4285193748967115  0.6043460481947551   T   T   T
  0.6754477114218315  0.5761016697051375  0.5636259467041691   T   T   T
  0.5261439839179551  0.5096279092061662  0.3279943620100032   T   T   T
  0.5676099232913361  0.3576215409118842  0.4688601041549949   T   T   T
  0.3156661176429404  0.5410423015070562  0.4915425204513301   T   T   T
  0.6615563461567016  0.4298186059291149  0.4156654263758470   T   T   T
  0.5660841929594156  0.6261437171197244  0.5094829013827464   F   F   F
  0.5958105805900508  0.5292416304646804  0.6896578882447622   T   T   T
  0.4705855453734277  0.6422165502065477  0.5876629566458454   T   T   T
  0.4630406133541070  0.6033509375681327  0.4634855702992403   T   T   T
  0.7165879089772460  0.5727886283657987  0.3831498489435108   T   T   T
  0.5499310510395361  0.5822218838566187  0.4076968008106903   F   F   F
  0.4794126430662260  0.5072205383607624  0.4190535757241776   F   F   F
  0.6944829590301439  0.4809377452398496  0.3235032898741376   T   T   T
  0.7531866740683466  0.4295797767848614  0.4834896425201359   T   T   T
  0.7491423824912445  0.5355199581138316  0.4820558981037349   T   T   T
  0.7503122082399760  0.4876111277105891  0.5687718321514262   T   T   T
  0.6498471341275326  0.4378940721871216  0.7090780472467973   T   T   T
  0.5780541343943758  0.7428500443732567  0.4933063901628817   T   T   T
  0.6192554540844384  0.5183157687966542  0.3801816896793397   F   F   F
  0.5054576046538284  0.5610233185060508  0.6500603382529622   T   T   T
  0.4922009500451665  0.4366758245867572  0.4933013002826740   F   F   F
  0.5608844484509063  0.4404139570509003  0.6454865549417619   F   F   F
  0.5787149238871592  0.6160395810559161  0.6132825655480034   T   T   T
  0.5441427871346542  0.6172087719080990  0.3118075183904089   T   T   T
  0.6270084569453555  0.6239366101473161  0.3608443166360118   T   T   T
  0.3769061301854120  0.5569382536511125  0.4126613368467694   T   T   T
  0.4723078164089713  0.4557257050327763  0.5877273803360978   F   F   F
  0.7283602582440634  0.6331701536897488  0.4842225422198699   T   T   T
  0.5040773098047614  0.3690346424942185  0.6848699941883372   T   T   T
  0.3827284781616706  0.4407530493356816  0.6403880217501646   T   T   T
  0.5544592502646992  0.4379899399457940  0.4037542370104745   F   F   F
  0.4351270612772429  0.3629243924648731  0.6104167463732363   T   T   T
  0.5288416489581800  0.3487728800115437  0.5797287064719316   T   T   T
  0.8226687651918942  0.3940978484526935  0.4737259799388121   T   T   T
  0.8579911273637195  0.3988103044806732  0.4961592813645667   T   T   T
  0.8202849203323682  0.3650847665407130  0.4355920084352742   T   T   T
  0.8512669848979519  0.3514049850357756  0.4313467110717192   T   T   T
 
  0.00000000E+00  0.00000000E+00  0.00000000E+00
  0.00000000E+00  0.00000000E+00  0.00000000E+00
  0.00000000E+00  0.00000000E+00  0.00000000E+00
  0.00000000E+00  0.00000000E+00  0.00000000E+00
  0.00000000E+00  0.00000000E+00  0.00000000E+00
  0.00000000E+00  0.00000000E+00  0.00000000E+00
  0.00000000E+00  0.00000000E+00  0.00000000E+00
  0.00000000E+00  0.00000000E+00  0.00000000E+00
  0.00000000E+00  0.00000000E+00  0.00000000E+00
  0.00000000E+00  0.00000000E+00  0.00000000E+00
  0.00000000E+00  0.00000000E+00  0.00000000E+00
  0.00000000E+00  0.00000000E+00  0.00000000E+00
  0.00000000E+00  0.00000000E+00  0.00000000E+00
  0.00000000E+00  0.00000000E+00  0.00000000E+00
  0.00000000E+00  0.00000000E+00  0.00000000E+00
  0.00000000E+00  0.00000000E+00  0.00000000E+00
  0.00000000E+00  0.00000000E+00  0.00000000E+00
  0.00000000E+00  0.00000000E+00  0.00000000E+00
  0.00000000E+00  0.00000000E+00  0.00000000E+00
  0.00000000E+00  0.00000000E+00  0.00000000E+00
  0.00000000E+00  0.00000000E+00  0.00000000E+00
  0.00000000E+00  0.00000000E+00  0.00000000E+00
  0.00000000E+00  0.00000000E+00  0.00000000E+00
  0.00000000E+00  0.00000000E+00  0.00000000E+00
  0.00000000E+00  0.00000000E+00  0.00000000E+00
  0.00000000E+00  0.00000000E+00  0.00000000E+00
  0.00000000E+00  0.00000000E+00  0.00000000E+00
  0.00000000E+00  0.00000000E+00  0.00000000E+00
  0.00000000E+00  0.00000000E+00  0.00000000E+00
  0.00000000E+00  0.00000000E+00  0.00000000E+00
  0.00000000E+00  0.00000000E+00  0.00000000E+00
  0.00000000E+00  0.00000000E+00  0.00000000E+00
  0.00000000E+00  0.00000000E+00  0.00000000E+00
  0.00000000E+00  0.00000000E+00  0.00000000E+00
  0.00000000E+00  0.00000000E+00  0.00000000E+00
  0.00000000E+00  0.00000000E+00  0.00000000E+00
  0.00000000E+00  0.00000000E+00  0.00000000E+00
  0.00000000E+00  0.00000000E+00  0.00000000E+00
  0.00000000E+00  0.00000000E+00  0.00000000E+00
  0.00000000E+00  0.00000000E+00  0.00000000E+00
  0.00000000E+00  0.00000000E+00  0.00000000E+00
  0.00000000E+00  0.00000000E+00  0.00000000E+00
  0.00000000E+00  0.00000000E+00  0.00000000E+00
  0.00000000E+00  0.00000000E+00  0.00000000E+00
  0.00000000E+00  0.00000000E+00  0.00000000E+00
  0.00000000E+00  0.00000000E+00  0.00000000E+00
  0.00000000E+00  0.00000000E+00  0.00000000E+00
  0.00000000E+00  0.00000000E+00  0.00000000E+00
  0.00000000E+00  0.00000000E+00  0.00000000E+00
  0.00000000E+00  0.00000000E+00  0.00000000E+00
  0.00000000E+00  0.00000000E+00  0.00000000E+00
  0.00000000E+00  0.00000000E+00  0.00000000E+00
  0.00000000E+00  0.00000000E+00  0.00000000E+00
  0.00000000E+00  0.00000000E+00  0.00000000E+00
  0.00000000E+00  0.00000000E+00  0.00000000E+00
  0.00000000E+00  0.00000000E+00  0.00000000E+00
  0.00000000E+00  0.00000000E+00  0.00000000E+00
  0.00000000E+00  0.00000000E+00  0.00000000E+00
  0.00000000E+00  0.00000000E+00  0.00000000E+00
  0.00000000E+00  0.00000000E+00  0.00000000E+00
  0.00000000E+00  0.00000000E+00  0.00000000E+00
  0.00000000E+00  0.00000000E+00  0.00000000E+00
  0.00000000E+00  0.00000000E+00  0.00000000E+00
  0.00000000E+00  0.00000000E+00  0.00000000E+00
  0.00000000E+00  0.00000000E+00  0.00000000E+00
  0.00000000E+00  0.00000000E+00  0.00000000E+00
  0.00000000E+00  0.00000000E+00  0.00000000E+00
  0.00000000E+00  0.00000000E+00  0.00000000E+00
  0.00000000E+00  0.00000000E+00  0.00000000E+00
  0.00000000E+00  0.00000000E+00  0.00000000E+00
  0.00000000E+00  0.00000000E+00  0.00000000E+00
  0.00000000E+00  0.00000000E+00  0.00000000E+00
