Bi La Sn C  O  H                        
   1.00000000000000     
    29.0000000000000000    0.0000000000000000    0.0000000000000000
     0.2488180851000000   28.9989325590000000    0.0000000000000000
    -0.0631677343000000   -0.4515975666000000   28.9964147692999994
   Bi   La   Sn   C    O    H 
    22    23    23     1     2     1
Selective dynamics
Direct
  0.7589291219753489  0.4797105736304312  0.3995097172586210   T   T   T
  0.6477171094092676  0.6850449818397307  0.5496757492297993   T   T   T
  0.3602355614933566  0.4581944661801295  0.4275931345648470   T   T   T
  0.5505072103422000  0.7134872967183434  0.5844434606718076   T   T   T
  0.5915029568994470  0.5209714444905416  0.5841479689498996   F   F   F
  0.6393672918554204  0.6792834950107125  0.4440829424801087   T   T   T
  0.6958083891236423  0.5185871713507415  0.6528493897657039   T   T   T
  0.4861835515464506  0.7005509095456690  0.5003947843736314   T   T   T
  0.5004839460855024  0.5502791173970252  0.5477141156400123   F   F   F
  0.3284276632427717  0.4832554963772324  0.5783774949109516   T   T   T
  0.3825357983699708  0.6109637313131998  0.5358980844144785   T   T   T
  0.6667129484492236  0.4827404655721850  0.5105018184570156   F   F   F
  0.5763997220267569  0.4263140504383500  0.5448328182496311   F   F   F
  0.6684289263668803  0.3739793155804797  0.5056292939871353   T   T   T
  0.4608558407082823  0.3368119970942641  0.4937983544563032   T   T   T
  0.6484934028780529  0.5775373212088155  0.4602701624361103   F   F   F
  0.5554219781942936  0.4330447465012359  0.7497327477021308   T   T   T
  0.5895346393891781  0.3472623099488527  0.6667321131262216   T   T   T
  0.4934614237618278  0.3000850002812427  0.4044483987616624   T   T   T
  0.6612455452275253  0.6139381164029770  0.6694122691113188   T   T   T
  0.4919307721933923  0.4112415969471807  0.3042908808977104   T   T   T
  0.6195892152535666  0.3172364029344342  0.5718472426217911   T   T   T
  0.5380426170712589  0.6835296413925483  0.4046709645872754   T   T   T
  0.3902740619491191  0.4147261860752567  0.5248917545579465   T   T   T
  0.6264235703865844  0.5519004363465475  0.2816501146908608   T   T   T
  0.4729300050722804  0.4819330832702665  0.6957236003757177   T   T   T
  0.5683115009887700  0.5094300495444983  0.4784716241115703   F   F   F
  0.4203210565129183  0.5084107200613417  0.5018573595042781   F   F   F
  0.4527442684839757  0.4017062159808015  0.4045350081968837   T   T   T
  0.5641975174967717  0.3506569813039240  0.3510538576431574   T   T   T
  0.4120432730916798  0.5405545249972048  0.6116494661796534   T   T   T
  0.6002214852559552  0.4410557223323023  0.3050261827786054   T   T   T
  0.4544619917947568  0.5997861203560492  0.3638988422817659   T   T   T
  0.4186423975382954  0.4878765698157931  0.3397697687241940   T   T   T
  0.6604933961550679  0.4244879518240478  0.6043157078946625   T   T   T
  0.6744171201970295  0.5791076882740518  0.5644107447062122   T   T   T
  0.5257201132989835  0.5100421996655390  0.3280913758525071   T   T   T
  0.5650234887704856  0.3567958557234431  0.4688364792251876   T   T   T
  0.3172160457677233  0.5400934038733255  0.4946130251459369   T   T   T
  0.6604045414600147  0.4296029845261363  0.4147887552632941   T   T   T
  0.5660841929594156  0.6261437171197244  0.5094829013827464   F   F   F
  0.5972804653837113  0.5248124331881782  0.6909275143309086   T   T   T
  0.4698753501581565  0.6419602484675440  0.5894589097546525   T   T   T
  0.4623236725197730  0.6031137601152439  0.4642315758375882   T   T   T
  0.7162358767268943  0.5752514998626190  0.3835997850398540   T   T   T
  0.5499310510395361  0.5822218838566187  0.4076968008106903   F   F   F
  0.4794126430662260  0.5072205383607624  0.4190535757241776   F   F   F
  0.6952425323204782  0.4831042647430684  0.3239231688276968   T   T   T
  0.7522376824026280  0.4284785934093595  0.4866082610672577   T   T   T
  0.7484681857104145  0.5386669230299194  0.4860301755201716   T   T   T
  0.7490574105936333  0.4882683811138930  0.5713263296590588   T   T   T
  0.6439883349466401  0.4271680064176246  0.7085033732774313   T   T   T
  0.5770415168954033  0.7430463214642052  0.4929958559363808   T   T   T
  0.6192554540844384  0.5183157687966542  0.3801816896793397   F   F   F
  0.5111998808739363  0.5614627445404881  0.6468822050461845   T   T   T
  0.4922009500451665  0.4366758245867572  0.4933013002826740   F   F   F
  0.5608844484509063  0.4404139570509003  0.6454865549417619   F   F   F
  0.5812564923450613  0.6187564318850317  0.6129443531602267   T   T   T
  0.5430016830786625  0.6176405172548890  0.3120863594655586   T   T   T
  0.6266389635654187  0.6249472445298535  0.3588967406643467   T   T   T
  0.3757034608945912  0.5570137883694953  0.4134631781282921   T   T   T
  0.4723078164089713  0.4557257050327763  0.5877273803360978   F   F   F
  0.7270160090060021  0.6355986962536091  0.4838931731234811   T   T   T
  0.4905371527651688  0.3791021405573677  0.6762758257031195   T   T   T
  0.3893819423773547  0.4362178527393183  0.6410935613360722   T   T   T
  0.5544592502646992  0.4379899399457940  0.4037542370104745   F   F   F
  0.4303305254410181  0.3544568687219214  0.6005821235773260   T   T   T
  0.5244488995202110  0.3496887561482431  0.5741555888847468   T   T   T
  0.4193604859028187  0.5572242139226716  0.6971329102407176   T   T   T
  0.4004106606342291  0.5939876279555426  0.6840381121998926   T   T   T
  0.4257502843963341  0.5507970924198278  0.7442765287501034   T   T   T
  0.4153134026807912  0.5785254747074003  0.7614348752100575   T   T   T
 
  0.00000000E+00  0.00000000E+00  0.00000000E+00
  0.00000000E+00  0.00000000E+00  0.00000000E+00
  0.00000000E+00  0.00000000E+00  0.00000000E+00
  0.00000000E+00  0.00000000E+00  0.00000000E+00
  0.00000000E+00  0.00000000E+00  0.00000000E+00
  0.00000000E+00  0.00000000E+00  0.00000000E+00
  0.00000000E+00  0.00000000E+00  0.00000000E+00
  0.00000000E+00  0.00000000E+00  0.00000000E+00
  0.00000000E+00  0.00000000E+00  0.00000000E+00
  0.00000000E+00  0.00000000E+00  0.00000000E+00
  0.00000000E+00  0.00000000E+00  0.00000000E+00
  0.00000000E+00  0.00000000E+00  0.00000000E+00
  0.00000000E+00  0.00000000E+00  0.00000000E+00
  0.00000000E+00  0.00000000E+00  0.00000000E+00
  0.00000000E+00  0.00000000E+00  0.00000000E+00
  0.00000000E+00  0.00000000E+00  0.00000000E+00
  0.00000000E+00  0.00000000E+00  0.00000000E+00
  0.00000000E+00  0.00000000E+00  0.00000000E+00
  0.00000000E+00  0.00000000E+00  0.00000000E+00
  0.00000000E+00  0.00000000E+00  0.00000000E+00
  0.00000000E+00  0.00000000E+00  0.00000000E+00
  0.00000000E+00  0.00000000E+00  0.00000000E+00
  0.00000000E+00  0.00000000E+00  0.00000000E+00
  0.00000000E+00  0.00000000E+00  0.00000000E+00
  0.00000000E+00  0.00000000E+00  0.00000000E+00
  0.00000000E+00  0.00000000E+00  0.00000000E+00
  0.00000000E+00  0.00000000E+00  0.00000000E+00
  0.00000000E+00  0.00000000E+00  0.00000000E+00
  0.00000000E+00  0.00000000E+00  0.00000000E+00
  0.00000000E+00  0.00000000E+00  0.00000000E+00
  0.00000000E+00  0.00000000E+00  0.00000000E+00
  0.00000000E+00  0.00000000E+00  0.00000000E+00
  0.00000000E+00  0.00000000E+00  0.00000000E+00
  0.00000000E+00  0.00000000E+00  0.00000000E+00
  0.00000000E+00  0.00000000E+00  0.00000000E+00
  0.00000000E+00  0.00000000E+00  0.00000000E+00
  0.00000000E+00  0.00000000E+00  0.00000000E+00
  0.00000000E+00  0.00000000E+00  0.00000000E+00
  0.00000000E+00  0.00000000E+00  0.00000000E+00
  0.00000000E+00  0.00000000E+00  0.00000000E+00
  0.00000000E+00  0.00000000E+00  0.00000000E+00
  0.00000000E+00  0.00000000E+00  0.00000000E+00
  0.00000000E+00  0.00000000E+00  0.00000000E+00
  0.00000000E+00  0.00000000E+00  0.00000000E+00
  0.00000000E+00  0.00000000E+00  0.00000000E+00
  0.00000000E+00  0.00000000E+00  0.00000000E+00
  0.00000000E+00  0.00000000E+00  0.00000000E+00
  0.00000000E+00  0.00000000E+00  0.00000000E+00
  0.00000000E+00  0.00000000E+00  0.00000000E+00
  0.00000000E+00  0.00000000E+00  0.00000000E+00
  0.00000000E+00  0.00000000E+00  0.00000000E+00
  0.00000000E+00  0.00000000E+00  0.00000000E+00
  0.00000000E+00  0.00000000E+00  0.00000000E+00
  0.00000000E+00  0.00000000E+00  0.00000000E+00
  0.00000000E+00  0.00000000E+00  0.00000000E+00
  0.00000000E+00  0.00000000E+00  0.00000000E+00
  0.00000000E+00  0.00000000E+00  0.00000000E+00
  0.00000000E+00  0.00000000E+00  0.00000000E+00
  0.00000000E+00  0.00000000E+00  0.00000000E+00
  0.00000000E+00  0.00000000E+00  0.00000000E+00
  0.00000000E+00  0.00000000E+00  0.00000000E+00
  0.00000000E+00  0.00000000E+00  0.00000000E+00
  0.00000000E+00  0.00000000E+00  0.00000000E+00
  0.00000000E+00  0.00000000E+00  0.00000000E+00
  0.00000000E+00  0.00000000E+00  0.00000000E+00
  0.00000000E+00  0.00000000E+00  0.00000000E+00
  0.00000000E+00  0.00000000E+00  0.00000000E+00
  0.00000000E+00  0.00000000E+00  0.00000000E+00
  0.00000000E+00  0.00000000E+00  0.00000000E+00
  0.00000000E+00  0.00000000E+00  0.00000000E+00
  0.00000000E+00  0.00000000E+00  0.00000000E+00
  0.00000000E+00  0.00000000E+00  0.00000000E+00
