Generated nanoparticle
1.0
  40.7999999999999972  0.0000000000000000  0.0000000000000000
  0.0000000000000000  40.7999999999999972  0.0000000000000000
  0.0000000000000000  0.0000000000000000  40.7999999999999972
  Bi  La  Sn
  27  27  27
Cartesian
  20.3999999999999986  18.6000000000000014  15.0000000000000000
  22.1999999999999993  20.3999999999999986  15.0000000000000000
  20.3999999999999986  16.8000000000000007  16.8000000000000007
  22.1999999999999993  18.6000000000000014  16.8000000000000007
  24.0000000000000000  20.3999999999999986  16.8000000000000007
  20.3999999999999986  15.0000000000000000  18.6000000000000014
  22.1999999999999993  16.8000000000000007  18.6000000000000014
  24.0000000000000000  18.6000000000000014  18.6000000000000014
  25.8000000000000007  20.3999999999999986  18.6000000000000014
  22.1999999999999993  15.0000000000000000  20.3999999999999986
  24.0000000000000000  16.8000000000000007  20.3999999999999986
  25.8000000000000007  18.6000000000000014  20.3999999999999986
  18.6000000000000014  20.3999999999999986  15.0000000000000000
  20.3999999999999986  22.1999999999999993  15.0000000000000000
  16.8000000000000007  16.8000000000000007  16.8000000000000007
  18.6000000000000014  18.6000000000000014  16.8000000000000007
  20.3999999999999986  20.3999999999999986  16.8000000000000007
  22.1999999999999993  22.1999999999999993  16.8000000000000007
  18.6000000000000014  16.8000000000000007  18.6000000000000014
  20.3999999999999986  18.6000000000000014  18.6000000000000014
  22.1999999999999993  20.3999999999999986  18.6000000000000014
  24.0000000000000000  22.1999999999999993  18.6000000000000014
  18.6000000000000014  15.0000000000000000  20.3999999999999986
  20.3999999999999986  16.8000000000000007  20.3999999999999986
  22.1999999999999993  18.6000000000000014  20.3999999999999986
  24.0000000000000000  20.3999999999999986  20.3999999999999986
  25.8000000000000007  22.1999999999999993  20.3999999999999986
  20.3999999999999986  15.0000000000000000  22.1999999999999993
  22.1999999999999993  16.8000000000000007  22.1999999999999993
  24.0000000000000000  18.6000000000000014  22.1999999999999993
  25.8000000000000007  20.3999999999999986  22.1999999999999993
  16.8000000000000007  20.3999999999999986  16.8000000000000007
  18.6000000000000014  22.1999999999999993  16.8000000000000007
  20.3999999999999986  24.0000000000000000  16.8000000000000007
  16.8000000000000007  18.6000000000000014  18.6000000000000014
  18.6000000000000014  20.3999999999999986  18.6000000000000014
  20.3999999999999986  22.1999999999999993  18.6000000000000014
  22.1999999999999993  24.0000000000000000  18.6000000000000014
  16.8000000000000007  16.8000000000000007  20.3999999999999986
  18.6000000000000014  18.6000000000000014  20.3999999999999986
  20.3999999999999986  20.3999999999999986  20.3999999999999986
  22.1999999999999993  22.1999999999999993  20.3999999999999986
  24.0000000000000000  24.0000000000000000  20.3999999999999986
  18.6000000000000014  16.8000000000000007  22.1999999999999993
  20.3999999999999986  18.6000000000000014  22.1999999999999993
  22.1999999999999993  20.3999999999999986  22.1999999999999993
  24.0000000000000000  22.1999999999999993  22.1999999999999993
  20.3999999999999986  16.8000000000000007  24.0000000000000000
  22.1999999999999993  18.6000000000000014  24.0000000000000000
  24.0000000000000000  20.3999999999999986  24.0000000000000000
  15.0000000000000000  20.3999999999999986  18.6000000000000014
  16.8000000000000007  22.1999999999999993  18.6000000000000014
  18.6000000000000014  24.0000000000000000  18.6000000000000014
  20.3999999999999986  25.8000000000000007  18.6000000000000014
  15.0000000000000000  18.6000000000000014  20.3999999999999986
  16.8000000000000007  20.3999999999999986  20.3999999999999986
  18.6000000000000014  22.1999999999999993  20.3999999999999986
  20.3999999999999986  24.0000000000000000  20.3999999999999986
  22.1999999999999993  25.8000000000000007  20.3999999999999986
  16.8000000000000007  18.6000000000000014  22.1999999999999993
  18.6000000000000014  20.3999999999999986  22.1999999999999993
  20.3999999999999986  22.1999999999999993  22.1999999999999993
  22.1999999999999993  24.0000000000000000  22.1999999999999993
  18.6000000000000014  18.6000000000000014  24.0000000000000000
  20.3999999999999986  20.3999999999999986  24.0000000000000000
  22.1999999999999993  22.1999999999999993  24.0000000000000000
  24.0000000000000000  24.0000000000000000  24.0000000000000000
  20.3999999999999986  18.6000000000000014  25.8000000000000007
  22.1999999999999993  20.3999999999999986  25.8000000000000007
  15.0000000000000000  22.1999999999999993  20.3999999999999986
  16.8000000000000007  24.0000000000000000  20.3999999999999986
  18.6000000000000014  25.8000000000000007  20.3999999999999986
  15.0000000000000000  20.3999999999999986  22.1999999999999993
  16.8000000000000007  22.1999999999999993  22.1999999999999993
  18.6000000000000014  24.0000000000000000  22.1999999999999993
  20.3999999999999986  25.8000000000000007  22.1999999999999993
  16.8000000000000007  20.3999999999999986  24.0000000000000000
  18.6000000000000014  22.1999999999999993  24.0000000000000000
  20.3999999999999986  24.0000000000000000  24.0000000000000000
  18.6000000000000014  20.3999999999999986  25.8000000000000007
  20.3999999999999986  22.1999999999999993  25.8000000000000007
