La Co Ni Sn Bi H                        
   1.00000000000000     
    29.1044006348000011    0.0000000000000000    0.0000000000000000
     0.4451680315000000   28.3694074727000007    0.0000000000000000
     0.0682082826000000    0.3036559964000000   28.5240018092999996
   La   Co   Ni   Sn   Bi   H 
    14    13    13    14    14     1
Selective dynamics
Direct
  0.5923618043428573  0.4213580142486532  0.4074594711674577   T   T   T
  0.6854621031525547  0.5713778750474492  0.3813491576576152   T   T   T
  0.4955904833018768  0.5292376089189040  0.2823449143148328   T   T   T
  0.5628070509198347  0.5212468196862146  0.6019659240717550   T   T   T
  0.5085274149078413  0.3881048321627867  0.3051641134313748   T   T   T
  0.5753052282928696  0.6556182252887374  0.4838834546715968   T   T   T
  0.5077398290230313  0.3371891452240226  0.4995599254364251   T   T   T
  0.5348921503633852  0.6377054132318789  0.3756640713418560   T   T   T
  0.4362458940650193  0.6431526464021216  0.5360381617671909   T   T   T
  0.4373551010143757  0.5015757590148624  0.3842817269995109   F   F   F
  0.4437846394494898  0.4460183835780285  0.5005161578087822   F   F   F
  0.3872450069721193  0.4666085256751684  0.6091193132741638   T   T   T
  0.3441916281432600  0.4446857768453868  0.3467903142276591   T   T   T
  0.3618565734228918  0.5855676408397836  0.3939071815765377   T   T   T
  0.4217425606853311  0.4061295180575186  0.3699802678458894   F   F   F
  0.5011311695957161  0.4887203336762909  0.4395023580252015   F   F   F
  0.4044148221271726  0.6101724300038001  0.4624736492929173   F   F   F
  0.4722931245665194  0.5596737886932672  0.5729988711091565   F   F   F
  0.6552684236953183  0.5165424048424470  0.4543399438695133   F   F   F
  0.5967309916701211  0.5535378348504167  0.5056109707055541   F   F   F
  0.5314074673932367  0.5941153005651714  0.5336729985293047   F   F   F
  0.5796732686089143  0.4997731718447866  0.4507473928409595   F   F   F
  0.4603412740905115  0.3320299388392145  0.3452456672812646   T   T   T
  0.3905180950192175  0.5252419063175111  0.4552418453041511   F   F   F
  0.4560866614919193  0.3231923540901524  0.4247299054331471   T   T   T
  0.5074804872141527  0.4592780196109629  0.3501259710292359   F   F   F
  0.6012877811302459  0.4669891268301640  0.5212355700313438   F   F   F
  0.5384608035519776  0.4312182275275163  0.4821288228790692   F   F   F
  0.4713083414346286  0.4805797151798927  0.5807598339419258   F   F   F
  0.3771163837573610  0.4514853175274567  0.4282230665427278   F   F   F
  0.4059018739390154  0.3822235888080883  0.4561785915149272   F   F   F
  0.5357818896390683  0.5680835373033233  0.4543473312664048   F   F   F
  0.4924712632432886  0.6367287407321953  0.4646113344718685   F   F   F
  0.4677327221812249  0.5829886973614862  0.4038343643763724   F   F   F
  0.5280944416629296  0.5063826634733033  0.5194466411805863   F   F   F
  0.6212454441397384  0.5105019604624417  0.3755946010283822   F   F   F
  0.6054499763524817  0.5821019035045651  0.4188664505762958   F   F   F
  0.4050790883739026  0.5245211222763402  0.5434909784116542   F   F   F
  0.3505696431477006  0.4700224958458525  0.5089008690445398   T   T   T
  0.4341070383168161  0.4579703681352341  0.3023343677493137   T   T   T
  0.5377140307185020  0.4215645620717348  0.5686661382861238   T   T   T
  0.3577898926111010  0.3867743959866063  0.5397484803986503   T   T   T
  0.4625951421883201  0.5516617238622956  0.4875128022361963   F   F   F
  0.6056738635708612  0.3747113317637765  0.5094481096577969   T   T   T
  0.4915851650035301  0.4374200973206309  0.6572953149909933   T   T   T
  0.5871480363402009  0.4683739663297888  0.3058516610253714   T   T   T
  0.4900497958562298  0.4037080615820798  0.4151644571778519   F   F   F
  0.4352046231667733  0.6749211351595958  0.4132994381837077   T   T   T
  0.4682597899583777  0.5359242369207877  0.6599168637523174   T   T   T
  0.5397532608265934  0.5319899791087650  0.3771480104995177   F   F   F
  0.6684771638898527  0.6005158647375892  0.4839105408317338   T   T   T
  0.6660418072601283  0.5191020955620802  0.5503496804354857   T   T   T
  0.3754940664971138  0.3343474769559381  0.3854257254745970   T   T   T
  0.6783910396932427  0.4360752770144417  0.4869371910141724   T   T   T
  0.5413691776528147  0.3202979208164243  0.3910667102136266   T   T   T
  0.3023341153633320  0.5029996931150946  0.4364962308170485   T   T   T
  0.3138039328275614  0.3955738144249561  0.4498077834715616   T   T   T
  0.5129114457726467  0.6244664707221911  0.6172164621166590   T   T   T
  0.4483539966283323  0.3735738503511037  0.5850877045538675   T   T   T
  0.3903824075221121  0.5799302715114960  0.6133399697751052   T   T   T
  0.4023032003233612  0.3042182626053256  0.4978453330919244   T   T   T
  0.4022427225391164  0.3728542420672065  0.2866525373165914   T   T   T
  0.3839478723014322  0.5339970807383276  0.2921330567296733   T   T   T
  0.6931143538364899  0.4607478629262218  0.3879022732772670   T   T   T
  0.3375950784278454  0.5718009295319024  0.5127784761584347   T   T   T
  0.5997330553140365  0.5731161743735406  0.3084905450928719   T   T   T
  0.6129491514635603  0.6141057281209072  0.5757438017976060   T   T   T
  0.4396146960909774  0.6158648545880855  0.3239489555278477   T   T   T
  0.4722502010512140  0.2772734562449361  0.4486388829136100   T   T   T
 
  0.00000000E+00  0.00000000E+00  0.00000000E+00
  0.00000000E+00  0.00000000E+00  0.00000000E+00
  0.00000000E+00  0.00000000E+00  0.00000000E+00
  0.00000000E+00  0.00000000E+00  0.00000000E+00
  0.00000000E+00  0.00000000E+00  0.00000000E+00
  0.00000000E+00  0.00000000E+00  0.00000000E+00
  0.00000000E+00  0.00000000E+00  0.00000000E+00
  0.00000000E+00  0.00000000E+00  0.00000000E+00
  0.00000000E+00  0.00000000E+00  0.00000000E+00
  0.00000000E+00  0.00000000E+00  0.00000000E+00
  0.00000000E+00  0.00000000E+00  0.00000000E+00
  0.00000000E+00  0.00000000E+00  0.00000000E+00
  0.00000000E+00  0.00000000E+00  0.00000000E+00
  0.00000000E+00  0.00000000E+00  0.00000000E+00
  0.00000000E+00  0.00000000E+00  0.00000000E+00
  0.00000000E+00  0.00000000E+00  0.00000000E+00
  0.00000000E+00  0.00000000E+00  0.00000000E+00
  0.00000000E+00  0.00000000E+00  0.00000000E+00
  0.00000000E+00  0.00000000E+00  0.00000000E+00
  0.00000000E+00  0.00000000E+00  0.00000000E+00
  0.00000000E+00  0.00000000E+00  0.00000000E+00
  0.00000000E+00  0.00000000E+00  0.00000000E+00
  0.00000000E+00  0.00000000E+00  0.00000000E+00
  0.00000000E+00  0.00000000E+00  0.00000000E+00
  0.00000000E+00  0.00000000E+00  0.00000000E+00
  0.00000000E+00  0.00000000E+00  0.00000000E+00
  0.00000000E+00  0.00000000E+00  0.00000000E+00
  0.00000000E+00  0.00000000E+00  0.00000000E+00
  0.00000000E+00  0.00000000E+00  0.00000000E+00
  0.00000000E+00  0.00000000E+00  0.00000000E+00
  0.00000000E+00  0.00000000E+00  0.00000000E+00
  0.00000000E+00  0.00000000E+00  0.00000000E+00
  0.00000000E+00  0.00000000E+00  0.00000000E+00
  0.00000000E+00  0.00000000E+00  0.00000000E+00
  0.00000000E+00  0.00000000E+00  0.00000000E+00
  0.00000000E+00  0.00000000E+00  0.00000000E+00
  0.00000000E+00  0.00000000E+00  0.00000000E+00
  0.00000000E+00  0.00000000E+00  0.00000000E+00
  0.00000000E+00  0.00000000E+00  0.00000000E+00
  0.00000000E+00  0.00000000E+00  0.00000000E+00
  0.00000000E+00  0.00000000E+00  0.00000000E+00
  0.00000000E+00  0.00000000E+00  0.00000000E+00
  0.00000000E+00  0.00000000E+00  0.00000000E+00
  0.00000000E+00  0.00000000E+00  0.00000000E+00
  0.00000000E+00  0.00000000E+00  0.00000000E+00
  0.00000000E+00  0.00000000E+00  0.00000000E+00
  0.00000000E+00  0.00000000E+00  0.00000000E+00
  0.00000000E+00  0.00000000E+00  0.00000000E+00
  0.00000000E+00  0.00000000E+00  0.00000000E+00
  0.00000000E+00  0.00000000E+00  0.00000000E+00
  0.00000000E+00  0.00000000E+00  0.00000000E+00
  0.00000000E+00  0.00000000E+00  0.00000000E+00
  0.00000000E+00  0.00000000E+00  0.00000000E+00
  0.00000000E+00  0.00000000E+00  0.00000000E+00
  0.00000000E+00  0.00000000E+00  0.00000000E+00
  0.00000000E+00  0.00000000E+00  0.00000000E+00
  0.00000000E+00  0.00000000E+00  0.00000000E+00
  0.00000000E+00  0.00000000E+00  0.00000000E+00
  0.00000000E+00  0.00000000E+00  0.00000000E+00
  0.00000000E+00  0.00000000E+00  0.00000000E+00
  0.00000000E+00  0.00000000E+00  0.00000000E+00
  0.00000000E+00  0.00000000E+00  0.00000000E+00
  0.00000000E+00  0.00000000E+00  0.00000000E+00
  0.00000000E+00  0.00000000E+00  0.00000000E+00
  0.00000000E+00  0.00000000E+00  0.00000000E+00
  0.00000000E+00  0.00000000E+00  0.00000000E+00
  0.00000000E+00  0.00000000E+00  0.00000000E+00
  0.00000000E+00  0.00000000E+00  0.00000000E+00
  0.00000000E+00  0.00000000E+00  0.00000000E+00
