La Co Ni Sn Bi H                        
   1.00000000000000     
    29.1044006348000011    0.0000000000000000    0.0000000000000000
     0.4451680315000000   28.3694074727000007    0.0000000000000000
     0.0682082826000000    0.3036559964000000   28.5240018092999996
   La   Co   Ni   Sn   Bi   H 
    14    13    13    14    14     1
Selective dynamics
Direct
  0.5922847380787706  0.4207086031195029  0.4076213107632075   T   T   T
  0.6848687124530389  0.5715832578292221  0.3806926591931424   T   T   T
  0.4952741687588377  0.5272785283585075  0.2823963903756322   T   T   T
  0.5628015683264045  0.5209340769407945  0.6010509882318185   T   T   T
  0.5085721868133684  0.3872188137652799  0.3051606853938048   T   T   T
  0.5743414429382188  0.6554951259678793  0.4832261344313754   T   T   T
  0.5082135230640353  0.3375515486332141  0.4989785665775551   T   T   T
  0.5350215702465281  0.6377204298965502  0.3749886920583057   T   T   T
  0.4331046807072488  0.6431631993834083  0.5346160599734808   T   T   T
  0.4373551010143757  0.5015757590148624  0.3842817269995109   F   F   F
  0.4437846394494898  0.4460183835780285  0.5005161578087822   F   F   F
  0.3868126773184002  0.4660100137921934  0.6091296669490078   T   T   T
  0.3443902125255448  0.4442015908196223  0.3469984100643504   T   T   T
  0.3616488919077301  0.5848762112097724  0.3936378680146681   T   T   T
  0.4217425606853311  0.4061295180575186  0.3699802678458894   F   F   F
  0.5011311695957161  0.4887203336762909  0.4395023580252015   F   F   F
  0.4044148221271726  0.6101724300038001  0.4624736492929173   F   F   F
  0.4722931245665194  0.5596737886932672  0.5729988711091565   F   F   F
  0.6552684236953183  0.5165424048424470  0.4543399438695133   F   F   F
  0.5967309916701211  0.5535378348504167  0.5056109707055541   F   F   F
  0.5314074673932367  0.5941153005651714  0.5336729985293047   F   F   F
  0.5796732686089143  0.4997731718447866  0.4507473928409595   F   F   F
  0.4611202145356564  0.3312638354800880  0.3435403680172797   T   T   T
  0.3905180950192175  0.5252419063175111  0.4552418453041511   F   F   F
  0.4542171502261638  0.3247600605660546  0.4229400153963240   T   T   T
  0.5074804872141527  0.4592780196109629  0.3501259710292359   F   F   F
  0.6012877811302459  0.4669891268301640  0.5212355700313438   F   F   F
  0.5384608035519776  0.4312182275275163  0.4821288228790692   F   F   F
  0.4713083414346286  0.4805797151798927  0.5807598339419258   F   F   F
  0.3771163837573610  0.4514853175274567  0.4282230665427278   F   F   F
  0.4059018739390154  0.3822235888080883  0.4561785915149272   F   F   F
  0.5357818896390683  0.5680835373033233  0.4543473312664048   F   F   F
  0.4924712632432886  0.6367287407321953  0.4646113344718685   F   F   F
  0.4677327221812249  0.5829886973614862  0.4038343643763724   F   F   F
  0.5280944416629296  0.5063826634733033  0.5194466411805863   F   F   F
  0.6212454441397384  0.5105019604624417  0.3755946010283822   F   F   F
  0.6054499763524817  0.5821019035045651  0.4188664505762958   F   F   F
  0.4050790883739026  0.5245211222763402  0.5434909784116542   F   F   F
  0.3509535875022282  0.4701015092262412  0.5088331222365502   T   T   T
  0.4338032281843946  0.4572020284769122  0.3020374756900343   T   T   T
  0.5380411165059424  0.4213866331354472  0.5686205580395548   T   T   T
  0.3576339001493627  0.3864875306586925  0.5388647493204104   T   T   T
  0.4625951421883201  0.5516617238622956  0.4875128022361963   F   F   F
  0.6059043103008557  0.3747168849655437  0.5100357184295075   T   T   T
  0.4916205818076764  0.4367972911078585  0.6576798594059251   T   T   T
  0.5874751751412230  0.4677388566613142  0.3062075516978117   T   T   T
  0.4900497958562298  0.4037080615820798  0.4151644571778519   F   F   F
  0.4353124244470742  0.6742782358606353  0.4123634473918998   T   T   T
  0.4671253273072716  0.5343470309352768  0.6589923822883523   T   T   T
  0.5397532608265934  0.5319899791087650  0.3771480104995177   F   F   F
  0.6685227313225934  0.6003376126489279  0.4834504571422446   T   T   T
  0.6661136611424758  0.5185711706694693  0.5500708355159633   T   T   T
  0.3746245229480091  0.3347097234025475  0.3847872029603877   T   T   T
  0.6780776139409158  0.4362625783799917  0.4862489456514341   T   T   T
  0.5397195249240733  0.3189903903438054  0.3913343707588416   T   T   T
  0.3021396379169709  0.5024777711512598  0.4367705034594245   T   T   T
  0.3132484341857713  0.3951745362806595  0.4488658086215444   T   T   T
  0.5121655721350394  0.6255130819104616  0.6160137211158553   T   T   T
  0.4489016579772360  0.3738188607062120  0.5844165046602842   T   T   T
  0.3896153260112381  0.5795478699691540  0.6129892918833474   T   T   T
  0.4045944956910489  0.3048363762481371  0.4998855958060028   T   T   T
  0.4020458449529213  0.3719101759070673  0.2868998776887254   T   T   T
  0.3837722451367362  0.5334128236720118  0.2921754167606458   T   T   T
  0.6929667459633069  0.4607247877042451  0.3871569819689852   T   T   T
  0.3372729203201534  0.5717109713439392  0.5125806060076475   T   T   T
  0.5991399897246974  0.5725843224268795  0.3075876832711364   T   T   T
  0.6136923885588597  0.6138152247242199  0.5740053803559978   T   T   T
  0.4399565539254396  0.6149633898428977  0.3236237354665308   T   T   T
  0.4673026143030322  0.6760818482177509  0.6000686690877285   T   T   T
 
  0.00000000E+00  0.00000000E+00  0.00000000E+00
  0.00000000E+00  0.00000000E+00  0.00000000E+00
  0.00000000E+00  0.00000000E+00  0.00000000E+00
  0.00000000E+00  0.00000000E+00  0.00000000E+00
  0.00000000E+00  0.00000000E+00  0.00000000E+00
  0.00000000E+00  0.00000000E+00  0.00000000E+00
  0.00000000E+00  0.00000000E+00  0.00000000E+00
  0.00000000E+00  0.00000000E+00  0.00000000E+00
  0.00000000E+00  0.00000000E+00  0.00000000E+00
  0.00000000E+00  0.00000000E+00  0.00000000E+00
  0.00000000E+00  0.00000000E+00  0.00000000E+00
  0.00000000E+00  0.00000000E+00  0.00000000E+00
  0.00000000E+00  0.00000000E+00  0.00000000E+00
  0.00000000E+00  0.00000000E+00  0.00000000E+00
  0.00000000E+00  0.00000000E+00  0.00000000E+00
  0.00000000E+00  0.00000000E+00  0.00000000E+00
  0.00000000E+00  0.00000000E+00  0.00000000E+00
  0.00000000E+00  0.00000000E+00  0.00000000E+00
  0.00000000E+00  0.00000000E+00  0.00000000E+00
  0.00000000E+00  0.00000000E+00  0.00000000E+00
  0.00000000E+00  0.00000000E+00  0.00000000E+00
  0.00000000E+00  0.00000000E+00  0.00000000E+00
  0.00000000E+00  0.00000000E+00  0.00000000E+00
  0.00000000E+00  0.00000000E+00  0.00000000E+00
  0.00000000E+00  0.00000000E+00  0.00000000E+00
  0.00000000E+00  0.00000000E+00  0.00000000E+00
  0.00000000E+00  0.00000000E+00  0.00000000E+00
  0.00000000E+00  0.00000000E+00  0.00000000E+00
  0.00000000E+00  0.00000000E+00  0.00000000E+00
  0.00000000E+00  0.00000000E+00  0.00000000E+00
  0.00000000E+00  0.00000000E+00  0.00000000E+00
  0.00000000E+00  0.00000000E+00  0.00000000E+00
  0.00000000E+00  0.00000000E+00  0.00000000E+00
  0.00000000E+00  0.00000000E+00  0.00000000E+00
  0.00000000E+00  0.00000000E+00  0.00000000E+00
  0.00000000E+00  0.00000000E+00  0.00000000E+00
  0.00000000E+00  0.00000000E+00  0.00000000E+00
  0.00000000E+00  0.00000000E+00  0.00000000E+00
  0.00000000E+00  0.00000000E+00  0.00000000E+00
  0.00000000E+00  0.00000000E+00  0.00000000E+00
  0.00000000E+00  0.00000000E+00  0.00000000E+00
  0.00000000E+00  0.00000000E+00  0.00000000E+00
  0.00000000E+00  0.00000000E+00  0.00000000E+00
  0.00000000E+00  0.00000000E+00  0.00000000E+00
  0.00000000E+00  0.00000000E+00  0.00000000E+00
  0.00000000E+00  0.00000000E+00  0.00000000E+00
  0.00000000E+00  0.00000000E+00  0.00000000E+00
  0.00000000E+00  0.00000000E+00  0.00000000E+00
  0.00000000E+00  0.00000000E+00  0.00000000E+00
  0.00000000E+00  0.00000000E+00  0.00000000E+00
  0.00000000E+00  0.00000000E+00  0.00000000E+00
  0.00000000E+00  0.00000000E+00  0.00000000E+00
  0.00000000E+00  0.00000000E+00  0.00000000E+00
  0.00000000E+00  0.00000000E+00  0.00000000E+00
  0.00000000E+00  0.00000000E+00  0.00000000E+00
  0.00000000E+00  0.00000000E+00  0.00000000E+00
  0.00000000E+00  0.00000000E+00  0.00000000E+00
  0.00000000E+00  0.00000000E+00  0.00000000E+00
  0.00000000E+00  0.00000000E+00  0.00000000E+00
  0.00000000E+00  0.00000000E+00  0.00000000E+00
  0.00000000E+00  0.00000000E+00  0.00000000E+00
  0.00000000E+00  0.00000000E+00  0.00000000E+00
  0.00000000E+00  0.00000000E+00  0.00000000E+00
  0.00000000E+00  0.00000000E+00  0.00000000E+00
  0.00000000E+00  0.00000000E+00  0.00000000E+00
  0.00000000E+00  0.00000000E+00  0.00000000E+00
  0.00000000E+00  0.00000000E+00  0.00000000E+00
  0.00000000E+00  0.00000000E+00  0.00000000E+00
  0.00000000E+00  0.00000000E+00  0.00000000E+00
