La Co Ni Sn Bi H                        
   1.00000000000000     
    29.1044006348000011    0.0000000000000000    0.0000000000000000
     0.4451680315000000   28.3694074727000007    0.0000000000000000
     0.0682082826000000    0.3036559964000000   28.5240018092999996
   La   Co   Ni   Sn   Bi   H 
    14    13    13    14    14     1
Selective dynamics
Direct
  0.5925946465679878  0.4206536919270224  0.4079399106678331   T   T   T
  0.6850672006399261  0.5718702369648092  0.3811110385734309   T   T   T
  0.4954823096688528  0.5269173023297348  0.2820079960770566   T   T   T
  0.5626121612270882  0.5223811297415849  0.6019562530041774   T   T   T
  0.5087998652262534  0.3872419780887217  0.3053430241926921   T   T   T
  0.5765063469081242  0.6585001474917866  0.4803034813880600   T   T   T
  0.5088306057686089  0.3381167150338668  0.4995157477344019   T   T   T
  0.5368042028625520  0.6397171533298138  0.3742685487265348   T   T   T
  0.4360175787243903  0.6436432384182738  0.5354357347171487   T   T   T
  0.4373551010143757  0.5015757590148624  0.3842817269995109   F   F   F
  0.4437846394494898  0.4460183835780285  0.5005161578087822   F   F   F
  0.3873720516607921  0.4669060055408545  0.6094331680434529   T   T   T
  0.3443592528628870  0.4441646460519695  0.3470647864299920   T   T   T
  0.3619586488011333  0.5851565794350917  0.3937807149884331   T   T   T
  0.4217425606853311  0.4061295180575186  0.3699802678458894   F   F   F
  0.5011311695957161  0.4887203336762909  0.4395023580252015   F   F   F
  0.4044148221271726  0.6101724300038001  0.4624736492929173   F   F   F
  0.4722931245665194  0.5596737886932672  0.5729988711091565   F   F   F
  0.6552684236953183  0.5165424048424470  0.4543399438695133   F   F   F
  0.5967309916701211  0.5535378348504167  0.5056109707055541   F   F   F
  0.5314074673932367  0.5941153005651714  0.5336729985293047   F   F   F
  0.5796732686089143  0.4997731718447866  0.4507473928409595   F   F   F
  0.4611205942308946  0.3313257263220242  0.3441681691948870   T   T   T
  0.3905180950192175  0.5252419063175111  0.4552418453041511   F   F   F
  0.4544152514896362  0.3246255157735470  0.4237677136703467   T   T   T
  0.5074804872141527  0.4592780196109629  0.3501259710292359   F   F   F
  0.6012877811302459  0.4669891268301640  0.5212355700313438   F   F   F
  0.5384608035519776  0.4312182275275163  0.4821288228790692   F   F   F
  0.4713083414346286  0.4805797151798927  0.5807598339419258   F   F   F
  0.3771163837573610  0.4514853175274567  0.4282230665427278   F   F   F
  0.4059018739390154  0.3822235888080883  0.4561785915149272   F   F   F
  0.5357818896390683  0.5680835373033233  0.4543473312664048   F   F   F
  0.4924712632432886  0.6367287407321953  0.4646113344718685   F   F   F
  0.4677327221812249  0.5829886973614862  0.4038343643763724   F   F   F
  0.5280944416629296  0.5063826634733033  0.5194466411805863   F   F   F
  0.6212454441397384  0.5105019604624417  0.3755946010283822   F   F   F
  0.6054499763524817  0.5821019035045651  0.4188664505762958   F   F   F
  0.4050790883739026  0.5245211222763402  0.5434909784116542   F   F   F
  0.3508276555434879  0.4702792829470931  0.5087748365589378   T   T   T
  0.4339201427323275  0.4571649598579621  0.3021833492444448   T   T   T
  0.5381196147159411  0.4221050404979877  0.5690652513641971   T   T   T
  0.3576948708331275  0.3870233031736827  0.5395662741053765   T   T   T
  0.4625951421883201  0.5516617238622956  0.4875128022361963   F   F   F
  0.6065598234378626  0.3754085366629069  0.5105750835974807   T   T   T
  0.4916388993086439  0.4391212989375393  0.6579745613606833   T   T   T
  0.5875761086368408  0.4673193701947408  0.3064162956625672   T   T   T
  0.4900497958562298  0.4037080615820798  0.4151644571778519   F   F   F
  0.4355624376053193  0.6738740576284523  0.4122358106042451   T   T   T
  0.4683965943247514  0.5371093827967389  0.6600388211847779   T   T   T
  0.5397532608265934  0.5319899791087650  0.3771480104995177   F   F   F
  0.6684048822011099  0.6003935725335185  0.4838010735009414   T   T   T
  0.6658031713897988  0.5196382183848910  0.5507583700247439   T   T   T
  0.3749413297650162  0.3346653142911613  0.3847379208577673   T   T   T
  0.6791408826077306  0.4366284084371135  0.4867977458133620   T   T   T
  0.5397600180242722  0.3187773184941476  0.3916634726069978   T   T   T
  0.3022574019643309  0.5029078180348068  0.4369347794050898   T   T   T
  0.3134419718323582  0.3956295937628331  0.4493527835080735   T   T   T
  0.5121784546099114  0.6253863365262886  0.6169028868204403   T   T   T
  0.4489195523264052  0.3744132440544578  0.5855139249369120   T   T   T
  0.3904602713236519  0.5804619247081404  0.6130034124361204   T   T   T
  0.4054610477443709  0.3055959581748402  0.5011697402429751   T   T   T
  0.4023759983459862  0.3717892379160430  0.2869599802975787   T   T   T
  0.3836014861267611  0.5334126136626870  0.2922272863971113   T   T   T
  0.6930460826090419  0.4610288338540329  0.3873736565680410   T   T   T
  0.3376568708361425  0.5722439274693609  0.5128112039723904   T   T   T
  0.5995170206523779  0.5719742529189045  0.3076020965228330   T   T   T
  0.6121175146389776  0.6153531419120193  0.5744436756788937   T   T   T
  0.4403804433070811  0.6143070235068505  0.3235913849724319   T   T   T
  0.5801448838031240  0.6955227936193402  0.4082565075064056   T   T   T
 
  0.00000000E+00  0.00000000E+00  0.00000000E+00
  0.00000000E+00  0.00000000E+00  0.00000000E+00
  0.00000000E+00  0.00000000E+00  0.00000000E+00
  0.00000000E+00  0.00000000E+00  0.00000000E+00
  0.00000000E+00  0.00000000E+00  0.00000000E+00
  0.00000000E+00  0.00000000E+00  0.00000000E+00
  0.00000000E+00  0.00000000E+00  0.00000000E+00
  0.00000000E+00  0.00000000E+00  0.00000000E+00
  0.00000000E+00  0.00000000E+00  0.00000000E+00
  0.00000000E+00  0.00000000E+00  0.00000000E+00
  0.00000000E+00  0.00000000E+00  0.00000000E+00
  0.00000000E+00  0.00000000E+00  0.00000000E+00
  0.00000000E+00  0.00000000E+00  0.00000000E+00
  0.00000000E+00  0.00000000E+00  0.00000000E+00
  0.00000000E+00  0.00000000E+00  0.00000000E+00
  0.00000000E+00  0.00000000E+00  0.00000000E+00
  0.00000000E+00  0.00000000E+00  0.00000000E+00
  0.00000000E+00  0.00000000E+00  0.00000000E+00
  0.00000000E+00  0.00000000E+00  0.00000000E+00
  0.00000000E+00  0.00000000E+00  0.00000000E+00
  0.00000000E+00  0.00000000E+00  0.00000000E+00
  0.00000000E+00  0.00000000E+00  0.00000000E+00
  0.00000000E+00  0.00000000E+00  0.00000000E+00
  0.00000000E+00  0.00000000E+00  0.00000000E+00
  0.00000000E+00  0.00000000E+00  0.00000000E+00
  0.00000000E+00  0.00000000E+00  0.00000000E+00
  0.00000000E+00  0.00000000E+00  0.00000000E+00
  0.00000000E+00  0.00000000E+00  0.00000000E+00
  0.00000000E+00  0.00000000E+00  0.00000000E+00
  0.00000000E+00  0.00000000E+00  0.00000000E+00
  0.00000000E+00  0.00000000E+00  0.00000000E+00
  0.00000000E+00  0.00000000E+00  0.00000000E+00
  0.00000000E+00  0.00000000E+00  0.00000000E+00
  0.00000000E+00  0.00000000E+00  0.00000000E+00
  0.00000000E+00  0.00000000E+00  0.00000000E+00
  0.00000000E+00  0.00000000E+00  0.00000000E+00
  0.00000000E+00  0.00000000E+00  0.00000000E+00
  0.00000000E+00  0.00000000E+00  0.00000000E+00
  0.00000000E+00  0.00000000E+00  0.00000000E+00
  0.00000000E+00  0.00000000E+00  0.00000000E+00
  0.00000000E+00  0.00000000E+00  0.00000000E+00
  0.00000000E+00  0.00000000E+00  0.00000000E+00
  0.00000000E+00  0.00000000E+00  0.00000000E+00
  0.00000000E+00  0.00000000E+00  0.00000000E+00
  0.00000000E+00  0.00000000E+00  0.00000000E+00
  0.00000000E+00  0.00000000E+00  0.00000000E+00
  0.00000000E+00  0.00000000E+00  0.00000000E+00
  0.00000000E+00  0.00000000E+00  0.00000000E+00
  0.00000000E+00  0.00000000E+00  0.00000000E+00
  0.00000000E+00  0.00000000E+00  0.00000000E+00
  0.00000000E+00  0.00000000E+00  0.00000000E+00
  0.00000000E+00  0.00000000E+00  0.00000000E+00
  0.00000000E+00  0.00000000E+00  0.00000000E+00
  0.00000000E+00  0.00000000E+00  0.00000000E+00
  0.00000000E+00  0.00000000E+00  0.00000000E+00
  0.00000000E+00  0.00000000E+00  0.00000000E+00
  0.00000000E+00  0.00000000E+00  0.00000000E+00
  0.00000000E+00  0.00000000E+00  0.00000000E+00
  0.00000000E+00  0.00000000E+00  0.00000000E+00
  0.00000000E+00  0.00000000E+00  0.00000000E+00
  0.00000000E+00  0.00000000E+00  0.00000000E+00
  0.00000000E+00  0.00000000E+00  0.00000000E+00
  0.00000000E+00  0.00000000E+00  0.00000000E+00
  0.00000000E+00  0.00000000E+00  0.00000000E+00
  0.00000000E+00  0.00000000E+00  0.00000000E+00
  0.00000000E+00  0.00000000E+00  0.00000000E+00
  0.00000000E+00  0.00000000E+00  0.00000000E+00
  0.00000000E+00  0.00000000E+00  0.00000000E+00
  0.00000000E+00  0.00000000E+00  0.00000000E+00
