La Co Ni Sn Bi H                        
   1.00000000000000     
    29.1044006348000011    0.0000000000000000    0.0000000000000000
     0.4451680315000000   28.3694074727000007    0.0000000000000000
     0.0682082826000000    0.3036559964000000   28.5240018092999996
   La   Co   Ni   Sn   Bi   H 
    14    13    13    14    14     1
Selective dynamics
Direct
  0.5924122357143190  0.4206125549189061  0.4077049853441699   T   T   T
  0.6852395607763370  0.5713678976553519  0.3812288389478351   T   T   T
  0.4957414487009550  0.5280856822906892  0.2821097232912764   T   T   T
  0.5625768615791328  0.5216850019316434  0.6020920254072091   T   T   T
  0.5087707605427187  0.3877421665393517  0.3049557177710765   T   T   T
  0.5752949618810973  0.6555753301815154  0.4836596299087470   T   T   T
  0.5072187613524882  0.3375986133929864  0.4994199618771567   T   T   T
  0.5352716882511098  0.6377187351551138  0.3754751084051531   T   T   T
  0.4362292033855852  0.6434245376368470  0.5356906679454243   T   T   T
  0.4373551010143757  0.5015757590148624  0.3842817269995109   F   F   F
  0.4437846394494898  0.4460183835780285  0.5005161578087822   F   F   F
  0.3856156066857537  0.4661955405832234  0.6078127068224914   T   T   T
  0.3447782574144182  0.4445150542639144  0.3462919005999711   T   T   T
  0.3621353194551167  0.5861640738801873  0.3932866524050546   T   T   T
  0.4217425606853311  0.4061295180575186  0.3699802678458894   F   F   F
  0.5011311695957161  0.4887203336762909  0.4395023580252015   F   F   F
  0.4044148221271726  0.6101724300038001  0.4624736492929173   F   F   F
  0.4722931245665194  0.5596737886932672  0.5729988711091565   F   F   F
  0.6552684236953183  0.5165424048424470  0.4543399438695133   F   F   F
  0.5967309916701211  0.5535378348504167  0.5056109707055541   F   F   F
  0.5314074673932367  0.5941153005651714  0.5336729985293047   F   F   F
  0.5796732686089143  0.4997731718447866  0.4507473928409595   F   F   F
  0.4606686168821210  0.3305263582569603  0.3425259835404594   T   T   T
  0.3905180950192175  0.5252419063175111  0.4552418453041511   F   F   F
  0.4543080453006951  0.3251623194750149  0.4212386456481065   T   T   T
  0.5074804872141527  0.4592780196109629  0.3501259710292359   F   F   F
  0.6012877811302459  0.4669891268301640  0.5212355700313438   F   F   F
  0.5384608035519776  0.4312182275275163  0.4821288228790692   F   F   F
  0.4713083414346286  0.4805797151798927  0.5807598339419258   F   F   F
  0.3771163837573610  0.4514853175274567  0.4282230665427278   F   F   F
  0.4059018739390154  0.3822235888080883  0.4561785915149272   F   F   F
  0.5357818896390683  0.5680835373033233  0.4543473312664048   F   F   F
  0.4924712632432886  0.6367287407321953  0.4646113344718685   F   F   F
  0.4677327221812249  0.5829886973614862  0.4038343643763724   F   F   F
  0.5280944416629296  0.5063826634733033  0.5194466411805863   F   F   F
  0.6212454441397384  0.5105019604624417  0.3755946010283822   F   F   F
  0.6054499763524817  0.5821019035045651  0.4188664505762958   F   F   F
  0.4050790883739026  0.5245211222763402  0.5434909784116542   F   F   F
  0.3491398079435877  0.4702706068538047  0.5091862597764342   T   T   T
  0.4341983352681343  0.4577015706137632  0.3019950875412130   T   T   T
  0.5380261833536251  0.4216617741068091  0.5687624249898992   T   T   T
  0.3581623674448595  0.3837266630846113  0.5374948095554685   T   T   T
  0.4625951421883201  0.5516617238622956  0.4875128022361963   F   F   F
  0.6054297776434272  0.3746813931108453  0.5098365597752135   T   T   T
  0.4913417629104291  0.4373276164937117  0.6573508834196046   T   T   T
  0.5873506941859714  0.4677308408857100  0.3063086124455306   T   T   T
  0.4900497958562298  0.4037080615820798  0.4151644571778519   F   F   F
  0.4355728799059207  0.6747875982927244  0.4127939490196357   T   T   T
  0.4679991479324419  0.5357532588939231  0.6595990932927557   T   T   T
  0.5397532608265934  0.5319899791087650  0.3771480104995177   F   F   F
  0.6686171852372781  0.6003719645105042  0.4839698867079008   T   T   T
  0.6658062298119951  0.5192979900546657  0.5507419847329247   T   T   T
  0.3742888963121342  0.3347813804581315  0.3843686764496367   T   T   T
  0.6782086683068371  0.4363496990035083  0.4871861189744039   T   T   T
  0.5397017788969309  0.3190003977988809  0.3910640906273209   T   T   T
  0.3028399700581481  0.5034506786618204  0.4360231770392542   T   T   T
  0.3132029887400283  0.3957043505371570  0.4484807683810489   T   T   T
  0.5123447294379546  0.6249871540882787  0.6169372034379422   T   T   T
  0.4486857471718981  0.3743381463237430  0.5850630917598503   T   T   T
  0.3904864325546566  0.5800578731385813  0.6130539269361310   T   T   T
  0.4045749668033568  0.3019909595332526  0.4949994146707281   T   T   T
  0.4025777906784206  0.3726750425460316  0.2862215906283960   T   T   T
  0.3842616790386915  0.5339081643620933  0.2918254858990635   T   T   T
  0.6928014662403918  0.4605152368774109  0.3878433349253759   T   T   T
  0.3379237331419868  0.5723467453657866  0.5123552596749780   T   T   T
  0.5995043626054457  0.5726172241298834  0.3080500300932039   T   T   T
  0.6126506380701333  0.6143308349679860  0.5756567239888544   T   T   T
  0.4404261702852817  0.6154469837131281  0.3235761872849715   T   T   T
  0.3221490328106043  0.4603794257197502  0.5541172018478758   T   T   T
 
  0.00000000E+00  0.00000000E+00  0.00000000E+00
  0.00000000E+00  0.00000000E+00  0.00000000E+00
  0.00000000E+00  0.00000000E+00  0.00000000E+00
  0.00000000E+00  0.00000000E+00  0.00000000E+00
  0.00000000E+00  0.00000000E+00  0.00000000E+00
  0.00000000E+00  0.00000000E+00  0.00000000E+00
  0.00000000E+00  0.00000000E+00  0.00000000E+00
  0.00000000E+00  0.00000000E+00  0.00000000E+00
  0.00000000E+00  0.00000000E+00  0.00000000E+00
  0.00000000E+00  0.00000000E+00  0.00000000E+00
  0.00000000E+00  0.00000000E+00  0.00000000E+00
  0.00000000E+00  0.00000000E+00  0.00000000E+00
  0.00000000E+00  0.00000000E+00  0.00000000E+00
  0.00000000E+00  0.00000000E+00  0.00000000E+00
  0.00000000E+00  0.00000000E+00  0.00000000E+00
  0.00000000E+00  0.00000000E+00  0.00000000E+00
  0.00000000E+00  0.00000000E+00  0.00000000E+00
  0.00000000E+00  0.00000000E+00  0.00000000E+00
  0.00000000E+00  0.00000000E+00  0.00000000E+00
  0.00000000E+00  0.00000000E+00  0.00000000E+00
  0.00000000E+00  0.00000000E+00  0.00000000E+00
  0.00000000E+00  0.00000000E+00  0.00000000E+00
  0.00000000E+00  0.00000000E+00  0.00000000E+00
  0.00000000E+00  0.00000000E+00  0.00000000E+00
  0.00000000E+00  0.00000000E+00  0.00000000E+00
  0.00000000E+00  0.00000000E+00  0.00000000E+00
  0.00000000E+00  0.00000000E+00  0.00000000E+00
  0.00000000E+00  0.00000000E+00  0.00000000E+00
  0.00000000E+00  0.00000000E+00  0.00000000E+00
  0.00000000E+00  0.00000000E+00  0.00000000E+00
  0.00000000E+00  0.00000000E+00  0.00000000E+00
  0.00000000E+00  0.00000000E+00  0.00000000E+00
  0.00000000E+00  0.00000000E+00  0.00000000E+00
  0.00000000E+00  0.00000000E+00  0.00000000E+00
  0.00000000E+00  0.00000000E+00  0.00000000E+00
  0.00000000E+00  0.00000000E+00  0.00000000E+00
  0.00000000E+00  0.00000000E+00  0.00000000E+00
  0.00000000E+00  0.00000000E+00  0.00000000E+00
  0.00000000E+00  0.00000000E+00  0.00000000E+00
  0.00000000E+00  0.00000000E+00  0.00000000E+00
  0.00000000E+00  0.00000000E+00  0.00000000E+00
  0.00000000E+00  0.00000000E+00  0.00000000E+00
  0.00000000E+00  0.00000000E+00  0.00000000E+00
  0.00000000E+00  0.00000000E+00  0.00000000E+00
  0.00000000E+00  0.00000000E+00  0.00000000E+00
  0.00000000E+00  0.00000000E+00  0.00000000E+00
  0.00000000E+00  0.00000000E+00  0.00000000E+00
  0.00000000E+00  0.00000000E+00  0.00000000E+00
  0.00000000E+00  0.00000000E+00  0.00000000E+00
  0.00000000E+00  0.00000000E+00  0.00000000E+00
  0.00000000E+00  0.00000000E+00  0.00000000E+00
  0.00000000E+00  0.00000000E+00  0.00000000E+00
  0.00000000E+00  0.00000000E+00  0.00000000E+00
  0.00000000E+00  0.00000000E+00  0.00000000E+00
  0.00000000E+00  0.00000000E+00  0.00000000E+00
  0.00000000E+00  0.00000000E+00  0.00000000E+00
  0.00000000E+00  0.00000000E+00  0.00000000E+00
  0.00000000E+00  0.00000000E+00  0.00000000E+00
  0.00000000E+00  0.00000000E+00  0.00000000E+00
  0.00000000E+00  0.00000000E+00  0.00000000E+00
  0.00000000E+00  0.00000000E+00  0.00000000E+00
  0.00000000E+00  0.00000000E+00  0.00000000E+00
  0.00000000E+00  0.00000000E+00  0.00000000E+00
  0.00000000E+00  0.00000000E+00  0.00000000E+00
  0.00000000E+00  0.00000000E+00  0.00000000E+00
  0.00000000E+00  0.00000000E+00  0.00000000E+00
  0.00000000E+00  0.00000000E+00  0.00000000E+00
  0.00000000E+00  0.00000000E+00  0.00000000E+00
  0.00000000E+00  0.00000000E+00  0.00000000E+00
