La Co Ni Sn Bi H                        
   1.00000000000000     
    29.1044006348000011    0.0000000000000000    0.0000000000000000
     0.4451680315000000   28.3694074727000007    0.0000000000000000
     0.0682082826000000    0.3036559964000000   28.5240018092999996
   La   Co   Ni   Sn   Bi   H 
    14    13    13    14    14     1
Selective dynamics
Direct
  0.5914848827237692  0.4223762222080490  0.4039541562157887   T   T   T
  0.6847489409040205  0.5716258625601858  0.3806166963356187   T   T   T
  0.4949154997870119  0.5286449388680539  0.2824582431122413   T   T   T
  0.5621235605464476  0.5226280237244739  0.6022721039397144   T   T   T
  0.5092573254865730  0.3870922566198139  0.3061070447946581   T   T   T
  0.5754129158304468  0.6551834138723091  0.4831207108771762   T   T   T
  0.5087306377698257  0.3386497207143299  0.5008138983232729   T   T   T
  0.5350457633311867  0.6377326150586904  0.3751342948124984   T   T   T
  0.4359436409226398  0.6436094105060212  0.5353086223921818   T   T   T
  0.4373551010143757  0.5015757590148624  0.3842817269995109   F   F   F
  0.4437846394494898  0.4460183835780285  0.5005161578087822   F   F   F
  0.3872639756297208  0.4674373080976538  0.6096758202471386   T   T   T
  0.3445831988398300  0.4439967601256550  0.3469194443945928   T   T   T
  0.3617541473546741  0.5853703645936353  0.3939069792015844   T   T   T
  0.4217425606853311  0.4061295180575186  0.3699802678458894   F   F   F
  0.5011311695957161  0.4887203336762909  0.4395023580252015   F   F   F
  0.4044148221271726  0.6101724300038001  0.4624736492929173   F   F   F
  0.4722931245665194  0.5596737886932672  0.5729988711091565   F   F   F
  0.6552684236953183  0.5165424048424470  0.4543399438695133   F   F   F
  0.5967309916701211  0.5535378348504167  0.5056109707055541   F   F   F
  0.5314074673932367  0.5941153005651714  0.5336729985293047   F   F   F
  0.5796732686089143  0.4997731718447866  0.4507473928409595   F   F   F
  0.4616374551389208  0.3315371657248787  0.3444913369313214   T   T   T
  0.3905180950192175  0.5252419063175111  0.4552418453041511   F   F   F
  0.4554457313905049  0.3246976855624110  0.4245272381171112   T   T   T
  0.5074804872141527  0.4592780196109629  0.3501259710292359   F   F   F
  0.6012877811302459  0.4669891268301640  0.5212355700313438   F   F   F
  0.5384608035519776  0.4312182275275163  0.4821288228790692   F   F   F
  0.4713083414346286  0.4805797151798927  0.5807598339419258   F   F   F
  0.3771163837573610  0.4514853175274567  0.4282230665427278   F   F   F
  0.4059018739390154  0.3822235888080883  0.4561785915149272   F   F   F
  0.5357818896390683  0.5680835373033233  0.4543473312664048   F   F   F
  0.4924712632432886  0.6367287407321953  0.4646113344718685   F   F   F
  0.4677327221812249  0.5829886973614862  0.4038343643763724   F   F   F
  0.5280944416629296  0.5063826634733033  0.5194466411805863   F   F   F
  0.6212454441397384  0.5105019604624417  0.3755946010283822   F   F   F
  0.6054499763524817  0.5821019035045651  0.4188664505762958   F   F   F
  0.4050790883739026  0.5245211222763402  0.5434909784116542   F   F   F
  0.3506000942198360  0.4702236212614926  0.5088774865714220   T   T   T
  0.4339304300406346  0.4575286296121252  0.3018991603022019   T   T   T
  0.5391413860514792  0.4232354405980351  0.5688990191839294   T   T   T
  0.3581651349510656  0.3871419250841219  0.5400249180361300   T   T   T
  0.4625951421883201  0.5516617238622956  0.4875128022361963   F   F   F
  0.6073596381240600  0.3769267155436178  0.4986920518255604   T   T   T
  0.4920428866390832  0.4393937137571255  0.6580668561238231   T   T   T
  0.5868956820784711  0.4695531594441952  0.3040699050140250   T   T   T
  0.4900497958562298  0.4037080615820798  0.4151644571778519   F   F   F
  0.4354469035973904  0.6746835361778077  0.4128666372289758   T   T   T
  0.4681892226792547  0.5375292934462695  0.6600622937198465   T   T   T
  0.5397532608265934  0.5319899791087650  0.3771480104995177   F   F   F
  0.6690357376209267  0.5998415982811856  0.4837646220033224   T   T   T
  0.6646944237650102  0.5195069574864599  0.5519458890907843   T   T   T
  0.3758518211789848  0.3341758195836106  0.3853902729151611   T   T   T
  0.6821445122808816  0.4383948408029038  0.4895341835371071   T   T   T
  0.5405663628390495  0.3192176770063661  0.3928758838947367   T   T   T
  0.3023861460630776  0.5027680497100718  0.4367077815513067   T   T   T
  0.3138037704156232  0.3953253182573564  0.4497179610432734   T   T   T
  0.5119113162095140  0.6260345943489967  0.6165324320451828   T   T   T
  0.4493221701644312  0.3754301717645355  0.5860351870026378   T   T   T
  0.3905403247855870  0.5809094672432706  0.6128053065761303   T   T   T
  0.4052005762104213  0.3055336937550478  0.5009644087774415   T   T   T
  0.4030649915604865  0.3718651209376791  0.2870276227752692   T   T   T
  0.3835729085242024  0.5337052288699218  0.2924386636624002   T   T   T
  0.6933960531854307  0.4610217677386896  0.3889727232701627   T   T   T
  0.3375200225057036  0.5720785308885928  0.5126951755737253   T   T   T
  0.5989010381144090  0.5734528772715065  0.3075624321251984   T   T   T
  0.6127229561052487  0.6148763864421476  0.5754177534553009   T   T   T
  0.4396704123662678  0.6156898083160587  0.3238928342488327   T   T   T
  0.5863084419143084  0.3363348953139774  0.5433411821551212   T   T   T
 
  0.00000000E+00  0.00000000E+00  0.00000000E+00
  0.00000000E+00  0.00000000E+00  0.00000000E+00
  0.00000000E+00  0.00000000E+00  0.00000000E+00
  0.00000000E+00  0.00000000E+00  0.00000000E+00
  0.00000000E+00  0.00000000E+00  0.00000000E+00
  0.00000000E+00  0.00000000E+00  0.00000000E+00
  0.00000000E+00  0.00000000E+00  0.00000000E+00
  0.00000000E+00  0.00000000E+00  0.00000000E+00
  0.00000000E+00  0.00000000E+00  0.00000000E+00
  0.00000000E+00  0.00000000E+00  0.00000000E+00
  0.00000000E+00  0.00000000E+00  0.00000000E+00
  0.00000000E+00  0.00000000E+00  0.00000000E+00
  0.00000000E+00  0.00000000E+00  0.00000000E+00
  0.00000000E+00  0.00000000E+00  0.00000000E+00
  0.00000000E+00  0.00000000E+00  0.00000000E+00
  0.00000000E+00  0.00000000E+00  0.00000000E+00
  0.00000000E+00  0.00000000E+00  0.00000000E+00
  0.00000000E+00  0.00000000E+00  0.00000000E+00
  0.00000000E+00  0.00000000E+00  0.00000000E+00
  0.00000000E+00  0.00000000E+00  0.00000000E+00
  0.00000000E+00  0.00000000E+00  0.00000000E+00
  0.00000000E+00  0.00000000E+00  0.00000000E+00
  0.00000000E+00  0.00000000E+00  0.00000000E+00
  0.00000000E+00  0.00000000E+00  0.00000000E+00
  0.00000000E+00  0.00000000E+00  0.00000000E+00
  0.00000000E+00  0.00000000E+00  0.00000000E+00
  0.00000000E+00  0.00000000E+00  0.00000000E+00
  0.00000000E+00  0.00000000E+00  0.00000000E+00
  0.00000000E+00  0.00000000E+00  0.00000000E+00
  0.00000000E+00  0.00000000E+00  0.00000000E+00
  0.00000000E+00  0.00000000E+00  0.00000000E+00
  0.00000000E+00  0.00000000E+00  0.00000000E+00
  0.00000000E+00  0.00000000E+00  0.00000000E+00
  0.00000000E+00  0.00000000E+00  0.00000000E+00
  0.00000000E+00  0.00000000E+00  0.00000000E+00
  0.00000000E+00  0.00000000E+00  0.00000000E+00
  0.00000000E+00  0.00000000E+00  0.00000000E+00
  0.00000000E+00  0.00000000E+00  0.00000000E+00
  0.00000000E+00  0.00000000E+00  0.00000000E+00
  0.00000000E+00  0.00000000E+00  0.00000000E+00
  0.00000000E+00  0.00000000E+00  0.00000000E+00
  0.00000000E+00  0.00000000E+00  0.00000000E+00
  0.00000000E+00  0.00000000E+00  0.00000000E+00
  0.00000000E+00  0.00000000E+00  0.00000000E+00
  0.00000000E+00  0.00000000E+00  0.00000000E+00
  0.00000000E+00  0.00000000E+00  0.00000000E+00
  0.00000000E+00  0.00000000E+00  0.00000000E+00
  0.00000000E+00  0.00000000E+00  0.00000000E+00
  0.00000000E+00  0.00000000E+00  0.00000000E+00
  0.00000000E+00  0.00000000E+00  0.00000000E+00
  0.00000000E+00  0.00000000E+00  0.00000000E+00
  0.00000000E+00  0.00000000E+00  0.00000000E+00
  0.00000000E+00  0.00000000E+00  0.00000000E+00
  0.00000000E+00  0.00000000E+00  0.00000000E+00
  0.00000000E+00  0.00000000E+00  0.00000000E+00
  0.00000000E+00  0.00000000E+00  0.00000000E+00
  0.00000000E+00  0.00000000E+00  0.00000000E+00
  0.00000000E+00  0.00000000E+00  0.00000000E+00
  0.00000000E+00  0.00000000E+00  0.00000000E+00
  0.00000000E+00  0.00000000E+00  0.00000000E+00
  0.00000000E+00  0.00000000E+00  0.00000000E+00
  0.00000000E+00  0.00000000E+00  0.00000000E+00
  0.00000000E+00  0.00000000E+00  0.00000000E+00
  0.00000000E+00  0.00000000E+00  0.00000000E+00
  0.00000000E+00  0.00000000E+00  0.00000000E+00
  0.00000000E+00  0.00000000E+00  0.00000000E+00
  0.00000000E+00  0.00000000E+00  0.00000000E+00
  0.00000000E+00  0.00000000E+00  0.00000000E+00
  0.00000000E+00  0.00000000E+00  0.00000000E+00
