La Co Ni Sn Bi H                        
   1.00000000000000     
    29.1044006348000011    0.0000000000000000    0.0000000000000000
     0.4451680315000000   28.3694074727000007    0.0000000000000000
     0.0682082826000000    0.3036559964000000   28.5240018092999996
   La   Co   Ni   Sn   Bi   H 
    14    13    13    14    14     1
Selective dynamics
Direct
  0.5928487064887591  0.4184387725639726  0.4074326749404238   T   T   T
  0.6850999247025080  0.5717742480560281  0.3807299645676634   T   T   T
  0.4976921112931280  0.5246531644144495  0.2814170001551553   T   T   T
  0.5623066885350100  0.5218490396596870  0.6022350529084988   T   T   T
  0.5115637366506112  0.3866157141082727  0.3059727896139582   T   T   T
  0.5754810961009628  0.6554715196168689  0.4833320920844819   T   T   T
  0.5096614182722523  0.3382984173770866  0.4996893290222403   T   T   T
  0.5344614159785970  0.6386883114110853  0.3756618960323095   T   T   T
  0.4361275126613824  0.6434466606038030  0.5355210027715710   T   T   T
  0.4373551010143757  0.5015757590148624  0.3842817269995109   F   F   F
  0.4437846394494898  0.4460183835780285  0.5005161578087822   F   F   F
  0.3873154217830057  0.4674102970091895  0.6097348872567498   T   T   T
  0.3451525168094519  0.4437562775506312  0.3463439124044542   T   T   T
  0.3626996068248958  0.5854734082323039  0.3929501470277787   T   T   T
  0.4217425606853311  0.4061295180575186  0.3699802678458894   F   F   F
  0.5011311695957161  0.4887203336762909  0.4395023580252015   F   F   F
  0.4044148221271726  0.6101724300038001  0.4624736492929173   F   F   F
  0.4722931245665194  0.5596737886932672  0.5729988711091565   F   F   F
  0.6552684236953183  0.5165424048424470  0.4543399438695133   F   F   F
  0.5967309916701211  0.5535378348504167  0.5056109707055541   F   F   F
  0.5314074673932367  0.5941153005651714  0.5336729985293047   F   F   F
  0.5796732686089143  0.4997731718447866  0.4507473928409595   F   F   F
  0.4600141097375333  0.3296428066085288  0.3464283147038817   T   T   T
  0.3905180950192175  0.5252419063175111  0.4552418453041511   F   F   F
  0.4542834353882251  0.3243088826342117  0.4257688118419767   T   T   T
  0.5074804872141527  0.4592780196109629  0.3501259710292359   F   F   F
  0.6012877811302459  0.4669891268301640  0.5212355700313438   F   F   F
  0.5384608035519776  0.4312182275275163  0.4821288228790692   F   F   F
  0.4713083414346286  0.4805797151798927  0.5807598339419258   F   F   F
  0.3771163837573610  0.4514853175274567  0.4282230665427278   F   F   F
  0.4059018739390154  0.3822235888080883  0.4561785915149272   F   F   F
  0.5357818896390683  0.5680835373033233  0.4543473312664048   F   F   F
  0.4924712632432886  0.6367287407321953  0.4646113344718685   F   F   F
  0.4677327221812249  0.5829886973614862  0.4038343643763724   F   F   F
  0.5280944416629296  0.5063826634733033  0.5194466411805863   F   F   F
  0.6212454441397384  0.5105019604624417  0.3755946010283822   F   F   F
  0.6054499763524817  0.5821019035045651  0.4188664505762958   F   F   F
  0.4050790883739026  0.5245211222763402  0.5434909784116542   F   F   F
  0.3505513165081435  0.4706704233928021  0.5086541380459397   T   T   T
  0.4346692484320596  0.4564454448497601  0.3017248301803871   T   T   T
  0.5378858083965243  0.4219759286775265  0.5690732289897761   T   T   T
  0.3570425887114486  0.3878990452306236  0.5398316723938016   T   T   T
  0.4625951421883201  0.5516617238622956  0.4875128022361963   F   F   F
  0.6073323619296768  0.3759654771577343  0.5114618590030200   T   T   T
  0.4918333889631201  0.4392643419862221  0.6580310927845431   T   T   T
  0.5893169850288746  0.4657547981442766  0.3068469668118456   T   T   T
  0.4900497958562298  0.4037080615820798  0.4151644571778519   F   F   F
  0.4350007714120925  0.6744214509679525  0.4124143020202234   T   T   T
  0.4682693043647242  0.5372529351279396  0.6602614354991387   T   T   T
  0.5397532608265934  0.5319899791087650  0.3771480104995177   F   F   F
  0.6686275817946528  0.6000609734094000  0.4837074253040189   T   T   T
  0.6654094661407985  0.5190814037920161  0.5514086074885024   T   T   T
  0.3746522943586357  0.3346441525119198  0.3850283584490645   T   T   T
  0.6795532756032229  0.4371151593452678  0.4865644319547307   T   T   T
  0.5386505773707286  0.3171917864787507  0.3924230187014022   T   T   T
  0.3027448449806142  0.5033558366178708  0.4360638659497009   T   T   T
  0.3134248983201413  0.3960396187582479  0.4491016106267220   T   T   T
  0.5123272976511746  0.6253598244762373  0.6168327428040304   T   T   T
  0.4487769087532528  0.3748467616996060  0.5855353574807167   T   T   T
  0.3904660870418911  0.5806785800768809  0.6129849416982470   T   T   T
  0.4056681770241095  0.3063427310834231  0.5026976101610328   T   T   T
  0.4039583085040978  0.3709754583516375  0.2870832338024396   T   T   T
  0.3853272298894435  0.5326640689441828  0.2910669851482878   T   T   T
  0.6922715163700025  0.4602498369528927  0.3867567113639590   T   T   T
  0.3376552240357519  0.5723713161139430  0.5126785030592872   T   T   T
  0.5989065068275746  0.5761090462263937  0.3100296348103952   T   T   T
  0.6126666895612320  0.6143848061781071  0.5754767271795719   T   T   T
  0.4416373722503192  0.6130962885590109  0.3227380464647973   T   T   T
  0.5882118468331827  0.3956821854101027  0.3301538366426606   T   T   T
 
  0.00000000E+00  0.00000000E+00  0.00000000E+00
  0.00000000E+00  0.00000000E+00  0.00000000E+00
  0.00000000E+00  0.00000000E+00  0.00000000E+00
  0.00000000E+00  0.00000000E+00  0.00000000E+00
  0.00000000E+00  0.00000000E+00  0.00000000E+00
  0.00000000E+00  0.00000000E+00  0.00000000E+00
  0.00000000E+00  0.00000000E+00  0.00000000E+00
  0.00000000E+00  0.00000000E+00  0.00000000E+00
  0.00000000E+00  0.00000000E+00  0.00000000E+00
  0.00000000E+00  0.00000000E+00  0.00000000E+00
  0.00000000E+00  0.00000000E+00  0.00000000E+00
  0.00000000E+00  0.00000000E+00  0.00000000E+00
  0.00000000E+00  0.00000000E+00  0.00000000E+00
  0.00000000E+00  0.00000000E+00  0.00000000E+00
  0.00000000E+00  0.00000000E+00  0.00000000E+00
  0.00000000E+00  0.00000000E+00  0.00000000E+00
  0.00000000E+00  0.00000000E+00  0.00000000E+00
  0.00000000E+00  0.00000000E+00  0.00000000E+00
  0.00000000E+00  0.00000000E+00  0.00000000E+00
  0.00000000E+00  0.00000000E+00  0.00000000E+00
  0.00000000E+00  0.00000000E+00  0.00000000E+00
  0.00000000E+00  0.00000000E+00  0.00000000E+00
  0.00000000E+00  0.00000000E+00  0.00000000E+00
  0.00000000E+00  0.00000000E+00  0.00000000E+00
  0.00000000E+00  0.00000000E+00  0.00000000E+00
  0.00000000E+00  0.00000000E+00  0.00000000E+00
  0.00000000E+00  0.00000000E+00  0.00000000E+00
  0.00000000E+00  0.00000000E+00  0.00000000E+00
  0.00000000E+00  0.00000000E+00  0.00000000E+00
  0.00000000E+00  0.00000000E+00  0.00000000E+00
  0.00000000E+00  0.00000000E+00  0.00000000E+00
  0.00000000E+00  0.00000000E+00  0.00000000E+00
  0.00000000E+00  0.00000000E+00  0.00000000E+00
  0.00000000E+00  0.00000000E+00  0.00000000E+00
  0.00000000E+00  0.00000000E+00  0.00000000E+00
  0.00000000E+00  0.00000000E+00  0.00000000E+00
  0.00000000E+00  0.00000000E+00  0.00000000E+00
  0.00000000E+00  0.00000000E+00  0.00000000E+00
  0.00000000E+00  0.00000000E+00  0.00000000E+00
  0.00000000E+00  0.00000000E+00  0.00000000E+00
  0.00000000E+00  0.00000000E+00  0.00000000E+00
  0.00000000E+00  0.00000000E+00  0.00000000E+00
  0.00000000E+00  0.00000000E+00  0.00000000E+00
  0.00000000E+00  0.00000000E+00  0.00000000E+00
  0.00000000E+00  0.00000000E+00  0.00000000E+00
  0.00000000E+00  0.00000000E+00  0.00000000E+00
  0.00000000E+00  0.00000000E+00  0.00000000E+00
  0.00000000E+00  0.00000000E+00  0.00000000E+00
  0.00000000E+00  0.00000000E+00  0.00000000E+00
  0.00000000E+00  0.00000000E+00  0.00000000E+00
  0.00000000E+00  0.00000000E+00  0.00000000E+00
  0.00000000E+00  0.00000000E+00  0.00000000E+00
  0.00000000E+00  0.00000000E+00  0.00000000E+00
  0.00000000E+00  0.00000000E+00  0.00000000E+00
  0.00000000E+00  0.00000000E+00  0.00000000E+00
  0.00000000E+00  0.00000000E+00  0.00000000E+00
  0.00000000E+00  0.00000000E+00  0.00000000E+00
  0.00000000E+00  0.00000000E+00  0.00000000E+00
  0.00000000E+00  0.00000000E+00  0.00000000E+00
  0.00000000E+00  0.00000000E+00  0.00000000E+00
  0.00000000E+00  0.00000000E+00  0.00000000E+00
  0.00000000E+00  0.00000000E+00  0.00000000E+00
  0.00000000E+00  0.00000000E+00  0.00000000E+00
  0.00000000E+00  0.00000000E+00  0.00000000E+00
  0.00000000E+00  0.00000000E+00  0.00000000E+00
  0.00000000E+00  0.00000000E+00  0.00000000E+00
  0.00000000E+00  0.00000000E+00  0.00000000E+00
  0.00000000E+00  0.00000000E+00  0.00000000E+00
  0.00000000E+00  0.00000000E+00  0.00000000E+00
