La Co Ni Sn Bi H                        
   1.00000000000000     
    29.1044006348000011    0.0000000000000000    0.0000000000000000
     0.4451680315000000   28.3694074727000007    0.0000000000000000
     0.0682082826000000    0.3036559964000000   28.5240018092999996
   La   Co   Ni   Sn   Bi   H 
    14    13    13    14    14     1
Selective dynamics
Direct
  0.5921065455127329  0.4212118004789970  0.4075841164610058   T   T   T
  0.6850402470524121  0.5696713104714481  0.3759974985598607   T   T   T
  0.4947066929989386  0.5270595792217820  0.2820937890732285   T   T   T
  0.5612204192951269  0.5204253271171398  0.6026350190218926   T   T   T
  0.5088613106270240  0.3871005147101553  0.3055608114332118   T   T   T
  0.5767562712594146  0.6548915649087914  0.4858837468835039   T   T   T
  0.5074712549627403  0.3376943512202260  0.4995499463115475   T   T   T
  0.5351305979066783  0.6378296584119189  0.3759753815011384   T   T   T
  0.4360070205874191  0.6433440145882432  0.5352909872845432   T   T   T
  0.4373551010143757  0.5015757590148624  0.3842817269995109   F   F   F
  0.4437846394494898  0.4460183835780285  0.5005161578087822   F   F   F
  0.3874693072735045  0.4673019368781334  0.6100056134543735   T   T   T
  0.3443999392128371  0.4440489499882516  0.3471786415932988   T   T   T
  0.3617311903920329  0.5853427224611198  0.3939136062435052   T   T   T
  0.4217425606853311  0.4061295180575186  0.3699802678458894   F   F   F
  0.5011311695957161  0.4887203336762909  0.4395023580252015   F   F   F
  0.4044148221271726  0.6101724300038001  0.4624736492929173   F   F   F
  0.4722931245665194  0.5596737886932672  0.5729988711091565   F   F   F
  0.6552684236953183  0.5165424048424470  0.4543399438695133   F   F   F
  0.5967309916701211  0.5535378348504167  0.5056109707055541   F   F   F
  0.5314074673932367  0.5941153005651714  0.5336729985293047   F   F   F
  0.5796732686089143  0.4997731718447866  0.4507473928409595   F   F   F
  0.4613948333340536  0.3315089638715943  0.3440591807258818   T   T   T
  0.3905180950192175  0.5252419063175111  0.4552418453041511   F   F   F
  0.4542151436461070  0.3247297693292162  0.4235110354803376   T   T   T
  0.5074804872141527  0.4592780196109629  0.3501259710292359   F   F   F
  0.6012877811302459  0.4669891268301640  0.5212355700313438   F   F   F
  0.5384608035519776  0.4312182275275163  0.4821288228790692   F   F   F
  0.4713083414346286  0.4805797151798927  0.5807598339419258   F   F   F
  0.3771163837573610  0.4514853175274567  0.4282230665427278   F   F   F
  0.4059018739390154  0.3822235888080883  0.4561785915149272   F   F   F
  0.5357818896390683  0.5680835373033233  0.4543473312664048   F   F   F
  0.4924712632432886  0.6367287407321953  0.4646113344718685   F   F   F
  0.4677327221812249  0.5829886973614862  0.4038343643763724   F   F   F
  0.5280944416629296  0.5063826634733033  0.5194466411805863   F   F   F
  0.6212454441397384  0.5105019604624417  0.3755946010283822   F   F   F
  0.6054499763524817  0.5821019035045651  0.4188664505762958   F   F   F
  0.4050790883739026  0.5245211222763402  0.5434909784116542   F   F   F
  0.3507926963614080  0.4703457994495281  0.5089600900925092   T   T   T
  0.4336815927559249  0.4572761663064748  0.3021548680321125   T   T   T
  0.5383688997604194  0.4211158178174114  0.5688214957337903   T   T   T
  0.3577088355321769  0.3874503179555648  0.5401892873135190   T   T   T
  0.4625951421883201  0.5516617238622956  0.4875128022361963   F   F   F
  0.6056355275328632  0.3742844661603623  0.5091459156860282   T   T   T
  0.4920635972708582  0.4383859279037114  0.6579409755223322   T   T   T
  0.5872128203368491  0.4678367091517260  0.3060104949246454   T   T   T
  0.4900497958562298  0.4037080615820798  0.4151644571778519   F   F   F
  0.4353189909167209  0.6747875898745744  0.4129806629358754   T   T   T
  0.4674316970472027  0.5367687920776099  0.6603180107187933   T   T   T
  0.5397532608265934  0.5319899791087650  0.3771480104995177   F   F   F
  0.6703805242204049  0.5994056925121356  0.4778360387337154   T   T   T
  0.6652848632870615  0.5205023257971345  0.5507464573556176   T   T   T
  0.3746355430245792  0.3347067788510487  0.3850618470001956   T   T   T
  0.6781414021403998  0.4367385703035168  0.4876246954600066   T   T   T
  0.5399872770068579  0.3189896520722328  0.3921407524206241   T   T   T
  0.3023225290096926  0.5027304535436700  0.4369182398394280   T   T   T
  0.3134850809270755  0.3953598622453253  0.4499404253057934   T   T   T
  0.5115861470188450  0.6251738321617024  0.6173437439514764   T   T   T
  0.4488817712302008  0.3746913447288483  0.5856414256020025   T   T   T
  0.3901328773451375  0.5806449656361852  0.6128173523987193   T   T   T
  0.4035028702954142  0.3055373284786539  0.5004544001710557   T   T   T
  0.4023669102407688  0.3716367202753675  0.2871042666769998   T   T   T
  0.3833122642681793  0.5336269619298520  0.2924648181068716   T   T   T
  0.6931099556112722  0.4597844987933706  0.3885450196562489   T   T   T
  0.3376404152280671  0.5722278994946388  0.5127057177905281   T   T   T
  0.5976550536602266  0.5726391022894289  0.3066924101568440   T   T   T
  0.6098600597104245  0.6130615832871924  0.5785917140568257   T   T   T
  0.4399942761265500  0.6149290843406636  0.3239549385701290   T   T   T
  0.6580739051870266  0.6539213904596507  0.5091392438591165   T   T   T
 
  0.00000000E+00  0.00000000E+00  0.00000000E+00
  0.00000000E+00  0.00000000E+00  0.00000000E+00
  0.00000000E+00  0.00000000E+00  0.00000000E+00
  0.00000000E+00  0.00000000E+00  0.00000000E+00
  0.00000000E+00  0.00000000E+00  0.00000000E+00
  0.00000000E+00  0.00000000E+00  0.00000000E+00
  0.00000000E+00  0.00000000E+00  0.00000000E+00
  0.00000000E+00  0.00000000E+00  0.00000000E+00
  0.00000000E+00  0.00000000E+00  0.00000000E+00
  0.00000000E+00  0.00000000E+00  0.00000000E+00
  0.00000000E+00  0.00000000E+00  0.00000000E+00
  0.00000000E+00  0.00000000E+00  0.00000000E+00
  0.00000000E+00  0.00000000E+00  0.00000000E+00
  0.00000000E+00  0.00000000E+00  0.00000000E+00
  0.00000000E+00  0.00000000E+00  0.00000000E+00
  0.00000000E+00  0.00000000E+00  0.00000000E+00
  0.00000000E+00  0.00000000E+00  0.00000000E+00
  0.00000000E+00  0.00000000E+00  0.00000000E+00
  0.00000000E+00  0.00000000E+00  0.00000000E+00
  0.00000000E+00  0.00000000E+00  0.00000000E+00
  0.00000000E+00  0.00000000E+00  0.00000000E+00
  0.00000000E+00  0.00000000E+00  0.00000000E+00
  0.00000000E+00  0.00000000E+00  0.00000000E+00
  0.00000000E+00  0.00000000E+00  0.00000000E+00
  0.00000000E+00  0.00000000E+00  0.00000000E+00
  0.00000000E+00  0.00000000E+00  0.00000000E+00
  0.00000000E+00  0.00000000E+00  0.00000000E+00
  0.00000000E+00  0.00000000E+00  0.00000000E+00
  0.00000000E+00  0.00000000E+00  0.00000000E+00
  0.00000000E+00  0.00000000E+00  0.00000000E+00
  0.00000000E+00  0.00000000E+00  0.00000000E+00
  0.00000000E+00  0.00000000E+00  0.00000000E+00
  0.00000000E+00  0.00000000E+00  0.00000000E+00
  0.00000000E+00  0.00000000E+00  0.00000000E+00
  0.00000000E+00  0.00000000E+00  0.00000000E+00
  0.00000000E+00  0.00000000E+00  0.00000000E+00
  0.00000000E+00  0.00000000E+00  0.00000000E+00
  0.00000000E+00  0.00000000E+00  0.00000000E+00
  0.00000000E+00  0.00000000E+00  0.00000000E+00
  0.00000000E+00  0.00000000E+00  0.00000000E+00
  0.00000000E+00  0.00000000E+00  0.00000000E+00
  0.00000000E+00  0.00000000E+00  0.00000000E+00
  0.00000000E+00  0.00000000E+00  0.00000000E+00
  0.00000000E+00  0.00000000E+00  0.00000000E+00
  0.00000000E+00  0.00000000E+00  0.00000000E+00
  0.00000000E+00  0.00000000E+00  0.00000000E+00
  0.00000000E+00  0.00000000E+00  0.00000000E+00
  0.00000000E+00  0.00000000E+00  0.00000000E+00
  0.00000000E+00  0.00000000E+00  0.00000000E+00
  0.00000000E+00  0.00000000E+00  0.00000000E+00
  0.00000000E+00  0.00000000E+00  0.00000000E+00
  0.00000000E+00  0.00000000E+00  0.00000000E+00
  0.00000000E+00  0.00000000E+00  0.00000000E+00
  0.00000000E+00  0.00000000E+00  0.00000000E+00
  0.00000000E+00  0.00000000E+00  0.00000000E+00
  0.00000000E+00  0.00000000E+00  0.00000000E+00
  0.00000000E+00  0.00000000E+00  0.00000000E+00
  0.00000000E+00  0.00000000E+00  0.00000000E+00
  0.00000000E+00  0.00000000E+00  0.00000000E+00
  0.00000000E+00  0.00000000E+00  0.00000000E+00
  0.00000000E+00  0.00000000E+00  0.00000000E+00
  0.00000000E+00  0.00000000E+00  0.00000000E+00
  0.00000000E+00  0.00000000E+00  0.00000000E+00
  0.00000000E+00  0.00000000E+00  0.00000000E+00
  0.00000000E+00  0.00000000E+00  0.00000000E+00
  0.00000000E+00  0.00000000E+00  0.00000000E+00
  0.00000000E+00  0.00000000E+00  0.00000000E+00
  0.00000000E+00  0.00000000E+00  0.00000000E+00
  0.00000000E+00  0.00000000E+00  0.00000000E+00
