La Co Ni Sn Bi H                        
   1.00000000000000     
    29.1044006348000011    0.0000000000000000    0.0000000000000000
     0.4451680315000000   28.3694074727000007    0.0000000000000000
     0.0682082826000000    0.3036559964000000   28.5240018092999996
   La   Co   Ni   Sn   Bi   H 
    14    13    13    14    14     1
Selective dynamics
Direct
  0.5922142370992364  0.4207112838312734  0.4077158212295859   T   T   T
  0.6881814200758382  0.5725864035538799  0.3774281659000975   T   T   T
  0.4956540397781732  0.5274306803286881  0.2820533772679754   T   T   T
  0.5624641095486324  0.5219017315350161  0.6020749951294456   T   T   T
  0.5090581212997114  0.3873580732462867  0.3054161360250522   T   T   T
  0.5752945437180165  0.6555042860594193  0.4831285133624374   T   T   T
  0.5088461557452997  0.3381159540912814  0.4995045419451680   T   T   T
  0.5351689649964323  0.6377580471809584  0.3752394004391906   T   T   T
  0.4359896021157598  0.6433107916037457  0.5357225023775630   T   T   T
  0.4373551010143757  0.5015757590148624  0.3842817269995109   F   F   F
  0.4437846394494898  0.4460183835780285  0.5005161578087822   F   F   F
  0.3872668639475881  0.4669505091518424  0.6094943769084570   T   T   T
  0.3444988660120104  0.4442312175248287  0.3468765243735575   T   T   T
  0.3620544714796817  0.5856490465973252  0.3936823962519306   T   T   T
  0.4217425606853311  0.4061295180575186  0.3699802678458894   F   F   F
  0.5011311695957161  0.4887203336762909  0.4395023580252015   F   F   F
  0.4044148221271726  0.6101724300038001  0.4624736492929173   F   F   F
  0.4722931245665194  0.5596737886932672  0.5729988711091565   F   F   F
  0.6552684236953183  0.5165424048424470  0.4543399438695133   F   F   F
  0.5967309916701211  0.5535378348504167  0.5056109707055541   F   F   F
  0.5314074673932367  0.5941153005651714  0.5336729985293047   F   F   F
  0.5796732686089143  0.4997731718447866  0.4507473928409595   F   F   F
  0.4607009323595050  0.3307795928660205  0.3447188251631648   T   T   T
  0.3905180950192175  0.5252419063175111  0.4552418453041511   F   F   F
  0.4543039338599442  0.3246245249286091  0.4240626989715197   T   T   T
  0.5074804872141527  0.4592780196109629  0.3501259710292359   F   F   F
  0.6012877811302459  0.4669891268301640  0.5212355700313438   F   F   F
  0.5384608035519776  0.4312182275275163  0.4821288228790692   F   F   F
  0.4713083414346286  0.4805797151798927  0.5807598339419258   F   F   F
  0.3771163837573610  0.4514853175274567  0.4282230665427278   F   F   F
  0.4059018739390154  0.3822235888080883  0.4561785915149272   F   F   F
  0.5357818896390683  0.5680835373033233  0.4543473312664048   F   F   F
  0.4924712632432886  0.6367287407321953  0.4646113344718685   F   F   F
  0.4677327221812249  0.5829886973614862  0.4038343643763724   F   F   F
  0.5280944416629296  0.5063826634733033  0.5194466411805863   F   F   F
  0.6212454441397384  0.5105019604624417  0.3755946010283822   F   F   F
  0.6054499763524817  0.5821019035045651  0.4188664505762958   F   F   F
  0.4050790883739026  0.5245211222763402  0.5434909784116542   F   F   F
  0.3507206981007963  0.4702561702440902  0.5088006379849062   T   T   T
  0.4339985105875195  0.4573062759699099  0.3021977291954817   T   T   T
  0.5381541811678535  0.4218858379023924  0.5690300451543725   T   T   T
  0.3575452279906399  0.3870683570988595  0.5397286732091907   T   T   T
  0.4625951421883201  0.5516617238622956  0.4875128022361963   F   F   F
  0.6065908424770571  0.3755358527218061  0.5104116859264041   T   T   T
  0.4917423258005648  0.4387828585881843  0.6579841522092128   T   T   T
  0.5877088760089247  0.4678096439674472  0.3063717193948711   T   T   T
  0.4900497958562298  0.4037080615820798  0.4151644571778519   F   F   F
  0.4354237022431099  0.6745701843427038  0.4126543085281886   T   T   T
  0.4682839060328056  0.5368977562124398  0.6601401614723225   T   T   T
  0.5397532608265934  0.5319899791087650  0.3771480104995177   F   F   F
  0.6682591520869710  0.5999988291462427  0.4823975553010511   T   T   T
  0.6659294889316693  0.5192044893015411  0.5504199292769708   T   T   T
  0.3747369069523230  0.3347611924331800  0.3847494817987533   T   T   T
  0.6790802024347259  0.4366903744954002  0.4864081170736210   T   T   T
  0.5395651927792592  0.3186285029637724  0.3917394197802526   T   T   T
  0.3024697248080756  0.5032163088994949  0.4365955070180970   T   T   T
  0.3134218982208277  0.3959513771114387  0.4494986725022044   T   T   T
  0.5126296527165716  0.6253046162491369  0.6167662086675250   T   T   T
  0.4489051009334779  0.3746569933498206  0.5854341857582608   T   T   T
  0.3904355448223651  0.5803340449902396  0.6131017053071516   T   T   T
  0.4052910929030561  0.3056091139629582  0.5011845698922172   T   T   T
  0.4026938375348227  0.3717343378930429  0.2869561906937765   T   T   T
  0.3839049777775582  0.5335528537012004  0.2921929720409526   T   T   T
  0.6925159155587489  0.4605520909349973  0.3874472397939933   T   T   T
  0.3376315883700014  0.5722307854758598  0.5127537683106965   T   T   T
  0.5987607505047334  0.5726569575819951  0.3079766055209358   T   T   T
  0.6130654997057603  0.6142087387112565  0.5750001616111852   T   T   T
  0.4404131803853162  0.6148194353848166  0.3235696597909989   T   T   T
  0.7475309944131766  0.5967646318783200  0.3386554226284318   T   T   T
 
  0.00000000E+00  0.00000000E+00  0.00000000E+00
  0.00000000E+00  0.00000000E+00  0.00000000E+00
  0.00000000E+00  0.00000000E+00  0.00000000E+00
  0.00000000E+00  0.00000000E+00  0.00000000E+00
  0.00000000E+00  0.00000000E+00  0.00000000E+00
  0.00000000E+00  0.00000000E+00  0.00000000E+00
  0.00000000E+00  0.00000000E+00  0.00000000E+00
  0.00000000E+00  0.00000000E+00  0.00000000E+00
  0.00000000E+00  0.00000000E+00  0.00000000E+00
  0.00000000E+00  0.00000000E+00  0.00000000E+00
  0.00000000E+00  0.00000000E+00  0.00000000E+00
  0.00000000E+00  0.00000000E+00  0.00000000E+00
  0.00000000E+00  0.00000000E+00  0.00000000E+00
  0.00000000E+00  0.00000000E+00  0.00000000E+00
  0.00000000E+00  0.00000000E+00  0.00000000E+00
  0.00000000E+00  0.00000000E+00  0.00000000E+00
  0.00000000E+00  0.00000000E+00  0.00000000E+00
  0.00000000E+00  0.00000000E+00  0.00000000E+00
  0.00000000E+00  0.00000000E+00  0.00000000E+00
  0.00000000E+00  0.00000000E+00  0.00000000E+00
  0.00000000E+00  0.00000000E+00  0.00000000E+00
  0.00000000E+00  0.00000000E+00  0.00000000E+00
  0.00000000E+00  0.00000000E+00  0.00000000E+00
  0.00000000E+00  0.00000000E+00  0.00000000E+00
  0.00000000E+00  0.00000000E+00  0.00000000E+00
  0.00000000E+00  0.00000000E+00  0.00000000E+00
  0.00000000E+00  0.00000000E+00  0.00000000E+00
  0.00000000E+00  0.00000000E+00  0.00000000E+00
  0.00000000E+00  0.00000000E+00  0.00000000E+00
  0.00000000E+00  0.00000000E+00  0.00000000E+00
  0.00000000E+00  0.00000000E+00  0.00000000E+00
  0.00000000E+00  0.00000000E+00  0.00000000E+00
  0.00000000E+00  0.00000000E+00  0.00000000E+00
  0.00000000E+00  0.00000000E+00  0.00000000E+00
  0.00000000E+00  0.00000000E+00  0.00000000E+00
  0.00000000E+00  0.00000000E+00  0.00000000E+00
  0.00000000E+00  0.00000000E+00  0.00000000E+00
  0.00000000E+00  0.00000000E+00  0.00000000E+00
  0.00000000E+00  0.00000000E+00  0.00000000E+00
  0.00000000E+00  0.00000000E+00  0.00000000E+00
  0.00000000E+00  0.00000000E+00  0.00000000E+00
  0.00000000E+00  0.00000000E+00  0.00000000E+00
  0.00000000E+00  0.00000000E+00  0.00000000E+00
  0.00000000E+00  0.00000000E+00  0.00000000E+00
  0.00000000E+00  0.00000000E+00  0.00000000E+00
  0.00000000E+00  0.00000000E+00  0.00000000E+00
  0.00000000E+00  0.00000000E+00  0.00000000E+00
  0.00000000E+00  0.00000000E+00  0.00000000E+00
  0.00000000E+00  0.00000000E+00  0.00000000E+00
  0.00000000E+00  0.00000000E+00  0.00000000E+00
  0.00000000E+00  0.00000000E+00  0.00000000E+00
  0.00000000E+00  0.00000000E+00  0.00000000E+00
  0.00000000E+00  0.00000000E+00  0.00000000E+00
  0.00000000E+00  0.00000000E+00  0.00000000E+00
  0.00000000E+00  0.00000000E+00  0.00000000E+00
  0.00000000E+00  0.00000000E+00  0.00000000E+00
  0.00000000E+00  0.00000000E+00  0.00000000E+00
  0.00000000E+00  0.00000000E+00  0.00000000E+00
  0.00000000E+00  0.00000000E+00  0.00000000E+00
  0.00000000E+00  0.00000000E+00  0.00000000E+00
  0.00000000E+00  0.00000000E+00  0.00000000E+00
  0.00000000E+00  0.00000000E+00  0.00000000E+00
  0.00000000E+00  0.00000000E+00  0.00000000E+00
  0.00000000E+00  0.00000000E+00  0.00000000E+00
  0.00000000E+00  0.00000000E+00  0.00000000E+00
  0.00000000E+00  0.00000000E+00  0.00000000E+00
  0.00000000E+00  0.00000000E+00  0.00000000E+00
  0.00000000E+00  0.00000000E+00  0.00000000E+00
  0.00000000E+00  0.00000000E+00  0.00000000E+00
