La Co Ni Sn Bi H                        
   1.00000000000000     
    29.1044006348000011    0.0000000000000000    0.0000000000000000
     0.4451680315000000   28.3694074727000007    0.0000000000000000
     0.0682082826000000    0.3036559964000000   28.5240018092999996
   La   Co   Ni   Sn   Bi   H 
    14    13    13    14    14     1
Selective dynamics
Direct
  0.5924554986228620  0.4205195564291943  0.4078434161117596   T   T   T
  0.6850312423318914  0.5713531174172120  0.3809077307195289   T   T   T
  0.4959856197537661  0.5274733446118001  0.2817769785209368   T   T   T
  0.5624210741209434  0.5216455172734417  0.6021998461802751   T   T   T
  0.5095336269583978  0.3870550049648512  0.3057240391771424   T   T   T
  0.5753497617137147  0.6555058714349694  0.4835937165336478   T   T   T
  0.5072799281896310  0.3378208137237477  0.5001915261073371   T   T   T
  0.5354186427188613  0.6376639521966921  0.3753448745868996   T   T   T
  0.4363990351632181  0.6436411586306416  0.5354375156963219   T   T   T
  0.4373551010143757  0.5015757590148624  0.3842817269995109   F   F   F
  0.4437846394494898  0.4460183835780285  0.5005161578087822   F   F   F
  0.3849819933627175  0.4668605120240887  0.6078229264790647   T   T   T
  0.3453438826134173  0.4439476002421027  0.3457891604759600   T   T   T
  0.3623632159076534  0.5861268103446381  0.3929687747877099   T   T   T
  0.4217425606853311  0.4061295180575186  0.3699802678458894   F   F   F
  0.5011311695957161  0.4887203336762909  0.4395023580252015   F   F   F
  0.4044148221271726  0.6101724300038001  0.4624736492929173   F   F   F
  0.4722931245665194  0.5596737886932672  0.5729988711091565   F   F   F
  0.6552684236953183  0.5165424048424470  0.4543399438695133   F   F   F
  0.5967309916701211  0.5535378348504167  0.5056109707055541   F   F   F
  0.5314074673932367  0.5941153005651714  0.5336729985293047   F   F   F
  0.5796732686089143  0.4997731718447866  0.4507473928409595   F   F   F
  0.4612548047381389  0.3307790822990267  0.3448493189306268   T   T   T
  0.3905180950192175  0.5252419063175111  0.4552418453041511   F   F   F
  0.4549410854562206  0.3249016919849252  0.4235287669538955   T   T   T
  0.5074804872141527  0.4592780196109629  0.3501259710292359   F   F   F
  0.6012877811302459  0.4669891268301640  0.5212355700313438   F   F   F
  0.5384608035519776  0.4312182275275163  0.4821288228790692   F   F   F
  0.4713083414346286  0.4805797151798927  0.5807598339419258   F   F   F
  0.3771163837573610  0.4514853175274567  0.4282230665427278   F   F   F
  0.4059018739390154  0.3822235888080883  0.4561785915149272   F   F   F
  0.5357818896390683  0.5680835373033233  0.4543473312664048   F   F   F
  0.4924712632432886  0.6367287407321953  0.4646113344718685   F   F   F
  0.4677327221812249  0.5829886973614862  0.4038343643763724   F   F   F
  0.5280944416629296  0.5063826634733033  0.5194466411805863   F   F   F
  0.6212454441397384  0.5105019604624417  0.3755946010283822   F   F   F
  0.6054499763524817  0.5821019035045651  0.4188664505762958   F   F   F
  0.4050790883739026  0.5245211222763402  0.5434909784116542   F   F   F
  0.3483372842000838  0.4711091008214894  0.5092505696178561   T   T   T
  0.4346912988465736  0.4571534229404890  0.3016504582175371   T   T   T
  0.5380079238675550  0.4217208187009840  0.5688882453400613   T   T   T
  0.3575543319725835  0.3851133164299625  0.5374544895794667   T   T   T
  0.4625951421883201  0.5516617238622956  0.4875128022361963   F   F   F
  0.6055283943170875  0.3746946167454821  0.5100061254847329   T   T   T
  0.4910602508043987  0.4377378916577454  0.6576435698643932   T   T   T
  0.5875488645917077  0.4675203772962066  0.3064245528884644   T   T   T
  0.4900497958562298  0.4037080615820798  0.4151644571778519   F   F   F
  0.4356722075810341  0.6746588166001694  0.4126152756287441   T   T   T
  0.4673866339358346  0.5358724680652095  0.6593955944437417   T   T   T
  0.5397532608265934  0.5319899791087650  0.3771480104995177   F   F   F
  0.6686585911454871  0.6002976548008992  0.4837850215996967   T   T   T
  0.6657833274039979  0.5192520046969569  0.5506833738597338   T   T   T
  0.3751544346896746  0.3342115872660700  0.3848323673240633   T   T   T
  0.6783270673448117  0.4363144131451283  0.4870823542952430   T   T   T
  0.5399956773839875  0.3185234038825901  0.3923160808629514   T   T   T
  0.3029275966344107  0.5034336930675892  0.4353830519637461   T   T   T
  0.3132111443422692  0.3956488827913746  0.4478786920265349   T   T   T
  0.5122360670019558  0.6249649102082936  0.6170235891102633   T   T   T
  0.4481555829832514  0.3750258397263225  0.5853589965767668   T   T   T
  0.3902056540576933  0.5806304914564417  0.6126180041706130   T   T   T
  0.4041723093676985  0.3029547309210102  0.4971389467749681   T   T   T
  0.4036628138127273  0.3717260575115252  0.2864094467442171   T   T   T
  0.3846403399541551  0.5335534300779273  0.2915276998768584   T   T   T
  0.6927988886119774  0.4604807940069702  0.3877893014128207   T   T   T
  0.3378905614644873  0.5724451443381504  0.5121556417944547   T   T   T
  0.5992766896166426  0.5724563613448277  0.3077059366214960   T   T   T
  0.6126104463336581  0.6143169591771370  0.5755763929113312   T   T   T
  0.4409097415647751  0.6151388167307320  0.3233810204131657   T   T   T
  0.3205661368895484  0.4643275157183082  0.5544889786933782   T   T   T
 
  0.00000000E+00  0.00000000E+00  0.00000000E+00
  0.00000000E+00  0.00000000E+00  0.00000000E+00
  0.00000000E+00  0.00000000E+00  0.00000000E+00
  0.00000000E+00  0.00000000E+00  0.00000000E+00
  0.00000000E+00  0.00000000E+00  0.00000000E+00
  0.00000000E+00  0.00000000E+00  0.00000000E+00
  0.00000000E+00  0.00000000E+00  0.00000000E+00
  0.00000000E+00  0.00000000E+00  0.00000000E+00
  0.00000000E+00  0.00000000E+00  0.00000000E+00
  0.00000000E+00  0.00000000E+00  0.00000000E+00
  0.00000000E+00  0.00000000E+00  0.00000000E+00
  0.00000000E+00  0.00000000E+00  0.00000000E+00
  0.00000000E+00  0.00000000E+00  0.00000000E+00
  0.00000000E+00  0.00000000E+00  0.00000000E+00
  0.00000000E+00  0.00000000E+00  0.00000000E+00
  0.00000000E+00  0.00000000E+00  0.00000000E+00
  0.00000000E+00  0.00000000E+00  0.00000000E+00
  0.00000000E+00  0.00000000E+00  0.00000000E+00
  0.00000000E+00  0.00000000E+00  0.00000000E+00
  0.00000000E+00  0.00000000E+00  0.00000000E+00
  0.00000000E+00  0.00000000E+00  0.00000000E+00
  0.00000000E+00  0.00000000E+00  0.00000000E+00
  0.00000000E+00  0.00000000E+00  0.00000000E+00
  0.00000000E+00  0.00000000E+00  0.00000000E+00
  0.00000000E+00  0.00000000E+00  0.00000000E+00
  0.00000000E+00  0.00000000E+00  0.00000000E+00
  0.00000000E+00  0.00000000E+00  0.00000000E+00
  0.00000000E+00  0.00000000E+00  0.00000000E+00
  0.00000000E+00  0.00000000E+00  0.00000000E+00
  0.00000000E+00  0.00000000E+00  0.00000000E+00
  0.00000000E+00  0.00000000E+00  0.00000000E+00
  0.00000000E+00  0.00000000E+00  0.00000000E+00
  0.00000000E+00  0.00000000E+00  0.00000000E+00
  0.00000000E+00  0.00000000E+00  0.00000000E+00
  0.00000000E+00  0.00000000E+00  0.00000000E+00
  0.00000000E+00  0.00000000E+00  0.00000000E+00
  0.00000000E+00  0.00000000E+00  0.00000000E+00
  0.00000000E+00  0.00000000E+00  0.00000000E+00
  0.00000000E+00  0.00000000E+00  0.00000000E+00
  0.00000000E+00  0.00000000E+00  0.00000000E+00
  0.00000000E+00  0.00000000E+00  0.00000000E+00
  0.00000000E+00  0.00000000E+00  0.00000000E+00
  0.00000000E+00  0.00000000E+00  0.00000000E+00
  0.00000000E+00  0.00000000E+00  0.00000000E+00
  0.00000000E+00  0.00000000E+00  0.00000000E+00
  0.00000000E+00  0.00000000E+00  0.00000000E+00
  0.00000000E+00  0.00000000E+00  0.00000000E+00
  0.00000000E+00  0.00000000E+00  0.00000000E+00
  0.00000000E+00  0.00000000E+00  0.00000000E+00
  0.00000000E+00  0.00000000E+00  0.00000000E+00
  0.00000000E+00  0.00000000E+00  0.00000000E+00
  0.00000000E+00  0.00000000E+00  0.00000000E+00
  0.00000000E+00  0.00000000E+00  0.00000000E+00
  0.00000000E+00  0.00000000E+00  0.00000000E+00
  0.00000000E+00  0.00000000E+00  0.00000000E+00
  0.00000000E+00  0.00000000E+00  0.00000000E+00
  0.00000000E+00  0.00000000E+00  0.00000000E+00
  0.00000000E+00  0.00000000E+00  0.00000000E+00
  0.00000000E+00  0.00000000E+00  0.00000000E+00
  0.00000000E+00  0.00000000E+00  0.00000000E+00
  0.00000000E+00  0.00000000E+00  0.00000000E+00
  0.00000000E+00  0.00000000E+00  0.00000000E+00
  0.00000000E+00  0.00000000E+00  0.00000000E+00
  0.00000000E+00  0.00000000E+00  0.00000000E+00
  0.00000000E+00  0.00000000E+00  0.00000000E+00
  0.00000000E+00  0.00000000E+00  0.00000000E+00
  0.00000000E+00  0.00000000E+00  0.00000000E+00
  0.00000000E+00  0.00000000E+00  0.00000000E+00
  0.00000000E+00  0.00000000E+00  0.00000000E+00
