La Co Ni Sn Bi H                        
   1.00000000000000     
    29.1044006348000011    0.0000000000000000    0.0000000000000000
     0.4451680315000000   28.3694074727000007    0.0000000000000000
     0.0682082826000000    0.3036559964000000   28.5240018092999996
   La   Co   Ni   Sn   Bi   H 
    14    13    13    14    14     1
Selective dynamics
Direct
  0.5925029657350668  0.4201439197408958  0.4077146918404651   T   T   T
  0.6845431167807623  0.5718740482355903  0.3798697100694512   T   T   T
  0.4950596972469311  0.5274569801833643  0.2823074334533459   T   T   T
  0.5613417168428805  0.5226747148605073  0.6017743107072495   T   T   T
  0.5083595375810659  0.3869080213537326  0.3054442615409124   T   T   T
  0.5741547089424174  0.6558780882569477  0.4834971116639127   T   T   T
  0.5088433138434023  0.3380047164381553  0.4997103901332946   T   T   T
  0.5355940152343089  0.6374909864774896  0.3748350550708275   T   T   T
  0.4357465410444564  0.6434883885209339  0.5351963468071370   T   T   T
  0.4373551010143757  0.5015757590148624  0.3842817269995109   F   F   F
  0.4437846394494898  0.4460183835780285  0.5005161578087822   F   F   F
  0.3872711673175901  0.4673751752081151  0.6095396887030746   T   T   T
  0.3445587686713241  0.4440962801442598  0.3469006598632646   T   T   T
  0.3617320197797684  0.5847807555240654  0.3936149177857871   T   T   T
  0.4217425606853311  0.4061295180575186  0.3699802678458894   F   F   F
  0.5011311695957161  0.4887203336762909  0.4395023580252015   F   F   F
  0.4044148221271726  0.6101724300038001  0.4624736492929173   F   F   F
  0.4722931245665194  0.5596737886932672  0.5729988711091565   F   F   F
  0.6552684236953183  0.5165424048424470  0.4543399438695133   F   F   F
  0.5967309916701211  0.5535378348504167  0.5056109707055541   F   F   F
  0.5314074673932367  0.5941153005651714  0.5336729985293047   F   F   F
  0.5796732686089143  0.4997731718447866  0.4507473928409595   F   F   F
  0.4609572246233231  0.3309891860388102  0.3448853489096307   T   T   T
  0.3905180950192175  0.5252419063175111  0.4552418453041511   F   F   F
  0.4547394504028787  0.3246862421660121  0.4247249459092225   T   T   T
  0.5074804872141527  0.4592780196109629  0.3501259710292359   F   F   F
  0.6012877811302459  0.4669891268301640  0.5212355700313438   F   F   F
  0.5384608035519776  0.4312182275275163  0.4821288228790692   F   F   F
  0.4713083414346286  0.4805797151798927  0.5807598339419258   F   F   F
  0.3771163837573610  0.4514853175274567  0.4282230665427278   F   F   F
  0.4059018739390154  0.3822235888080883  0.4561785915149272   F   F   F
  0.5357818896390683  0.5680835373033233  0.4543473312664048   F   F   F
  0.4924712632432886  0.6367287407321953  0.4646113344718685   F   F   F
  0.4677327221812249  0.5829886973614862  0.4038343643763724   F   F   F
  0.5280944416629296  0.5063826634733033  0.5194466411805863   F   F   F
  0.6212454441397384  0.5105019604624417  0.3755946010283822   F   F   F
  0.6054499763524817  0.5821019035045651  0.4188664505762958   F   F   F
  0.4050790883739026  0.5245211222763402  0.5434909784116542   F   F   F
  0.3507477951166022  0.4703730232040936  0.5087685749819743   T   T   T
  0.4337608449778379  0.4571002242939411  0.3020303436542640   T   T   T
  0.5380515144046641  0.4222158801207896  0.5690195043905868   T   T   T
  0.3576281054516668  0.3872953801539504  0.5396798821117895   T   T   T
  0.4625951421883201  0.5516617238622956  0.4875128022361963   F   F   F
  0.6063208758556288  0.3752527031876364  0.5102984190239969   T   T   T
  0.4919406359769250  0.4391427691232966  0.6581830258379765   T   T   T
  0.5870974444638853  0.4673294700824803  0.3063271478034605   T   T   T
  0.4900497958562298  0.4037080615820798  0.4151644571778519   F   F   F
  0.4355365001888651  0.6743101873707740  0.4124366867709619   T   T   T
  0.4682291270037381  0.5373998612822481  0.6600577844119927   T   T   T
  0.5397532608265934  0.5319899791087650  0.3771480104995177   F   F   F
  0.6676652866870639  0.6016834494700978  0.4817796990822651   T   T   T
  0.6633220880536577  0.5173190995161943  0.5475155962098398   T   T   T
  0.3753167559002116  0.3343426481784543  0.3850507291959221   T   T   T
  0.6789093839535641  0.4353207353093257  0.4857564876232915   T   T   T
  0.5397818025438319  0.3185574758591914  0.3918105698609408   T   T   T
  0.3021096827651780  0.5023695405999351  0.4368908273240946   T   T   T
  0.3136521592499780  0.3950758909566702  0.4492612463739169   T   T   T
  0.5117734563257229  0.6262239751744255  0.6162509293481298   T   T   T
  0.4489221186615697  0.3748839526376386  0.5856345084632837   T   T   T
  0.3907654339056972  0.5808542057843946  0.6129810518052807   T   T   T
  0.4051318527486165  0.3057489700459224  0.5015627991967198   T   T   T
  0.4021863982850823  0.3715408843545245  0.2870508587138785   T   T   T
  0.3836927068520877  0.5333650221261317  0.2918625615112180   T   T   T
  0.6928271586575749  0.4610431129873211  0.3871047833732061   T   T   T
  0.3374933878970228  0.5718599386881558  0.5126249100909800   T   T   T
  0.5987961449282814  0.5719157687949430  0.3069560619553890   T   T   T
  0.6128480858753985  0.6147247617520875  0.5750219681027471   T   T   T
  0.4399225786669148  0.6149816806376102  0.3238044640695710   T   T   T
  0.7139321970229408  0.5270734722332654  0.5772211643762486   T   T   T
 
  0.00000000E+00  0.00000000E+00  0.00000000E+00
  0.00000000E+00  0.00000000E+00  0.00000000E+00
  0.00000000E+00  0.00000000E+00  0.00000000E+00
  0.00000000E+00  0.00000000E+00  0.00000000E+00
  0.00000000E+00  0.00000000E+00  0.00000000E+00
  0.00000000E+00  0.00000000E+00  0.00000000E+00
  0.00000000E+00  0.00000000E+00  0.00000000E+00
  0.00000000E+00  0.00000000E+00  0.00000000E+00
  0.00000000E+00  0.00000000E+00  0.00000000E+00
  0.00000000E+00  0.00000000E+00  0.00000000E+00
  0.00000000E+00  0.00000000E+00  0.00000000E+00
  0.00000000E+00  0.00000000E+00  0.00000000E+00
  0.00000000E+00  0.00000000E+00  0.00000000E+00
  0.00000000E+00  0.00000000E+00  0.00000000E+00
  0.00000000E+00  0.00000000E+00  0.00000000E+00
  0.00000000E+00  0.00000000E+00  0.00000000E+00
  0.00000000E+00  0.00000000E+00  0.00000000E+00
  0.00000000E+00  0.00000000E+00  0.00000000E+00
  0.00000000E+00  0.00000000E+00  0.00000000E+00
  0.00000000E+00  0.00000000E+00  0.00000000E+00
  0.00000000E+00  0.00000000E+00  0.00000000E+00
  0.00000000E+00  0.00000000E+00  0.00000000E+00
  0.00000000E+00  0.00000000E+00  0.00000000E+00
  0.00000000E+00  0.00000000E+00  0.00000000E+00
  0.00000000E+00  0.00000000E+00  0.00000000E+00
  0.00000000E+00  0.00000000E+00  0.00000000E+00
  0.00000000E+00  0.00000000E+00  0.00000000E+00
  0.00000000E+00  0.00000000E+00  0.00000000E+00
  0.00000000E+00  0.00000000E+00  0.00000000E+00
  0.00000000E+00  0.00000000E+00  0.00000000E+00
  0.00000000E+00  0.00000000E+00  0.00000000E+00
  0.00000000E+00  0.00000000E+00  0.00000000E+00
  0.00000000E+00  0.00000000E+00  0.00000000E+00
  0.00000000E+00  0.00000000E+00  0.00000000E+00
  0.00000000E+00  0.00000000E+00  0.00000000E+00
  0.00000000E+00  0.00000000E+00  0.00000000E+00
  0.00000000E+00  0.00000000E+00  0.00000000E+00
  0.00000000E+00  0.00000000E+00  0.00000000E+00
  0.00000000E+00  0.00000000E+00  0.00000000E+00
  0.00000000E+00  0.00000000E+00  0.00000000E+00
  0.00000000E+00  0.00000000E+00  0.00000000E+00
  0.00000000E+00  0.00000000E+00  0.00000000E+00
  0.00000000E+00  0.00000000E+00  0.00000000E+00
  0.00000000E+00  0.00000000E+00  0.00000000E+00
  0.00000000E+00  0.00000000E+00  0.00000000E+00
  0.00000000E+00  0.00000000E+00  0.00000000E+00
  0.00000000E+00  0.00000000E+00  0.00000000E+00
  0.00000000E+00  0.00000000E+00  0.00000000E+00
  0.00000000E+00  0.00000000E+00  0.00000000E+00
  0.00000000E+00  0.00000000E+00  0.00000000E+00
  0.00000000E+00  0.00000000E+00  0.00000000E+00
  0.00000000E+00  0.00000000E+00  0.00000000E+00
  0.00000000E+00  0.00000000E+00  0.00000000E+00
  0.00000000E+00  0.00000000E+00  0.00000000E+00
  0.00000000E+00  0.00000000E+00  0.00000000E+00
  0.00000000E+00  0.00000000E+00  0.00000000E+00
  0.00000000E+00  0.00000000E+00  0.00000000E+00
  0.00000000E+00  0.00000000E+00  0.00000000E+00
  0.00000000E+00  0.00000000E+00  0.00000000E+00
  0.00000000E+00  0.00000000E+00  0.00000000E+00
  0.00000000E+00  0.00000000E+00  0.00000000E+00
  0.00000000E+00  0.00000000E+00  0.00000000E+00
  0.00000000E+00  0.00000000E+00  0.00000000E+00
  0.00000000E+00  0.00000000E+00  0.00000000E+00
  0.00000000E+00  0.00000000E+00  0.00000000E+00
  0.00000000E+00  0.00000000E+00  0.00000000E+00
  0.00000000E+00  0.00000000E+00  0.00000000E+00
  0.00000000E+00  0.00000000E+00  0.00000000E+00
  0.00000000E+00  0.00000000E+00  0.00000000E+00
