La Co Ni Sn Bi H                        
   1.00000000000000     
    29.1044006348000011    0.0000000000000000    0.0000000000000000
     0.4451680315000000   28.3694074727000007    0.0000000000000000
     0.0682082826000000    0.3036559964000000   28.5240018092999996
   La   Co   Ni   Sn   Bi   H 
    14    13    13    14    14     1
Selective dynamics
Direct
  0.5922241706005428  0.4209304668536178  0.4072237211596864   T   T   T
  0.6848259909888724  0.5714227689946845  0.3806920501592920   T   T   T
  0.4951770250952488  0.5266912832735139  0.2821728744200485   T   T   T
  0.5625873367036861  0.5219535133375083  0.6019660514952406   T   T   T
  0.5109561968208125  0.3860604586301958  0.3049915781423754   T   T   T
  0.5752186132590366  0.6555853448224279  0.4835130166492397   T   T   T
  0.5083307136668133  0.3382123239442120  0.4999023487101615   T   T   T
  0.5349244553862122  0.6376287789673393  0.3752308937427881   T   T   T
  0.4360125550135699  0.6434460896682886  0.5355192821069599   T   T   T
  0.4373551010143757  0.5015757590148624  0.3842817269995109   F   F   F
  0.4437846394494898  0.4460183835780285  0.5005161578087822   F   F   F
  0.3876252536961533  0.4673910817776068  0.6101440375079554   T   T   T
  0.3452056290253099  0.4430404925011295  0.3469874896328102   T   T   T
  0.3616939202016560  0.5848949933410513  0.3937967800380174   T   T   T
  0.4217425606853311  0.4061295180575186  0.3699802678458894   F   F   F
  0.5011311695957161  0.4887203336762909  0.4395023580252015   F   F   F
  0.4044148221271726  0.6101724300038001  0.4624736492929173   F   F   F
  0.4722931245665194  0.5596737886932672  0.5729988711091565   F   F   F
  0.6552684236953183  0.5165424048424470  0.4543399438695133   F   F   F
  0.5967309916701211  0.5535378348504167  0.5056109707055541   F   F   F
  0.5314074673932367  0.5941153005651714  0.5336729985293047   F   F   F
  0.5796732686089143  0.4997731718447866  0.4507473928409595   F   F   F
  0.4612063017743738  0.3307495797636624  0.3453504925646439   T   T   T
  0.3905180950192175  0.5252419063175111  0.4552418453041511   F   F   F
  0.4548631811263747  0.3247441819268396  0.4248745269789151   T   T   T
  0.5074804872141527  0.4592780196109629  0.3501259710292359   F   F   F
  0.6012877811302459  0.4669891268301640  0.5212355700313438   F   F   F
  0.5384608035519776  0.4312182275275163  0.4821288228790692   F   F   F
  0.4713083414346286  0.4805797151798927  0.5807598339419258   F   F   F
  0.3771163837573610  0.4514853175274567  0.4282230665427278   F   F   F
  0.4059018739390154  0.3822235888080883  0.4561785915149272   F   F   F
  0.5357818896390683  0.5680835373033233  0.4543473312664048   F   F   F
  0.4924712632432886  0.6367287407321953  0.4646113344718685   F   F   F
  0.4677327221812249  0.5829886973614862  0.4038343643763724   F   F   F
  0.5280944416629296  0.5063826634733033  0.5194466411805863   F   F   F
  0.6212454441397384  0.5105019604624417  0.3755946010283822   F   F   F
  0.6054499763524817  0.5821019035045651  0.4188664505762958   F   F   F
  0.4050790883739026  0.5245211222763402  0.5434909784116542   F   F   F
  0.3510645855241023  0.4704968425941157  0.5089287879847133   T   T   T
  0.4345523888748554  0.4571337716086535  0.3018976048244066   T   T   T
  0.5384453154563599  0.4219686920212830  0.5689605484297495   T   T   T
  0.3576133899421195  0.3876340573166245  0.5403721799638415   T   T   T
  0.4625951421883201  0.5516617238622956  0.4875128022361963   F   F   F
  0.6062081383299662  0.3747475719374513  0.5095068079581769   T   T   T
  0.4921872282557495  0.4393208642491127  0.6581688060831168   T   T   T
  0.5875943255064268  0.4679170666653222  0.3061390547746925   T   T   T
  0.4900497958562298  0.4037080615820798  0.4151644571778519   F   F   F
  0.4352794834614269  0.6745201396619566  0.4126657016543443   T   T   T
  0.4685836463466094  0.5374562016697660  0.6601146053561726   T   T   T
  0.5397532608265934  0.5319899791087650  0.3771480104995177   F   F   F
  0.6685993180926606  0.6003672898127286  0.4835765072433981   T   T   T
  0.6658723857092944  0.5189052064396925  0.5501957876440370   T   T   T
  0.3754670139887075  0.3342358754505878  0.3851086158748611   T   T   T
  0.6783614653255714  0.4361951918238451  0.4864716729685574   T   T   T
  0.5402868369307657  0.3187876844001464  0.3929092966956363   T   T   T
  0.3023825188530710  0.5020441534962454  0.4366508192626553   T   T   T
  0.3138197866714872  0.3946540226309522  0.4494049037844376   T   T   T
  0.5124078501886264  0.6255151585411706  0.6166700386085745   T   T   T
  0.4490045686445024  0.3749780961870484  0.5858756562505814   T   T   T
  0.3904772853690589  0.5806257064964980  0.6129852438935507   T   T   T
  0.4042028212658524  0.3061136853090867  0.5017670255237074   T   T   T
  0.4046104980809594  0.3714038076463242  0.2870724283305471   T   T   T
  0.3834570468292356  0.5328789759956191  0.2923125297461313   T   T   T
  0.6928956175683294  0.4606716212345666  0.3873821141248229   T   T   T
  0.3376433058873748  0.5722494349663030  0.5125869319526818   T   T   T
  0.5988633712503307  0.5725247725974296  0.3074384387979296   T   T   T
  0.6128787784062364  0.6144284603251290  0.5753284604739963   T   T   T
  0.4399362528370022  0.6142854712863992  0.3237132285116368   T   T   T
  0.4786812673240466  0.3027201173034850  0.3034791988740844   T   T   T
 
  0.00000000E+00  0.00000000E+00  0.00000000E+00
  0.00000000E+00  0.00000000E+00  0.00000000E+00
  0.00000000E+00  0.00000000E+00  0.00000000E+00
  0.00000000E+00  0.00000000E+00  0.00000000E+00
  0.00000000E+00  0.00000000E+00  0.00000000E+00
  0.00000000E+00  0.00000000E+00  0.00000000E+00
  0.00000000E+00  0.00000000E+00  0.00000000E+00
  0.00000000E+00  0.00000000E+00  0.00000000E+00
  0.00000000E+00  0.00000000E+00  0.00000000E+00
  0.00000000E+00  0.00000000E+00  0.00000000E+00
  0.00000000E+00  0.00000000E+00  0.00000000E+00
  0.00000000E+00  0.00000000E+00  0.00000000E+00
  0.00000000E+00  0.00000000E+00  0.00000000E+00
  0.00000000E+00  0.00000000E+00  0.00000000E+00
  0.00000000E+00  0.00000000E+00  0.00000000E+00
  0.00000000E+00  0.00000000E+00  0.00000000E+00
  0.00000000E+00  0.00000000E+00  0.00000000E+00
  0.00000000E+00  0.00000000E+00  0.00000000E+00
  0.00000000E+00  0.00000000E+00  0.00000000E+00
  0.00000000E+00  0.00000000E+00  0.00000000E+00
  0.00000000E+00  0.00000000E+00  0.00000000E+00
  0.00000000E+00  0.00000000E+00  0.00000000E+00
  0.00000000E+00  0.00000000E+00  0.00000000E+00
  0.00000000E+00  0.00000000E+00  0.00000000E+00
  0.00000000E+00  0.00000000E+00  0.00000000E+00
  0.00000000E+00  0.00000000E+00  0.00000000E+00
  0.00000000E+00  0.00000000E+00  0.00000000E+00
  0.00000000E+00  0.00000000E+00  0.00000000E+00
  0.00000000E+00  0.00000000E+00  0.00000000E+00
  0.00000000E+00  0.00000000E+00  0.00000000E+00
  0.00000000E+00  0.00000000E+00  0.00000000E+00
  0.00000000E+00  0.00000000E+00  0.00000000E+00
  0.00000000E+00  0.00000000E+00  0.00000000E+00
  0.00000000E+00  0.00000000E+00  0.00000000E+00
  0.00000000E+00  0.00000000E+00  0.00000000E+00
  0.00000000E+00  0.00000000E+00  0.00000000E+00
  0.00000000E+00  0.00000000E+00  0.00000000E+00
  0.00000000E+00  0.00000000E+00  0.00000000E+00
  0.00000000E+00  0.00000000E+00  0.00000000E+00
  0.00000000E+00  0.00000000E+00  0.00000000E+00
  0.00000000E+00  0.00000000E+00  0.00000000E+00
  0.00000000E+00  0.00000000E+00  0.00000000E+00
  0.00000000E+00  0.00000000E+00  0.00000000E+00
  0.00000000E+00  0.00000000E+00  0.00000000E+00
  0.00000000E+00  0.00000000E+00  0.00000000E+00
  0.00000000E+00  0.00000000E+00  0.00000000E+00
  0.00000000E+00  0.00000000E+00  0.00000000E+00
  0.00000000E+00  0.00000000E+00  0.00000000E+00
  0.00000000E+00  0.00000000E+00  0.00000000E+00
  0.00000000E+00  0.00000000E+00  0.00000000E+00
  0.00000000E+00  0.00000000E+00  0.00000000E+00
  0.00000000E+00  0.00000000E+00  0.00000000E+00
  0.00000000E+00  0.00000000E+00  0.00000000E+00
  0.00000000E+00  0.00000000E+00  0.00000000E+00
  0.00000000E+00  0.00000000E+00  0.00000000E+00
  0.00000000E+00  0.00000000E+00  0.00000000E+00
  0.00000000E+00  0.00000000E+00  0.00000000E+00
  0.00000000E+00  0.00000000E+00  0.00000000E+00
  0.00000000E+00  0.00000000E+00  0.00000000E+00
  0.00000000E+00  0.00000000E+00  0.00000000E+00
  0.00000000E+00  0.00000000E+00  0.00000000E+00
  0.00000000E+00  0.00000000E+00  0.00000000E+00
  0.00000000E+00  0.00000000E+00  0.00000000E+00
  0.00000000E+00  0.00000000E+00  0.00000000E+00
  0.00000000E+00  0.00000000E+00  0.00000000E+00
  0.00000000E+00  0.00000000E+00  0.00000000E+00
  0.00000000E+00  0.00000000E+00  0.00000000E+00
  0.00000000E+00  0.00000000E+00  0.00000000E+00
  0.00000000E+00  0.00000000E+00  0.00000000E+00
