La Co Ni Sn Bi H                        
   1.00000000000000     
    29.1044006348000011    0.0000000000000000    0.0000000000000000
     0.4451680315000000   28.3694074727000007    0.0000000000000000
     0.0682082826000000    0.3036559964000000   28.5240018092999996
   La   Co   Ni   Sn   Bi   H 
    14    13    13    14    14     1
Selective dynamics
Direct
  0.5924216834380611  0.4206410642167941  0.4073477719730331   T   T   T
  0.6846447714863277  0.5716784248412593  0.3805214906945476   T   T   T
  0.4951658772404356  0.5266331139980910  0.2821015759035047   T   T   T
  0.5627714986918082  0.5215836444396927  0.6018083692464823   T   T   T
  0.5088375367448332  0.3869299838500658  0.3051719362198618   T   T   T
  0.5752662954194323  0.6553217977011316  0.4834252377960659   T   T   T
  0.5079365768796182  0.3377321303852098  0.4993261957035651   T   T   T
  0.5354344343020302  0.6375914851835351  0.3748687537938634   T   T   T
  0.4374638498755643  0.6431820293319440  0.5368437907074916   T   T   T
  0.4373551010143757  0.5015757590148624  0.3842817269995109   F   F   F
  0.4437846394494898  0.4460183835780285  0.5005161578087822   F   F   F
  0.3875128496416144  0.4664440202383177  0.6095395589694124   T   T   T
  0.3442278822603714  0.4436292476670294  0.3472069289376329   T   T   T
  0.3614453564437668  0.5834626293714761  0.3945933633087790   T   T   T
  0.4217425606853311  0.4061295180575186  0.3699802678458894   F   F   F
  0.5011311695957161  0.4887203336762909  0.4395023580252015   F   F   F
  0.4044148221271726  0.6101724300038001  0.4624736492929173   F   F   F
  0.4722931245665194  0.5596737886932672  0.5729988711091565   F   F   F
  0.6552684236953183  0.5165424048424470  0.4543399438695133   F   F   F
  0.5967309916701211  0.5535378348504167  0.5056109707055541   F   F   F
  0.5314074673932367  0.5941153005651714  0.5336729985293047   F   F   F
  0.5796732686089143  0.4997731718447866  0.4507473928409595   F   F   F
  0.4616593340096132  0.3314630838508415  0.3435635758822428   T   T   T
  0.3905180950192175  0.5252419063175111  0.4552418453041511   F   F   F
  0.4539651018369714  0.3249684474204407  0.4225734197633543   T   T   T
  0.5074804872141527  0.4592780196109629  0.3501259710292359   F   F   F
  0.6012877811302459  0.4669891268301640  0.5212355700313438   F   F   F
  0.5384608035519776  0.4312182275275163  0.4821288228790692   F   F   F
  0.4713083414346286  0.4805797151798927  0.5807598339419258   F   F   F
  0.3771163837573610  0.4514853175274567  0.4282230665427278   F   F   F
  0.4059018739390154  0.3822235888080883  0.4561785915149272   F   F   F
  0.5357818896390683  0.5680835373033233  0.4543473312664048   F   F   F
  0.4924712632432886  0.6367287407321953  0.4646113344718685   F   F   F
  0.4677327221812249  0.5829886973614862  0.4038343643763724   F   F   F
  0.5280944416629296  0.5063826634733033  0.5194466411805863   F   F   F
  0.6212454441397384  0.5105019604624417  0.3755946010283822   F   F   F
  0.6054499763524817  0.5821019035045651  0.4188664505762958   F   F   F
  0.4050790883739026  0.5245211222763402  0.5434909784116542   F   F   F
  0.3512515189829148  0.4703954132787457  0.5089286135938950   T   T   T
  0.4337204401838696  0.4565512630520754  0.3020764344841971   T   T   T
  0.5380466360795322  0.4215478692392607  0.5686737037918016   T   T   T
  0.3574947188602258  0.3870654383575962  0.5395189745118294   T   T   T
  0.4625951421883201  0.5516617238622956  0.4875128022361963   F   F   F
  0.6057383872045078  0.3745170762201502  0.5095264809128346   T   T   T
  0.4917814184567751  0.4377531592897758  0.6576389826515808   T   T   T
  0.5873284155532765  0.4673815788902916  0.3061075135712018   T   T   T
  0.4900497958562298  0.4037080615820798  0.4151644571778519   F   F   F
  0.4353825012931003  0.6738037327981591  0.4124150310843911   T   T   T
  0.4686418947543513  0.5362230759333797  0.6597547314422861   T   T   T
  0.5397532608265934  0.5319899791087650  0.3771480104995177   F   F   F
  0.6687374517754955  0.6003719526303839  0.4834903115643230   T   T   T
  0.6660048091941361  0.5190043829148793  0.5502261798796243   T   T   T
  0.3744520334207261  0.3347410855775807  0.3848976577824672   T   T   T
  0.6781788203487594  0.4360640812465984  0.4865553669522891   T   T   T
  0.5399551241973983  0.3189853509091047  0.3918133684995409   T   T   T
  0.3012598130652539  0.5010672546591241  0.4375339105458057   T   T   T
  0.3134882984346277  0.3943164147245403  0.4492389350136419   T   T   T
  0.5131939328192725  0.6246012235079174  0.6174273646810430   T   T   T
  0.4486280989844505  0.3739337247356361  0.5851972526724223   T   T   T
  0.3909287748998233  0.5802937775689968  0.6134198584137537   T   T   T
  0.4041972904085746  0.3054402698419910  0.5002463433738378   T   T   T
  0.4019868231200482  0.3710919770208837  0.2872014933958511   T   T   T
  0.3836219418955198  0.5326851364297799  0.2921843101911692   T   T   T
  0.6930889071714913  0.4609068312157651  0.3878248541014104   T   T   T
  0.3389013282866681  0.5718419258386156  0.5121015730480074   T   T   T
  0.5987216945323146  0.5720297960413808  0.3071743341984860   T   T   T
  0.6130046939890788  0.6144038059730778  0.5753455148489811   T   T   T
  0.4396896435157519  0.6142333963439366  0.3238566414115283   T   T   T
  0.2885433944743815  0.5739105945326703  0.5517209790100966   T   T   T
 
  0.00000000E+00  0.00000000E+00  0.00000000E+00
  0.00000000E+00  0.00000000E+00  0.00000000E+00
  0.00000000E+00  0.00000000E+00  0.00000000E+00
  0.00000000E+00  0.00000000E+00  0.00000000E+00
  0.00000000E+00  0.00000000E+00  0.00000000E+00
  0.00000000E+00  0.00000000E+00  0.00000000E+00
  0.00000000E+00  0.00000000E+00  0.00000000E+00
  0.00000000E+00  0.00000000E+00  0.00000000E+00
  0.00000000E+00  0.00000000E+00  0.00000000E+00
  0.00000000E+00  0.00000000E+00  0.00000000E+00
  0.00000000E+00  0.00000000E+00  0.00000000E+00
  0.00000000E+00  0.00000000E+00  0.00000000E+00
  0.00000000E+00  0.00000000E+00  0.00000000E+00
  0.00000000E+00  0.00000000E+00  0.00000000E+00
  0.00000000E+00  0.00000000E+00  0.00000000E+00
  0.00000000E+00  0.00000000E+00  0.00000000E+00
  0.00000000E+00  0.00000000E+00  0.00000000E+00
  0.00000000E+00  0.00000000E+00  0.00000000E+00
  0.00000000E+00  0.00000000E+00  0.00000000E+00
  0.00000000E+00  0.00000000E+00  0.00000000E+00
  0.00000000E+00  0.00000000E+00  0.00000000E+00
  0.00000000E+00  0.00000000E+00  0.00000000E+00
  0.00000000E+00  0.00000000E+00  0.00000000E+00
  0.00000000E+00  0.00000000E+00  0.00000000E+00
  0.00000000E+00  0.00000000E+00  0.00000000E+00
  0.00000000E+00  0.00000000E+00  0.00000000E+00
  0.00000000E+00  0.00000000E+00  0.00000000E+00
  0.00000000E+00  0.00000000E+00  0.00000000E+00
  0.00000000E+00  0.00000000E+00  0.00000000E+00
  0.00000000E+00  0.00000000E+00  0.00000000E+00
  0.00000000E+00  0.00000000E+00  0.00000000E+00
  0.00000000E+00  0.00000000E+00  0.00000000E+00
  0.00000000E+00  0.00000000E+00  0.00000000E+00
  0.00000000E+00  0.00000000E+00  0.00000000E+00
  0.00000000E+00  0.00000000E+00  0.00000000E+00
  0.00000000E+00  0.00000000E+00  0.00000000E+00
  0.00000000E+00  0.00000000E+00  0.00000000E+00
  0.00000000E+00  0.00000000E+00  0.00000000E+00
  0.00000000E+00  0.00000000E+00  0.00000000E+00
  0.00000000E+00  0.00000000E+00  0.00000000E+00
  0.00000000E+00  0.00000000E+00  0.00000000E+00
  0.00000000E+00  0.00000000E+00  0.00000000E+00
  0.00000000E+00  0.00000000E+00  0.00000000E+00
  0.00000000E+00  0.00000000E+00  0.00000000E+00
  0.00000000E+00  0.00000000E+00  0.00000000E+00
  0.00000000E+00  0.00000000E+00  0.00000000E+00
  0.00000000E+00  0.00000000E+00  0.00000000E+00
  0.00000000E+00  0.00000000E+00  0.00000000E+00
  0.00000000E+00  0.00000000E+00  0.00000000E+00
  0.00000000E+00  0.00000000E+00  0.00000000E+00
  0.00000000E+00  0.00000000E+00  0.00000000E+00
  0.00000000E+00  0.00000000E+00  0.00000000E+00
  0.00000000E+00  0.00000000E+00  0.00000000E+00
  0.00000000E+00  0.00000000E+00  0.00000000E+00
  0.00000000E+00  0.00000000E+00  0.00000000E+00
  0.00000000E+00  0.00000000E+00  0.00000000E+00
  0.00000000E+00  0.00000000E+00  0.00000000E+00
  0.00000000E+00  0.00000000E+00  0.00000000E+00
  0.00000000E+00  0.00000000E+00  0.00000000E+00
  0.00000000E+00  0.00000000E+00  0.00000000E+00
  0.00000000E+00  0.00000000E+00  0.00000000E+00
  0.00000000E+00  0.00000000E+00  0.00000000E+00
  0.00000000E+00  0.00000000E+00  0.00000000E+00
  0.00000000E+00  0.00000000E+00  0.00000000E+00
  0.00000000E+00  0.00000000E+00  0.00000000E+00
  0.00000000E+00  0.00000000E+00  0.00000000E+00
  0.00000000E+00  0.00000000E+00  0.00000000E+00
  0.00000000E+00  0.00000000E+00  0.00000000E+00
  0.00000000E+00  0.00000000E+00  0.00000000E+00
