La Co Ni Sn Bi H                        
   1.00000000000000     
    29.1044006348000011    0.0000000000000000    0.0000000000000000
     0.4451680315000000   28.3694074727000007    0.0000000000000000
     0.0682082826000000    0.3036559964000000   28.5240018092999996
   La   Co   Ni   Sn   Bi   H 
    14    13    13    14    14     1
Selective dynamics
Direct
  0.5922900807442915  0.4206660608014514  0.4076323730043591   T   T   T
  0.6850095749186004  0.5714831337076249  0.3808950656803958   T   T   T
  0.4951789111011179  0.5275005670126575  0.2824980521014789   T   T   T
  0.5627055631465466  0.5210508763117574  0.6010021868848671   T   T   T
  0.5085292619639284  0.3872738509814079  0.3050817211789975   T   T   T
  0.5743174225440881  0.6554495945909211  0.4830389697372287   T   T   T
  0.5082736641047044  0.3374836936781391  0.4989089864861965   T   T   T
  0.5348862261336458  0.6377207271827824  0.3749665944958794   T   T   T
  0.4330389715369959  0.6432553446390050  0.5344564510849903   T   T   T
  0.4373551010143757  0.5015757590148624  0.3842817269995109   F   F   F
  0.4437846394494898  0.4460183835780285  0.5005161578087822   F   F   F
  0.3867233902057403  0.4659350853267313  0.6090000381028819   T   T   T
  0.3444013264922351  0.4442629640242140  0.3469504067567108   T   T   T
  0.3616638212795944  0.5849591150641398  0.3936990977793345   T   T   T
  0.4217425606853311  0.4061295180575186  0.3699802678458894   F   F   F
  0.5011311695957161  0.4887203336762909  0.4395023580252015   F   F   F
  0.4044148221271726  0.6101724300038001  0.4624736492929173   F   F   F
  0.4722931245665194  0.5596737886932672  0.5729988711091565   F   F   F
  0.6552684236953183  0.5165424048424470  0.4543399438695133   F   F   F
  0.5967309916701211  0.5535378348504167  0.5056109707055541   F   F   F
  0.5314074673932367  0.5941153005651714  0.5336729985293047   F   F   F
  0.5796732686089143  0.4997731718447866  0.4507473928409595   F   F   F
  0.4611168275313675  0.3314354407133366  0.3435657175159855   T   T   T
  0.3905180950192175  0.5252419063175111  0.4552418453041511   F   F   F
  0.4543029521967751  0.3248126093559489  0.4229880935102810   T   T   T
  0.5074804872141527  0.4592780196109629  0.3501259710292359   F   F   F
  0.6012877811302459  0.4669891268301640  0.5212355700313438   F   F   F
  0.5384608035519776  0.4312182275275163  0.4821288228790692   F   F   F
  0.4713083414346286  0.4805797151798927  0.5807598339419258   F   F   F
  0.3771163837573610  0.4514853175274567  0.4282230665427278   F   F   F
  0.4059018739390154  0.3822235888080883  0.4561785915149272   F   F   F
  0.5357818896390683  0.5680835373033233  0.4543473312664048   F   F   F
  0.4924712632432886  0.6367287407321953  0.4646113344718685   F   F   F
  0.4677327221812249  0.5829886973614862  0.4038343643763724   F   F   F
  0.5280944416629296  0.5063826634733033  0.5194466411805863   F   F   F
  0.6212454441397384  0.5105019604624417  0.3755946010283822   F   F   F
  0.6054499763524817  0.5821019035045651  0.4188664505762958   F   F   F
  0.4050790883739026  0.5245211222763402  0.5434909784116542   F   F   F
  0.3509803560022637  0.4700981415872951  0.5088144592120517   T   T   T
  0.4337718101717954  0.4572314393629576  0.3020135424940799   T   T   T
  0.5380851996570742  0.4214031213260406  0.5685716987967857   T   T   T
  0.3575993304947773  0.3864694226937717  0.5387371466530232   T   T   T
  0.4625951421883201  0.5516617238622956  0.4875128022361963   F   F   F
  0.6059212146858401  0.3747271799788837  0.5100035625659811   T   T   T
  0.4919306137733589  0.4368302044491997  0.6575038823573572   T   T   T
  0.5873240776662074  0.4677368001953121  0.3062099600047760   T   T   T
  0.4900497958562298  0.4037080615820798  0.4151644571778519   F   F   F
  0.4352665892097671  0.6744694960721164  0.4125199670007871   T   T   T
  0.4668671797574306  0.5342624524030885  0.6591060850849878   T   T   T
  0.5397532608265934  0.5319899791087650  0.3771480104995177   F   F   F
  0.6686000796084188  0.6005444400330026  0.4834568120125928   T   T   T
  0.6660813942783423  0.5188309399338192  0.5501493392297275   T   T   T
  0.3746475298288169  0.3347997300734006  0.3847081308141026   T   T   T
  0.6782773340112701  0.4362266024100301  0.4864071435256107   T   T   T
  0.5397583661648041  0.3189653650352904  0.3911988570977331   T   T   T
  0.3021593299726193  0.5025315857029489  0.4367924298780715   T   T   T
  0.3131645725559322  0.3953404923604626  0.4486537238669830   T   T   T
  0.5120321255302687  0.6255322728620039  0.6160070336580051   T   T   T
  0.4489937564528302  0.3738390652227881  0.5844588253963047   T   T   T
  0.3896000223193854  0.5796004100559489  0.6129715788895723   T   T   T
  0.4045779515549745  0.3047155123762862  0.4997904908966581   T   T   T
  0.4020114868805745  0.3719816949192991  0.2868059160463449   T   T   T
  0.3837360721045613  0.5334610567016881  0.2921195224197868   T   T   T
  0.6928608104060695  0.4606142304726767  0.3871802830338041   T   T   T
  0.3372361790916412  0.5716498205321034  0.5126247792639107   T   T   T
  0.5991817239862882  0.5726238542040359  0.3077462043709923   T   T   T
  0.6137944178874200  0.6139408984387673  0.5738790647747868   T   T   T
  0.4397810149964734  0.6151752491449476  0.3236931322340760   T   T   T
  0.4681645483909888  0.6766617071595225  0.5993629302647924   T   T   T
 
  0.00000000E+00  0.00000000E+00  0.00000000E+00
  0.00000000E+00  0.00000000E+00  0.00000000E+00
  0.00000000E+00  0.00000000E+00  0.00000000E+00
  0.00000000E+00  0.00000000E+00  0.00000000E+00
  0.00000000E+00  0.00000000E+00  0.00000000E+00
  0.00000000E+00  0.00000000E+00  0.00000000E+00
  0.00000000E+00  0.00000000E+00  0.00000000E+00
  0.00000000E+00  0.00000000E+00  0.00000000E+00
  0.00000000E+00  0.00000000E+00  0.00000000E+00
  0.00000000E+00  0.00000000E+00  0.00000000E+00
  0.00000000E+00  0.00000000E+00  0.00000000E+00
  0.00000000E+00  0.00000000E+00  0.00000000E+00
  0.00000000E+00  0.00000000E+00  0.00000000E+00
  0.00000000E+00  0.00000000E+00  0.00000000E+00
  0.00000000E+00  0.00000000E+00  0.00000000E+00
  0.00000000E+00  0.00000000E+00  0.00000000E+00
  0.00000000E+00  0.00000000E+00  0.00000000E+00
  0.00000000E+00  0.00000000E+00  0.00000000E+00
  0.00000000E+00  0.00000000E+00  0.00000000E+00
  0.00000000E+00  0.00000000E+00  0.00000000E+00
  0.00000000E+00  0.00000000E+00  0.00000000E+00
  0.00000000E+00  0.00000000E+00  0.00000000E+00
  0.00000000E+00  0.00000000E+00  0.00000000E+00
  0.00000000E+00  0.00000000E+00  0.00000000E+00
  0.00000000E+00  0.00000000E+00  0.00000000E+00
  0.00000000E+00  0.00000000E+00  0.00000000E+00
  0.00000000E+00  0.00000000E+00  0.00000000E+00
  0.00000000E+00  0.00000000E+00  0.00000000E+00
  0.00000000E+00  0.00000000E+00  0.00000000E+00
  0.00000000E+00  0.00000000E+00  0.00000000E+00
  0.00000000E+00  0.00000000E+00  0.00000000E+00
  0.00000000E+00  0.00000000E+00  0.00000000E+00
  0.00000000E+00  0.00000000E+00  0.00000000E+00
  0.00000000E+00  0.00000000E+00  0.00000000E+00
  0.00000000E+00  0.00000000E+00  0.00000000E+00
  0.00000000E+00  0.00000000E+00  0.00000000E+00
  0.00000000E+00  0.00000000E+00  0.00000000E+00
  0.00000000E+00  0.00000000E+00  0.00000000E+00
  0.00000000E+00  0.00000000E+00  0.00000000E+00
  0.00000000E+00  0.00000000E+00  0.00000000E+00
  0.00000000E+00  0.00000000E+00  0.00000000E+00
  0.00000000E+00  0.00000000E+00  0.00000000E+00
  0.00000000E+00  0.00000000E+00  0.00000000E+00
  0.00000000E+00  0.00000000E+00  0.00000000E+00
  0.00000000E+00  0.00000000E+00  0.00000000E+00
  0.00000000E+00  0.00000000E+00  0.00000000E+00
  0.00000000E+00  0.00000000E+00  0.00000000E+00
  0.00000000E+00  0.00000000E+00  0.00000000E+00
  0.00000000E+00  0.00000000E+00  0.00000000E+00
  0.00000000E+00  0.00000000E+00  0.00000000E+00
  0.00000000E+00  0.00000000E+00  0.00000000E+00
  0.00000000E+00  0.00000000E+00  0.00000000E+00
  0.00000000E+00  0.00000000E+00  0.00000000E+00
  0.00000000E+00  0.00000000E+00  0.00000000E+00
  0.00000000E+00  0.00000000E+00  0.00000000E+00
  0.00000000E+00  0.00000000E+00  0.00000000E+00
  0.00000000E+00  0.00000000E+00  0.00000000E+00
  0.00000000E+00  0.00000000E+00  0.00000000E+00
  0.00000000E+00  0.00000000E+00  0.00000000E+00
  0.00000000E+00  0.00000000E+00  0.00000000E+00
  0.00000000E+00  0.00000000E+00  0.00000000E+00
  0.00000000E+00  0.00000000E+00  0.00000000E+00
  0.00000000E+00  0.00000000E+00  0.00000000E+00
  0.00000000E+00  0.00000000E+00  0.00000000E+00
  0.00000000E+00  0.00000000E+00  0.00000000E+00
  0.00000000E+00  0.00000000E+00  0.00000000E+00
  0.00000000E+00  0.00000000E+00  0.00000000E+00
  0.00000000E+00  0.00000000E+00  0.00000000E+00
  0.00000000E+00  0.00000000E+00  0.00000000E+00
