La Co Ni Sn Bi H                        
   1.00000000000000     
    29.1044006348000011    0.0000000000000000    0.0000000000000000
     0.4451680315000000   28.3694074727000007    0.0000000000000000
     0.0682082826000000    0.3036559964000000   28.5240018092999996
   La   Co   Ni   Sn   Bi   H 
    14    13    13    14    14     1
Selective dynamics
Direct
  0.5923424627511789  0.4206390926439585  0.4074074902962324   T   T   T
  0.6848534749841311  0.5715452602854821  0.3803859831188301   T   T   T
  0.4954252165305836  0.5275868619867957  0.2821850424107543   T   T   T
  0.5631349360436407  0.5219511388570370  0.6018902053600779   T   T   T
  0.5085373848306998  0.3869655869968993  0.3055328138434183   T   T   T
  0.5750317485335211  0.6558413243976903  0.4840603619125746   T   T   T
  0.5076017970657704  0.3384863739377619  0.4998914100052437   T   T   T
  0.5352474986777085  0.6376318198074292  0.3753493061316945   T   T   T
  0.4362232703752884  0.6440511937070327  0.5347013952631753   T   T   T
  0.4373551010143757  0.5015757590148624  0.3842817269995109   F   F   F
  0.4437846394494898  0.4460183835780285  0.5005161578087822   F   F   F
  0.3856926369897539  0.4673885217534273  0.6089101291936769   T   T   T
  0.3446716491415782  0.4444048082587530  0.3466923286692977   T   T   T
  0.3619363239345616  0.5851041962408803  0.3935285356502466   T   T   T
  0.4217425606853311  0.4061295180575186  0.3699802678458894   F   F   F
  0.5011311695957161  0.4887203336762909  0.4395023580252015   F   F   F
  0.4044148221271726  0.6101724300038001  0.4624736492929173   F   F   F
  0.4722931245665194  0.5596737886932672  0.5729988711091565   F   F   F
  0.6552684236953183  0.5165424048424470  0.4543399438695133   F   F   F
  0.5967309916701211  0.5535378348504167  0.5056109707055541   F   F   F
  0.5314074673932367  0.5941153005651714  0.5336729985293047   F   F   F
  0.5796732686089143  0.4997731718447866  0.4507473928409595   F   F   F
  0.4611613937563738  0.3310433024581879  0.3440268595399057   T   T   T
  0.3905180950192175  0.5252419063175111  0.4552418453041511   F   F   F
  0.4542614438705423  0.3246321820210180  0.4235735234263859   T   T   T
  0.5074804872141527  0.4592780196109629  0.3501259710292359   F   F   F
  0.6012877811302459  0.4669891268301640  0.5212355700313438   F   F   F
  0.5384608035519776  0.4312182275275163  0.4821288228790692   F   F   F
  0.4713083414346286  0.4805797151798927  0.5807598339419258   F   F   F
  0.3771163837573610  0.4514853175274567  0.4282230665427278   F   F   F
  0.4059018739390154  0.3822235888080883  0.4561785915149272   F   F   F
  0.5357818896390683  0.5680835373033233  0.4543473312664048   F   F   F
  0.4924712632432886  0.6367287407321953  0.4646113344718685   F   F   F
  0.4677327221812249  0.5829886973614862  0.4038343643763724   F   F   F
  0.5280944416629296  0.5063826634733033  0.5194466411805863   F   F   F
  0.6212454441397384  0.5105019604624417  0.3755946010283822   F   F   F
  0.6054499763524817  0.5821019035045651  0.4188664505762958   F   F   F
  0.4050790883739026  0.5245211222763402  0.5434909784116542   F   F   F
  0.3506403466041472  0.4702493151860176  0.5086219550835290   T   T   T
  0.4337757016811264  0.4571639367977666  0.3021139041848611   T   T   T
  0.5379397928264498  0.4222297049685044  0.5684590779540486   T   T   T
  0.3572553819564846  0.3869066182367135  0.5391213675719146   T   T   T
  0.4625951421883201  0.5516617238622956  0.4875128022361963   F   F   F
  0.6058597557594476  0.3745921619615837  0.5097193490359474   T   T   T
  0.4932144534505218  0.4366035074461556  0.6585437478694609   T   T   T
  0.5871535613477924  0.4676922542950697  0.3061259285064608   T   T   T
  0.4900497958562298  0.4037080615820798  0.4151644571778519   F   F   F
  0.4353620741346743  0.6744073920572082  0.4124950019529275   T   T   T
  0.4643270851575645  0.5318981136845879  0.6568051781707056   T   T   T
  0.5397532608265934  0.5319899791087650  0.3771480104995177   F   F   F
  0.6682721550203191  0.6008062505345194  0.4830576963419826   T   T   T
  0.6661579852587879  0.5189104242398876  0.5496618958723205   T   T   T
  0.3750258226487849  0.3346090966199501  0.3846440044074040   T   T   T
  0.6780335820255040  0.4359601080057831  0.4864037011467391   T   T   T
  0.5397478311718212  0.3187369777767446  0.3921751778210932   T   T   T
  0.3021816991391116  0.5027155928143112  0.4365196839331040   T   T   T
  0.3134205892496444  0.3951614760497145  0.4484358837401466   T   T   T
  0.5127831387034201  0.6251580242755784  0.6155151699591331   T   T   T
  0.4481125795687813  0.3756582694368613  0.5865662302685548   T   T   T
  0.3894150929491466  0.5813079702866536  0.6121076971398670   T   T   T
  0.4045145736043967  0.3054609694956115  0.5010264568636128   T   T   T
  0.4021857926428550  0.3715471531202079  0.2869408915707209   T   T   T
  0.3839655942388925  0.5335367891044921  0.2918848694769533   T   T   T
  0.6929758975481843  0.4608838158233474  0.3873527048568530   T   T   T
  0.3374313832596390  0.5718747786086024  0.5123966414278924   T   T   T
  0.5989717590036809  0.5724632914982005  0.3074782167011795   T   T   T
  0.6133040818416911  0.6144881875319665  0.5753943667558358   T   T   T
  0.4401699966907595  0.6149180242190170  0.3235631278931218   T   T   T
  0.4829749016007891  0.5566561110560048  0.7091216961024482   T   T   T
 
  0.00000000E+00  0.00000000E+00  0.00000000E+00
  0.00000000E+00  0.00000000E+00  0.00000000E+00
  0.00000000E+00  0.00000000E+00  0.00000000E+00
  0.00000000E+00  0.00000000E+00  0.00000000E+00
  0.00000000E+00  0.00000000E+00  0.00000000E+00
  0.00000000E+00  0.00000000E+00  0.00000000E+00
  0.00000000E+00  0.00000000E+00  0.00000000E+00
  0.00000000E+00  0.00000000E+00  0.00000000E+00
  0.00000000E+00  0.00000000E+00  0.00000000E+00
  0.00000000E+00  0.00000000E+00  0.00000000E+00
  0.00000000E+00  0.00000000E+00  0.00000000E+00
  0.00000000E+00  0.00000000E+00  0.00000000E+00
  0.00000000E+00  0.00000000E+00  0.00000000E+00
  0.00000000E+00  0.00000000E+00  0.00000000E+00
  0.00000000E+00  0.00000000E+00  0.00000000E+00
  0.00000000E+00  0.00000000E+00  0.00000000E+00
  0.00000000E+00  0.00000000E+00  0.00000000E+00
  0.00000000E+00  0.00000000E+00  0.00000000E+00
  0.00000000E+00  0.00000000E+00  0.00000000E+00
  0.00000000E+00  0.00000000E+00  0.00000000E+00
  0.00000000E+00  0.00000000E+00  0.00000000E+00
  0.00000000E+00  0.00000000E+00  0.00000000E+00
  0.00000000E+00  0.00000000E+00  0.00000000E+00
  0.00000000E+00  0.00000000E+00  0.00000000E+00
  0.00000000E+00  0.00000000E+00  0.00000000E+00
  0.00000000E+00  0.00000000E+00  0.00000000E+00
  0.00000000E+00  0.00000000E+00  0.00000000E+00
  0.00000000E+00  0.00000000E+00  0.00000000E+00
  0.00000000E+00  0.00000000E+00  0.00000000E+00
  0.00000000E+00  0.00000000E+00  0.00000000E+00
  0.00000000E+00  0.00000000E+00  0.00000000E+00
  0.00000000E+00  0.00000000E+00  0.00000000E+00
  0.00000000E+00  0.00000000E+00  0.00000000E+00
  0.00000000E+00  0.00000000E+00  0.00000000E+00
  0.00000000E+00  0.00000000E+00  0.00000000E+00
  0.00000000E+00  0.00000000E+00  0.00000000E+00
  0.00000000E+00  0.00000000E+00  0.00000000E+00
  0.00000000E+00  0.00000000E+00  0.00000000E+00
  0.00000000E+00  0.00000000E+00  0.00000000E+00
  0.00000000E+00  0.00000000E+00  0.00000000E+00
  0.00000000E+00  0.00000000E+00  0.00000000E+00
  0.00000000E+00  0.00000000E+00  0.00000000E+00
  0.00000000E+00  0.00000000E+00  0.00000000E+00
  0.00000000E+00  0.00000000E+00  0.00000000E+00
  0.00000000E+00  0.00000000E+00  0.00000000E+00
  0.00000000E+00  0.00000000E+00  0.00000000E+00
  0.00000000E+00  0.00000000E+00  0.00000000E+00
  0.00000000E+00  0.00000000E+00  0.00000000E+00
  0.00000000E+00  0.00000000E+00  0.00000000E+00
  0.00000000E+00  0.00000000E+00  0.00000000E+00
  0.00000000E+00  0.00000000E+00  0.00000000E+00
  0.00000000E+00  0.00000000E+00  0.00000000E+00
  0.00000000E+00  0.00000000E+00  0.00000000E+00
  0.00000000E+00  0.00000000E+00  0.00000000E+00
  0.00000000E+00  0.00000000E+00  0.00000000E+00
  0.00000000E+00  0.00000000E+00  0.00000000E+00
  0.00000000E+00  0.00000000E+00  0.00000000E+00
  0.00000000E+00  0.00000000E+00  0.00000000E+00
  0.00000000E+00  0.00000000E+00  0.00000000E+00
  0.00000000E+00  0.00000000E+00  0.00000000E+00
  0.00000000E+00  0.00000000E+00  0.00000000E+00
  0.00000000E+00  0.00000000E+00  0.00000000E+00
  0.00000000E+00  0.00000000E+00  0.00000000E+00
  0.00000000E+00  0.00000000E+00  0.00000000E+00
  0.00000000E+00  0.00000000E+00  0.00000000E+00
  0.00000000E+00  0.00000000E+00  0.00000000E+00
  0.00000000E+00  0.00000000E+00  0.00000000E+00
  0.00000000E+00  0.00000000E+00  0.00000000E+00
  0.00000000E+00  0.00000000E+00  0.00000000E+00
