La Co Ni Sn Bi H                        
   1.00000000000000     
    29.1044006348000011    0.0000000000000000    0.0000000000000000
     0.4451680315000000   28.3694074727000007    0.0000000000000000
     0.0682082826000000    0.3036559964000000   28.5240018092999996
   La   Co   Ni   Sn   Bi   H 
    14    13    13    14    14     1
Selective dynamics
Direct
  0.5923324410079328  0.4207295334291580  0.4077041784991277   T   T   T
  0.6850725312595549  0.5714813256500894  0.3806470976549494   T   T   T
  0.4954375154504452  0.5274901843752011  0.2821040964784501   T   T   T
  0.5628586492971391  0.5228000383475218  0.6020119942025796   T   T   T
  0.5090093577623999  0.3867061688734465  0.3060204601067344   T   T   T
  0.5753593028068805  0.6556097357218152  0.4828275660629560   T   T   T
  0.5063451535219167  0.3393384050528512  0.5004524340313355   T   T   T
  0.5349957359002941  0.6375720987038705  0.3749717650251534   T   T   T
  0.4361677306098367  0.6439269688323704  0.5349132411894658   T   T   T
  0.4373551010143757  0.5015757590148624  0.3842817269995109   F   F   F
  0.4437846394494898  0.4460183835780285  0.5005161578087822   F   F   F
  0.3861605266831610  0.4686072417010523  0.6097314900621141   T   T   T
  0.3447179337108815  0.4439596580977938  0.3469395282299370   T   T   T
  0.3617933671456385  0.5847400439628635  0.3937344194162732   T   T   T
  0.4217425606853311  0.4061295180575186  0.3699802678458894   F   F   F
  0.5011311695957161  0.4887203336762909  0.4395023580252015   F   F   F
  0.4044148221271726  0.6101724300038001  0.4624736492929173   F   F   F
  0.4722931245665194  0.5596737886932672  0.5729988711091565   F   F   F
  0.6552684236953183  0.5165424048424470  0.4543399438695133   F   F   F
  0.5967309916701211  0.5535378348504167  0.5056109707055541   F   F   F
  0.5314074673932367  0.5941153005651714  0.5336729985293047   F   F   F
  0.5796732686089143  0.4997731718447866  0.4507473928409595   F   F   F
  0.4618296814865230  0.3314520917353348  0.3448440956459818   T   T   T
  0.3905180950192175  0.5252419063175111  0.4552418453041511   F   F   F
  0.4546199051729090  0.3249392020924968  0.4240131328743516   T   T   T
  0.5074804872141527  0.4592780196109629  0.3501259710292359   F   F   F
  0.6012877811302459  0.4669891268301640  0.5212355700313438   F   F   F
  0.5384608035519776  0.4312182275275163  0.4821288228790692   F   F   F
  0.4713083414346286  0.4805797151798927  0.5807598339419258   F   F   F
  0.3771163837573610  0.4514853175274567  0.4282230665427278   F   F   F
  0.4059018739390154  0.3822235888080883  0.4561785915149272   F   F   F
  0.5357818896390683  0.5680835373033233  0.4543473312664048   F   F   F
  0.4924712632432886  0.6367287407321953  0.4646113344718685   F   F   F
  0.4677327221812249  0.5829886973614862  0.4038343643763724   F   F   F
  0.5280944416629296  0.5063826634733033  0.5194466411805863   F   F   F
  0.6212454441397384  0.5105019604624417  0.3755946010283822   F   F   F
  0.6054499763524817  0.5821019035045651  0.4188664505762958   F   F   F
  0.4050790883739026  0.5245211222763402  0.5434909784116542   F   F   F
  0.3509793902787025  0.4701403557041633  0.5091734821239859   T   T   T
  0.4341884864703186  0.4568061870663078  0.3019072476765732   T   T   T
  0.5395750106518984  0.4224988450333994  0.5691717469691382   T   T   T
  0.3579776428968334  0.3870048585635243  0.5402591894053900   T   T   T
  0.4625951421883201  0.5516617238622956  0.4875128022361963   F   F   F
  0.6054980571579589  0.3742385093361801  0.5091805646810327   T   T   T
  0.4938503046662890  0.4400895773909591  0.6588741178844931   T   T   T
  0.5872892851952699  0.4676059457024184  0.3061404330829889   T   T   T
  0.4900497958562298  0.4037080615820798  0.4151644571778519   F   F   F
  0.4352937176908804  0.6742452988133296  0.4124777582348503   T   T   T
  0.4676436848363798  0.5374631579429072  0.6595241795697167   T   T   T
  0.5397532608265934  0.5319899791087650  0.3771480104995177   F   F   F
  0.6687795545157812  0.6003780851150060  0.4834681571960454   T   T   T
  0.6658372880384913  0.5192736413251026  0.5505921469528329   T   T   T
  0.3755522940769969  0.3341581450259533  0.3847387686251619   T   T   T
  0.6782128794856783  0.4359800945993456  0.4871817677320041   T   T   T
  0.5402249281653845  0.3188659601156169  0.3931269622849247   T   T   T
  0.3023360558727411  0.5021830016317200  0.4373480291427407   T   T   T
  0.3139420860724028  0.3945538685538306  0.4495757996533069   T   T   T
  0.5120576143230657  0.6258711054257078  0.6163666904377738   T   T   T
  0.4495831862318061  0.3785547474336963  0.5884558795222191   T   T   T
  0.3902065902000478  0.5816216182191846  0.6122837012014203   T   T   T
  0.4048856803281444  0.3043471114043707  0.5008192822116085   T   T   T
  0.4026543694970076  0.3712229532598362  0.2871124024448448   T   T   T
  0.3840132490377187  0.5330300840232612  0.2919800475321417   T   T   T
  0.6928019512255693  0.4605657364561722  0.3879236408395504   T   T   T
  0.3376493071152032  0.5721388626356343  0.5128239166241835   T   T   T
  0.5991757427343712  0.5724397968340055  0.3077291739876155   T   T   T
  0.6127231151463720  0.6151284180779365  0.5749657667152502   T   T   T
  0.4398359210432348  0.6148566706427525  0.3235940724156257   T   T   T
  0.3521158725849112  0.2823331966898602  0.4756303485083319   T   T   T
 
  0.00000000E+00  0.00000000E+00  0.00000000E+00
  0.00000000E+00  0.00000000E+00  0.00000000E+00
  0.00000000E+00  0.00000000E+00  0.00000000E+00
  0.00000000E+00  0.00000000E+00  0.00000000E+00
  0.00000000E+00  0.00000000E+00  0.00000000E+00
  0.00000000E+00  0.00000000E+00  0.00000000E+00
  0.00000000E+00  0.00000000E+00  0.00000000E+00
  0.00000000E+00  0.00000000E+00  0.00000000E+00
  0.00000000E+00  0.00000000E+00  0.00000000E+00
  0.00000000E+00  0.00000000E+00  0.00000000E+00
  0.00000000E+00  0.00000000E+00  0.00000000E+00
  0.00000000E+00  0.00000000E+00  0.00000000E+00
  0.00000000E+00  0.00000000E+00  0.00000000E+00
  0.00000000E+00  0.00000000E+00  0.00000000E+00
  0.00000000E+00  0.00000000E+00  0.00000000E+00
  0.00000000E+00  0.00000000E+00  0.00000000E+00
  0.00000000E+00  0.00000000E+00  0.00000000E+00
  0.00000000E+00  0.00000000E+00  0.00000000E+00
  0.00000000E+00  0.00000000E+00  0.00000000E+00
  0.00000000E+00  0.00000000E+00  0.00000000E+00
  0.00000000E+00  0.00000000E+00  0.00000000E+00
  0.00000000E+00  0.00000000E+00  0.00000000E+00
  0.00000000E+00  0.00000000E+00  0.00000000E+00
  0.00000000E+00  0.00000000E+00  0.00000000E+00
  0.00000000E+00  0.00000000E+00  0.00000000E+00
  0.00000000E+00  0.00000000E+00  0.00000000E+00
  0.00000000E+00  0.00000000E+00  0.00000000E+00
  0.00000000E+00  0.00000000E+00  0.00000000E+00
  0.00000000E+00  0.00000000E+00  0.00000000E+00
  0.00000000E+00  0.00000000E+00  0.00000000E+00
  0.00000000E+00  0.00000000E+00  0.00000000E+00
  0.00000000E+00  0.00000000E+00  0.00000000E+00
  0.00000000E+00  0.00000000E+00  0.00000000E+00
  0.00000000E+00  0.00000000E+00  0.00000000E+00
  0.00000000E+00  0.00000000E+00  0.00000000E+00
  0.00000000E+00  0.00000000E+00  0.00000000E+00
  0.00000000E+00  0.00000000E+00  0.00000000E+00
  0.00000000E+00  0.00000000E+00  0.00000000E+00
  0.00000000E+00  0.00000000E+00  0.00000000E+00
  0.00000000E+00  0.00000000E+00  0.00000000E+00
  0.00000000E+00  0.00000000E+00  0.00000000E+00
  0.00000000E+00  0.00000000E+00  0.00000000E+00
  0.00000000E+00  0.00000000E+00  0.00000000E+00
  0.00000000E+00  0.00000000E+00  0.00000000E+00
  0.00000000E+00  0.00000000E+00  0.00000000E+00
  0.00000000E+00  0.00000000E+00  0.00000000E+00
  0.00000000E+00  0.00000000E+00  0.00000000E+00
  0.00000000E+00  0.00000000E+00  0.00000000E+00
  0.00000000E+00  0.00000000E+00  0.00000000E+00
  0.00000000E+00  0.00000000E+00  0.00000000E+00
  0.00000000E+00  0.00000000E+00  0.00000000E+00
  0.00000000E+00  0.00000000E+00  0.00000000E+00
  0.00000000E+00  0.00000000E+00  0.00000000E+00
  0.00000000E+00  0.00000000E+00  0.00000000E+00
  0.00000000E+00  0.00000000E+00  0.00000000E+00
  0.00000000E+00  0.00000000E+00  0.00000000E+00
  0.00000000E+00  0.00000000E+00  0.00000000E+00
  0.00000000E+00  0.00000000E+00  0.00000000E+00
  0.00000000E+00  0.00000000E+00  0.00000000E+00
  0.00000000E+00  0.00000000E+00  0.00000000E+00
  0.00000000E+00  0.00000000E+00  0.00000000E+00
  0.00000000E+00  0.00000000E+00  0.00000000E+00
  0.00000000E+00  0.00000000E+00  0.00000000E+00
  0.00000000E+00  0.00000000E+00  0.00000000E+00
  0.00000000E+00  0.00000000E+00  0.00000000E+00
  0.00000000E+00  0.00000000E+00  0.00000000E+00
  0.00000000E+00  0.00000000E+00  0.00000000E+00
  0.00000000E+00  0.00000000E+00  0.00000000E+00
  0.00000000E+00  0.00000000E+00  0.00000000E+00
