La Co Ni Sn Bi H                        
   1.00000000000000     
    29.1044006348000011    0.0000000000000000    0.0000000000000000
     0.4451680315000000   28.3694074727000007    0.0000000000000000
     0.0682082826000000    0.3036559964000000   28.5240018092999996
   La   Co   Ni   Sn   Bi   H 
    14    13    13    14    14     1
Selective dynamics
Direct
  0.5924035635126701  0.4203125091213691  0.4079547393859103   T   T   T
  0.6853228273845259  0.5711124308162732  0.3810860060337609   T   T   T
  0.4956042114915856  0.5271459359808121  0.2814726010544895   T   T   T
  0.5623390267459184  0.5221385113906475  0.6021206180740245   T   T   T
  0.5078579686921182  0.3888358375209048  0.3033742465180361   T   T   T
  0.5751402184425884  0.6556743480698874  0.4832520185278526   T   T   T
  0.5106144839359844  0.3382025223113174  0.4988550776920476   T   T   T
  0.5350166738381033  0.6375739150682637  0.3749214384915753   T   T   T
  0.4356134704904855  0.6433586856764283  0.5354637413295036   T   T   T
  0.4373551010143757  0.5015757590148624  0.3842817269995109   F   F   F
  0.4437846394494898  0.4460183835780285  0.5005161578087822   F   F   F
  0.3877947788422548  0.4667296168222270  0.6096358876691806   T   T   T
  0.3438119751082774  0.4443194925285492  0.3471193112204481   T   T   T
  0.3615045857115006  0.5853516618416446  0.3937664641041228   T   T   T
  0.4217425606853311  0.4061295180575186  0.3699802678458894   F   F   F
  0.5011311695957161  0.4887203336762909  0.4395023580252015   F   F   F
  0.4044148221271726  0.6101724300038001  0.4624736492929173   F   F   F
  0.4722931245665194  0.5596737886932672  0.5729988711091565   F   F   F
  0.6552684236953183  0.5165424048424470  0.4543399438695133   F   F   F
  0.5967309916701211  0.5535378348504167  0.5056109707055541   F   F   F
  0.5314074673932367  0.5941153005651714  0.5336729985293047   F   F   F
  0.5796732686089143  0.4997731718447866  0.4507473928409595   F   F   F
  0.4595811690345650  0.3283810090350858  0.3465540143097451   T   T   T
  0.3905180950192175  0.5252419063175111  0.4552418453041511   F   F   F
  0.4548290584042251  0.3249991036912769  0.4251160504330567   T   T   T
  0.5074804872141527  0.4592780196109629  0.3501259710292359   F   F   F
  0.6012877811302459  0.4669891268301640  0.5212355700313438   F   F   F
  0.5384608035519776  0.4312182275275163  0.4821288228790692   F   F   F
  0.4713083414346286  0.4805797151798927  0.5807598339419258   F   F   F
  0.3771163837573610  0.4514853175274567  0.4282230665427278   F   F   F
  0.4059018739390154  0.3822235888080883  0.4561785915149272   F   F   F
  0.5357818896390683  0.5680835373033233  0.4543473312664048   F   F   F
  0.4924712632432886  0.6367287407321953  0.4646113344718685   F   F   F
  0.4677327221812249  0.5829886973614862  0.4038343643763724   F   F   F
  0.5280944416629296  0.5063826634733033  0.5194466411805863   F   F   F
  0.6212454441397384  0.5105019604624417  0.3755946010283822   F   F   F
  0.6054499763524817  0.5821019035045651  0.4188664505762958   F   F   F
  0.4050790883739026  0.5245211222763402  0.5434909784116542   F   F   F
  0.3508614288957108  0.4700382113823315  0.5088237578059518   T   T   T
  0.4348913586083176  0.4543155920278439  0.2999850677876029   T   T   T
  0.5382211733987868  0.4221351282031716  0.5690472592922808   T   T   T
  0.3579675994739354  0.3868706915034278  0.5397196738698971   T   T   T
  0.4625951421883201  0.5516617238622956  0.4875128022361963   F   F   F
  0.6077370208951854  0.3759637459260179  0.5112105801497592   T   T   T
  0.4919594252791151  0.4393297330937906  0.6581946867361079   T   T   T
  0.5875033536768501  0.4672661317787612  0.3065206530029966   T   T   T
  0.4900497958562298  0.4037080615820798  0.4151644571778519   F   F   F
  0.4355657538171454  0.6741297476939221  0.4123299097235075   T   T   T
  0.4685493591425174  0.5373492176640231  0.6602972836373033   T   T   T
  0.5397532608265934  0.5319899791087650  0.3771480104995177   F   F   F
  0.6684573105275287  0.6003606762548344  0.4837350356615759   T   T   T
  0.6656115515245120  0.5191998348447633  0.5509388688764015   T   T   T
  0.3743629108489541  0.3345151985086074  0.3865917115654292   T   T   T
  0.6797854630754958  0.4370119761602176  0.4869389959870283   T   T   T
  0.5396133726077369  0.3189456234685881  0.3903822290578352   T   T   T
  0.3024641060544235  0.5031891079106187  0.4369551528181409   T   T   T
  0.3132352317874268  0.3957169022220492  0.4494904915938737   T   T   T
  0.5121847806275961  0.6257080948408060  0.6164308554748755   T   T   T
  0.4497517333976791  0.3743215614021470  0.5853393419401468   T   T   T
  0.3905857515304954  0.5802735105046221  0.6131238420503767   T   T   T
  0.4070818665197103  0.3057851187333989  0.5023940258275069   T   T   T
  0.4009191889243356  0.3690971490050830  0.2894445720207794   T   T   T
  0.3840311330071415  0.5323131298587575  0.2932349086165328   T   T   T
  0.6926164874572668  0.4602405899399069  0.3873053379498513   T   T   T
  0.3376062708006436  0.5722971887774881  0.5127077908205104   T   T   T
  0.5994809126464036  0.5722329924279557  0.3079239680666540   T   T   T
  0.6127022034321742  0.6146579358958872  0.5753740986533959   T   T   T
  0.4397369882257092  0.6144254142588823  0.3235647925854899   T   T   T
  0.4666074604785019  0.4536769774462555  0.2537582736125375   T   T   T
 
  0.00000000E+00  0.00000000E+00  0.00000000E+00
  0.00000000E+00  0.00000000E+00  0.00000000E+00
  0.00000000E+00  0.00000000E+00  0.00000000E+00
  0.00000000E+00  0.00000000E+00  0.00000000E+00
  0.00000000E+00  0.00000000E+00  0.00000000E+00
  0.00000000E+00  0.00000000E+00  0.00000000E+00
  0.00000000E+00  0.00000000E+00  0.00000000E+00
  0.00000000E+00  0.00000000E+00  0.00000000E+00
  0.00000000E+00  0.00000000E+00  0.00000000E+00
  0.00000000E+00  0.00000000E+00  0.00000000E+00
  0.00000000E+00  0.00000000E+00  0.00000000E+00
  0.00000000E+00  0.00000000E+00  0.00000000E+00
  0.00000000E+00  0.00000000E+00  0.00000000E+00
  0.00000000E+00  0.00000000E+00  0.00000000E+00
  0.00000000E+00  0.00000000E+00  0.00000000E+00
  0.00000000E+00  0.00000000E+00  0.00000000E+00
  0.00000000E+00  0.00000000E+00  0.00000000E+00
  0.00000000E+00  0.00000000E+00  0.00000000E+00
  0.00000000E+00  0.00000000E+00  0.00000000E+00
  0.00000000E+00  0.00000000E+00  0.00000000E+00
  0.00000000E+00  0.00000000E+00  0.00000000E+00
  0.00000000E+00  0.00000000E+00  0.00000000E+00
  0.00000000E+00  0.00000000E+00  0.00000000E+00
  0.00000000E+00  0.00000000E+00  0.00000000E+00
  0.00000000E+00  0.00000000E+00  0.00000000E+00
  0.00000000E+00  0.00000000E+00  0.00000000E+00
  0.00000000E+00  0.00000000E+00  0.00000000E+00
  0.00000000E+00  0.00000000E+00  0.00000000E+00
  0.00000000E+00  0.00000000E+00  0.00000000E+00
  0.00000000E+00  0.00000000E+00  0.00000000E+00
  0.00000000E+00  0.00000000E+00  0.00000000E+00
  0.00000000E+00  0.00000000E+00  0.00000000E+00
  0.00000000E+00  0.00000000E+00  0.00000000E+00
  0.00000000E+00  0.00000000E+00  0.00000000E+00
  0.00000000E+00  0.00000000E+00  0.00000000E+00
  0.00000000E+00  0.00000000E+00  0.00000000E+00
  0.00000000E+00  0.00000000E+00  0.00000000E+00
  0.00000000E+00  0.00000000E+00  0.00000000E+00
  0.00000000E+00  0.00000000E+00  0.00000000E+00
  0.00000000E+00  0.00000000E+00  0.00000000E+00
  0.00000000E+00  0.00000000E+00  0.00000000E+00
  0.00000000E+00  0.00000000E+00  0.00000000E+00
  0.00000000E+00  0.00000000E+00  0.00000000E+00
  0.00000000E+00  0.00000000E+00  0.00000000E+00
  0.00000000E+00  0.00000000E+00  0.00000000E+00
  0.00000000E+00  0.00000000E+00  0.00000000E+00
  0.00000000E+00  0.00000000E+00  0.00000000E+00
  0.00000000E+00  0.00000000E+00  0.00000000E+00
  0.00000000E+00  0.00000000E+00  0.00000000E+00
  0.00000000E+00  0.00000000E+00  0.00000000E+00
  0.00000000E+00  0.00000000E+00  0.00000000E+00
  0.00000000E+00  0.00000000E+00  0.00000000E+00
  0.00000000E+00  0.00000000E+00  0.00000000E+00
  0.00000000E+00  0.00000000E+00  0.00000000E+00
  0.00000000E+00  0.00000000E+00  0.00000000E+00
  0.00000000E+00  0.00000000E+00  0.00000000E+00
  0.00000000E+00  0.00000000E+00  0.00000000E+00
  0.00000000E+00  0.00000000E+00  0.00000000E+00
  0.00000000E+00  0.00000000E+00  0.00000000E+00
  0.00000000E+00  0.00000000E+00  0.00000000E+00
  0.00000000E+00  0.00000000E+00  0.00000000E+00
  0.00000000E+00  0.00000000E+00  0.00000000E+00
  0.00000000E+00  0.00000000E+00  0.00000000E+00
  0.00000000E+00  0.00000000E+00  0.00000000E+00
  0.00000000E+00  0.00000000E+00  0.00000000E+00
  0.00000000E+00  0.00000000E+00  0.00000000E+00
  0.00000000E+00  0.00000000E+00  0.00000000E+00
  0.00000000E+00  0.00000000E+00  0.00000000E+00
  0.00000000E+00  0.00000000E+00  0.00000000E+00
