La Co Ni Sn Bi H                        
   1.00000000000000     
    29.1044006348000011    0.0000000000000000    0.0000000000000000
     0.4451680315000000   28.3694074727000007    0.0000000000000000
     0.0682082826000000    0.3036559964000000   28.5240018092999996
   La   Co   Ni   Sn   Bi   H 
    14    13    13    14    14     1
Selective dynamics
Direct
  0.5925718390814536  0.4204990602869401  0.4076525568724133   T   T   T
  0.6847712271349947  0.5719513491850189  0.3809663308355434   T   T   T
  0.4954170009622634  0.5281459918391943  0.2823716207381641   T   T   T
  0.5624674289557338  0.5206159164782529  0.6018123943782088   T   T   T
  0.5083701165994644  0.3875670691341727  0.3049243828427502   T   T   T
  0.5753305253977439  0.6553515034735745  0.4832160441655377   T   T   T
  0.5100529947257499  0.3366779624728427  0.4978220434306623   T   T   T
  0.5350865767951376  0.6375669674082295  0.3751032861119551   T   T   T
  0.4359156754849042  0.6425665070134113  0.5361524299650522   T   T   T
  0.4373551010143757  0.5015757590148624  0.3842817269995109   F   F   F
  0.4437846394494898  0.4460183835780285  0.5005161578087822   F   F   F
  0.3878370508875331  0.4649707544260187  0.6078156463121619   T   T   T
  0.3446365242382221  0.4450062298199642  0.3465350013822796   T   T   T
  0.3619760589086837  0.5850722991466085  0.3937315661646740   T   T   T
  0.4217425606853311  0.4061295180575186  0.3699802678458894   F   F   F
  0.5011311695957161  0.4887203336762909  0.4395023580252015   F   F   F
  0.4044148221271726  0.6101724300038001  0.4624736492929173   F   F   F
  0.4722931245665194  0.5596737886932672  0.5729988711091565   F   F   F
  0.6552684236953183  0.5165424048424470  0.4543399438695133   F   F   F
  0.5967309916701211  0.5535378348504167  0.5056109707055541   F   F   F
  0.5314074673932367  0.5941153005651714  0.5336729985293047   F   F   F
  0.5796732686089143  0.4997731718447866  0.4507473928409595   F   F   F
  0.4606500583246994  0.3308749706224899  0.3436061367017288   T   T   T
  0.3905180950192175  0.5252419063175111  0.4552418453041511   F   F   F
  0.4545183554741490  0.3247589034845446  0.4230207867709750   T   T   T
  0.5074804872141527  0.4592780196109629  0.3501259710292359   F   F   F
  0.6012877811302459  0.4669891268301640  0.5212355700313438   F   F   F
  0.5384608035519776  0.4312182275275163  0.4821288228790692   F   F   F
  0.4713083414346286  0.4805797151798927  0.5807598339419258   F   F   F
  0.3771163837573610  0.4514853175274567  0.4282230665427278   F   F   F
  0.4059018739390154  0.3822235888080883  0.4561785915149272   F   F   F
  0.5357818896390683  0.5680835373033233  0.4543473312664048   F   F   F
  0.4924712632432886  0.6367287407321953  0.4646113344718685   F   F   F
  0.4677327221812249  0.5829886973614862  0.4038343643763724   F   F   F
  0.5280944416629296  0.5063826634733033  0.5194466411805863   F   F   F
  0.6212454441397384  0.5105019604624417  0.3755946010283822   F   F   F
  0.6054499763524817  0.5821019035045651  0.4188664505762958   F   F   F
  0.4050790883739026  0.5245211222763402  0.5434909784116542   F   F   F
  0.3514818635552212  0.4696135726250755  0.5084632036458102   T   T   T
  0.4338334025101370  0.4574370376471673  0.3021608308751818   T   T   T
  0.5387786966825727  0.4211377551958781  0.5678104619361061   T   T   T
  0.3555134090088451  0.3855725331557782  0.5374656949061362   T   T   T
  0.4625951421883201  0.5516617238622956  0.4875128022361963   F   F   F
  0.6070958236690295  0.3753898160059985  0.5099289976576374   T   T   T
  0.4906757592859496  0.4341959274007589  0.6550958869849116   T   T   T
  0.5871170970531694  0.4677119317967903  0.3062801061162866   T   T   T
  0.4900497958562298  0.4037080615820798  0.4151644571778519   F   F   F
  0.4353671104745963  0.6745938527534324  0.4128559265366792   T   T   T
  0.4691735293473230  0.5335153666265052  0.6611323197389538   T   T   T
  0.5397532608265934  0.5319899791087650  0.3771480104995177   F   F   F
  0.6686155411674510  0.6001783806210709  0.4839036593590032   T   T   T
  0.6654234597781348  0.5188344740025858  0.5509289660799950   T   T   T
  0.3748111009551798  0.3347452565142970  0.3842610763003329   T   T   T
  0.6790765199469878  0.4367669030339020  0.4865715847334973   T   T   T
  0.5400153706267432  0.3187966303628256  0.3903387726331847   T   T   T
  0.3023144852722577  0.5030106085354529  0.4370588609291526   T   T   T
  0.3128864046512800  0.3954687442543732  0.4471280579335665   T   T   T
  0.5119557068256401  0.6228440874268897  0.6185484592757238   T   T   T
  0.4469042612036110  0.3693810268057203  0.5833392806551673   T   T   T
  0.3920561728247590  0.5785009909634150  0.6145152267272332   T   T   T
  0.4055043881815241  0.3043704334202199  0.4988900747306098   T   T   T
  0.4019454316168759  0.3721233845948159  0.2867053961685195   T   T   T
  0.3841813737732576  0.5339174639352950  0.2915700431904913   T   T   T
  0.6932051607095022  0.4611846906309010  0.3874285691231455   T   T   T
  0.3377322681312039  0.5718148029932612  0.5128969393839412   T   T   T
  0.5991330474069847  0.5724871820908566  0.3076070137939702   T   T   T
  0.6120005121205985  0.6139970092878373  0.5756875477820848   T   T   T
  0.4399571060703021  0.6154156484410702  0.3237424012724298   T   T   T
  0.4150326457458588  0.3297913514436673  0.6236078159433939   T   T   T
 
  0.00000000E+00  0.00000000E+00  0.00000000E+00
  0.00000000E+00  0.00000000E+00  0.00000000E+00
  0.00000000E+00  0.00000000E+00  0.00000000E+00
  0.00000000E+00  0.00000000E+00  0.00000000E+00
  0.00000000E+00  0.00000000E+00  0.00000000E+00
  0.00000000E+00  0.00000000E+00  0.00000000E+00
  0.00000000E+00  0.00000000E+00  0.00000000E+00
  0.00000000E+00  0.00000000E+00  0.00000000E+00
  0.00000000E+00  0.00000000E+00  0.00000000E+00
  0.00000000E+00  0.00000000E+00  0.00000000E+00
  0.00000000E+00  0.00000000E+00  0.00000000E+00
  0.00000000E+00  0.00000000E+00  0.00000000E+00
  0.00000000E+00  0.00000000E+00  0.00000000E+00
  0.00000000E+00  0.00000000E+00  0.00000000E+00
  0.00000000E+00  0.00000000E+00  0.00000000E+00
  0.00000000E+00  0.00000000E+00  0.00000000E+00
  0.00000000E+00  0.00000000E+00  0.00000000E+00
  0.00000000E+00  0.00000000E+00  0.00000000E+00
  0.00000000E+00  0.00000000E+00  0.00000000E+00
  0.00000000E+00  0.00000000E+00  0.00000000E+00
  0.00000000E+00  0.00000000E+00  0.00000000E+00
  0.00000000E+00  0.00000000E+00  0.00000000E+00
  0.00000000E+00  0.00000000E+00  0.00000000E+00
  0.00000000E+00  0.00000000E+00  0.00000000E+00
  0.00000000E+00  0.00000000E+00  0.00000000E+00
  0.00000000E+00  0.00000000E+00  0.00000000E+00
  0.00000000E+00  0.00000000E+00  0.00000000E+00
  0.00000000E+00  0.00000000E+00  0.00000000E+00
  0.00000000E+00  0.00000000E+00  0.00000000E+00
  0.00000000E+00  0.00000000E+00  0.00000000E+00
  0.00000000E+00  0.00000000E+00  0.00000000E+00
  0.00000000E+00  0.00000000E+00  0.00000000E+00
  0.00000000E+00  0.00000000E+00  0.00000000E+00
  0.00000000E+00  0.00000000E+00  0.00000000E+00
  0.00000000E+00  0.00000000E+00  0.00000000E+00
  0.00000000E+00  0.00000000E+00  0.00000000E+00
  0.00000000E+00  0.00000000E+00  0.00000000E+00
  0.00000000E+00  0.00000000E+00  0.00000000E+00
  0.00000000E+00  0.00000000E+00  0.00000000E+00
  0.00000000E+00  0.00000000E+00  0.00000000E+00
  0.00000000E+00  0.00000000E+00  0.00000000E+00
  0.00000000E+00  0.00000000E+00  0.00000000E+00
  0.00000000E+00  0.00000000E+00  0.00000000E+00
  0.00000000E+00  0.00000000E+00  0.00000000E+00
  0.00000000E+00  0.00000000E+00  0.00000000E+00
  0.00000000E+00  0.00000000E+00  0.00000000E+00
  0.00000000E+00  0.00000000E+00  0.00000000E+00
  0.00000000E+00  0.00000000E+00  0.00000000E+00
  0.00000000E+00  0.00000000E+00  0.00000000E+00
  0.00000000E+00  0.00000000E+00  0.00000000E+00
  0.00000000E+00  0.00000000E+00  0.00000000E+00
  0.00000000E+00  0.00000000E+00  0.00000000E+00
  0.00000000E+00  0.00000000E+00  0.00000000E+00
  0.00000000E+00  0.00000000E+00  0.00000000E+00
  0.00000000E+00  0.00000000E+00  0.00000000E+00
  0.00000000E+00  0.00000000E+00  0.00000000E+00
  0.00000000E+00  0.00000000E+00  0.00000000E+00
  0.00000000E+00  0.00000000E+00  0.00000000E+00
  0.00000000E+00  0.00000000E+00  0.00000000E+00
  0.00000000E+00  0.00000000E+00  0.00000000E+00
  0.00000000E+00  0.00000000E+00  0.00000000E+00
  0.00000000E+00  0.00000000E+00  0.00000000E+00
  0.00000000E+00  0.00000000E+00  0.00000000E+00
  0.00000000E+00  0.00000000E+00  0.00000000E+00
  0.00000000E+00  0.00000000E+00  0.00000000E+00
  0.00000000E+00  0.00000000E+00  0.00000000E+00
  0.00000000E+00  0.00000000E+00  0.00000000E+00
  0.00000000E+00  0.00000000E+00  0.00000000E+00
  0.00000000E+00  0.00000000E+00  0.00000000E+00
