La Co Ni Sn Bi H                        
   1.00000000000000     
    29.1044006348000011    0.0000000000000000    0.0000000000000000
     0.4451680315000000   28.3694074727000007    0.0000000000000000
     0.0682082826000000    0.3036559964000000   28.5240018092999996
   La   Co   Ni   Sn   Bi   H 
    14    13    13    14    14     1
Selective dynamics
Direct
  0.5922181581899788  0.4203838226794561  0.4080901303303918   T   T   T
  0.6850173155398754  0.5698113387953962  0.3762770339849218   T   T   T
  0.4953007945336748  0.5267223351667886  0.2819117776608449   T   T   T
  0.5622224674974167  0.5211010292746896  0.6024068323606119   T   T   T
  0.5085379052207907  0.3868458872113793  0.3053179315797757   T   T   T
  0.5745140539569319  0.6548132320888231  0.4839802801285234   T   T   T
  0.5089242058181322  0.3378313025301083  0.4993032943741535   T   T   T
  0.5355140269915442  0.6375259869119906  0.3753497150088551   T   T   T
  0.4357293685472027  0.6430512782387195  0.5356674149513592   T   T   T
  0.4373551010143757  0.5015757590148624  0.3842817269995109   F   F   F
  0.4437846394494898  0.4460183835780285  0.5005161578087822   F   F   F
  0.3875335628935508  0.4670087527714101  0.6096563197686046   T   T   T
  0.3446093192005620  0.4441272423928633  0.3468495895546094   T   T   T
  0.3622890025514721  0.5851317940250635  0.3934386114955410   T   T   T
  0.4217425606853311  0.4061295180575186  0.3699802678458894   F   F   F
  0.5011311695957161  0.4887203336762909  0.4395023580252015   F   F   F
  0.4044148221271726  0.6101724300038001  0.4624736492929173   F   F   F
  0.4722931245665194  0.5596737886932672  0.5729988711091565   F   F   F
  0.6552684236953183  0.5165424048424470  0.4543399438695133   F   F   F
  0.5967309916701211  0.5535378348504167  0.5056109707055541   F   F   F
  0.5314074673932367  0.5941153005651714  0.5336729985293047   F   F   F
  0.5796732686089143  0.4997731718447866  0.4507473928409595   F   F   F
  0.4604329494197865  0.3305401684834579  0.3450201405739123   T   T   T
  0.3905180950192175  0.5252419063175111  0.4552418453041511   F   F   F
  0.4543694256127677  0.3245359622994077  0.4245620514766987   T   T   T
  0.5074804872141527  0.4592780196109629  0.3501259710292359   F   F   F
  0.6012877811302459  0.4669891268301640  0.5212355700313438   F   F   F
  0.5384608035519776  0.4312182275275163  0.4821288228790692   F   F   F
  0.4713083414346286  0.4805797151798927  0.5807598339419258   F   F   F
  0.3771163837573610  0.4514853175274567  0.4282230665427278   F   F   F
  0.4059018739390154  0.3822235888080883  0.4561785915149272   F   F   F
  0.5357818896390683  0.5680835373033233  0.4543473312664048   F   F   F
  0.4924712632432886  0.6367287407321953  0.4646113344718685   F   F   F
  0.4677327221812249  0.5829886973614862  0.4038343643763724   F   F   F
  0.5280944416629296  0.5063826634733033  0.5194466411805863   F   F   F
  0.6212454441397384  0.5105019604624417  0.3755946010283822   F   F   F
  0.6054499763524817  0.5821019035045651  0.4188664505762958   F   F   F
  0.4050790883739026  0.5245211222763402  0.5434909784116542   F   F   F
  0.3506978722015398  0.4703842991700343  0.5087970672911356   T   T   T
  0.4338642710750194  0.4568885263178541  0.3020452430818735   T   T   T
  0.5381555894372544  0.4215342463017394  0.5690586361826140   T   T   T
  0.3577020541243344  0.3873204940669132  0.5396476693319797   T   T   T
  0.4625951421883201  0.5516617238622956  0.4875128022361963   F   F   F
  0.6065102515978221  0.3751193086405055  0.5106455348310309   T   T   T
  0.4918729285954995  0.4388734826888041  0.6580030625144969   T   T   T
  0.5873948638671379  0.4670536632100726  0.3065713772048803   T   T   T
  0.4900497958562298  0.4037080615820798  0.4151644571778519   F   F   F
  0.4354944573657855  0.6744982835851774  0.4125415713820863   T   T   T
  0.4679892365163728  0.5372851787209257  0.6600606530532892   T   T   T
  0.5397532608265934  0.5319899791087650  0.3771480104995177   F   F   F
  0.6697609387656377  0.5985636869730230  0.4791592770224050   T   T   T
  0.6653394466808538  0.5189306477718109  0.5507094171858687   T   T   T
  0.3746966903997760  0.3347228000342351  0.3849576319884784   T   T   T
  0.6786295401059360  0.4367626610740390  0.4865804984037073   T   T   T
  0.5394141736630544  0.3183829951130037  0.3915659231773909   T   T   T
  0.3023855411912222  0.5029557416218928  0.4365271158031253   T   T   T
  0.3134632392093302  0.3955058060375327  0.4494628537149516   T   T   T
  0.5122813158334480  0.6253011589361529  0.6170132965785122   T   T   T
  0.4492081963056699  0.3744694505779144  0.5852994854742483   T   T   T
  0.3899980091187596  0.5802496231211975  0.6131857886992953   T   T   T
  0.4049577657449203  0.3055634098585417  0.5012852206342973   T   T   T
  0.4022997645752939  0.3713752793329848  0.2869816104065267   T   T   T
  0.3840295294650966  0.5333169951279113  0.2918420638656256   T   T   T
  0.6926511152556108  0.4595196331378711  0.3872531985538871   T   T   T
  0.3375778512817769  0.5720950968333716  0.5125377942033068   T   T   T
  0.5980234787904781  0.5720209739459737  0.3063104680723048   T   T   T
  0.6109586844330573  0.6139334281391374  0.5761095661058598   T   T   T
  0.4406004938023620  0.6147069604640039  0.3235426696630718   T   T   T
  0.6937715962139491  0.6360464329118907  0.5209338166263898   T   T   T
 
  0.00000000E+00  0.00000000E+00  0.00000000E+00
  0.00000000E+00  0.00000000E+00  0.00000000E+00
  0.00000000E+00  0.00000000E+00  0.00000000E+00
  0.00000000E+00  0.00000000E+00  0.00000000E+00
  0.00000000E+00  0.00000000E+00  0.00000000E+00
  0.00000000E+00  0.00000000E+00  0.00000000E+00
  0.00000000E+00  0.00000000E+00  0.00000000E+00
  0.00000000E+00  0.00000000E+00  0.00000000E+00
  0.00000000E+00  0.00000000E+00  0.00000000E+00
  0.00000000E+00  0.00000000E+00  0.00000000E+00
  0.00000000E+00  0.00000000E+00  0.00000000E+00
  0.00000000E+00  0.00000000E+00  0.00000000E+00
  0.00000000E+00  0.00000000E+00  0.00000000E+00
  0.00000000E+00  0.00000000E+00  0.00000000E+00
  0.00000000E+00  0.00000000E+00  0.00000000E+00
  0.00000000E+00  0.00000000E+00  0.00000000E+00
  0.00000000E+00  0.00000000E+00  0.00000000E+00
  0.00000000E+00  0.00000000E+00  0.00000000E+00
  0.00000000E+00  0.00000000E+00  0.00000000E+00
  0.00000000E+00  0.00000000E+00  0.00000000E+00
  0.00000000E+00  0.00000000E+00  0.00000000E+00
  0.00000000E+00  0.00000000E+00  0.00000000E+00
  0.00000000E+00  0.00000000E+00  0.00000000E+00
  0.00000000E+00  0.00000000E+00  0.00000000E+00
  0.00000000E+00  0.00000000E+00  0.00000000E+00
  0.00000000E+00  0.00000000E+00  0.00000000E+00
  0.00000000E+00  0.00000000E+00  0.00000000E+00
  0.00000000E+00  0.00000000E+00  0.00000000E+00
  0.00000000E+00  0.00000000E+00  0.00000000E+00
  0.00000000E+00  0.00000000E+00  0.00000000E+00
  0.00000000E+00  0.00000000E+00  0.00000000E+00
  0.00000000E+00  0.00000000E+00  0.00000000E+00
  0.00000000E+00  0.00000000E+00  0.00000000E+00
  0.00000000E+00  0.00000000E+00  0.00000000E+00
  0.00000000E+00  0.00000000E+00  0.00000000E+00
  0.00000000E+00  0.00000000E+00  0.00000000E+00
  0.00000000E+00  0.00000000E+00  0.00000000E+00
  0.00000000E+00  0.00000000E+00  0.00000000E+00
  0.00000000E+00  0.00000000E+00  0.00000000E+00
  0.00000000E+00  0.00000000E+00  0.00000000E+00
  0.00000000E+00  0.00000000E+00  0.00000000E+00
  0.00000000E+00  0.00000000E+00  0.00000000E+00
  0.00000000E+00  0.00000000E+00  0.00000000E+00
  0.00000000E+00  0.00000000E+00  0.00000000E+00
  0.00000000E+00  0.00000000E+00  0.00000000E+00
  0.00000000E+00  0.00000000E+00  0.00000000E+00
  0.00000000E+00  0.00000000E+00  0.00000000E+00
  0.00000000E+00  0.00000000E+00  0.00000000E+00
  0.00000000E+00  0.00000000E+00  0.00000000E+00
  0.00000000E+00  0.00000000E+00  0.00000000E+00
  0.00000000E+00  0.00000000E+00  0.00000000E+00
  0.00000000E+00  0.00000000E+00  0.00000000E+00
  0.00000000E+00  0.00000000E+00  0.00000000E+00
  0.00000000E+00  0.00000000E+00  0.00000000E+00
  0.00000000E+00  0.00000000E+00  0.00000000E+00
  0.00000000E+00  0.00000000E+00  0.00000000E+00
  0.00000000E+00  0.00000000E+00  0.00000000E+00
  0.00000000E+00  0.00000000E+00  0.00000000E+00
  0.00000000E+00  0.00000000E+00  0.00000000E+00
  0.00000000E+00  0.00000000E+00  0.00000000E+00
  0.00000000E+00  0.00000000E+00  0.00000000E+00
  0.00000000E+00  0.00000000E+00  0.00000000E+00
  0.00000000E+00  0.00000000E+00  0.00000000E+00
  0.00000000E+00  0.00000000E+00  0.00000000E+00
  0.00000000E+00  0.00000000E+00  0.00000000E+00
  0.00000000E+00  0.00000000E+00  0.00000000E+00
  0.00000000E+00  0.00000000E+00  0.00000000E+00
  0.00000000E+00  0.00000000E+00  0.00000000E+00
  0.00000000E+00  0.00000000E+00  0.00000000E+00
