La Co Ni Sn Bi H                        
   1.00000000000000     
    29.1044006348000011    0.0000000000000000    0.0000000000000000
     0.4451680315000000   28.3694074727000007    0.0000000000000000
     0.0682082826000000    0.3036559964000000   28.5240018092999996
   La   Co   Ni   Sn   Bi   H 
    14    13    13    14    14     1
Selective dynamics
Direct
  0.5924402070944534  0.4206721369103578  0.4076374547559556   T   T   T
  0.6849743040268335  0.5717497094463783  0.3809972999986856   T   T   T
  0.4954468098548098  0.5277114331540714  0.2815282795197077   T   T   T
  0.5623423482398450  0.5218572005517500  0.6020329136000496   T   T   T
  0.5080173382309723  0.3893058763425812  0.3031815477954914   T   T   T
  0.5751616856504844  0.6555757136370534  0.4832052204014045   T   T   T
  0.5098477123656304  0.3380055283226698  0.4987902409301904   T   T   T
  0.5351202694237133  0.6375183424085118  0.3748836206906488   T   T   T
  0.4357756697397677  0.6434990590957222  0.5354511530561918   T   T   T
  0.4373551010143757  0.5015757590148624  0.3842817269995109   F   F   F
  0.4437846394494898  0.4460183835780285  0.5005161578087822   F   F   F
  0.3875918901088110  0.4668119515676519  0.6095749255543932   T   T   T
  0.3438335750467998  0.4443889597124662  0.3471886641735112   T   T   T
  0.3614074408320498  0.5853965429054315  0.3939579826303236   T   T   T
  0.4217425606853311  0.4061295180575186  0.3699802678458894   F   F   F
  0.5011311695957161  0.4887203336762909  0.4395023580252015   F   F   F
  0.4044148221271726  0.6101724300038001  0.4624736492929173   F   F   F
  0.4722931245665194  0.5596737886932672  0.5729988711091565   F   F   F
  0.6552684236953183  0.5165424048424470  0.4543399438695133   F   F   F
  0.5967309916701211  0.5535378348504167  0.5056109707055541   F   F   F
  0.5314074673932367  0.5941153005651714  0.5336729985293047   F   F   F
  0.5796732686089143  0.4997731718447866  0.4507473928409595   F   F   F
  0.4597532246713112  0.3293530068385134  0.3461725972361651   T   T   T
  0.3905180950192175  0.5252419063175111  0.4552418453041511   F   F   F
  0.4547493052539189  0.3249673016013022  0.4248458091636402   T   T   T
  0.5074804872141527  0.4592780196109629  0.3501259710292359   F   F   F
  0.6012877811302459  0.4669891268301640  0.5212355700313438   F   F   F
  0.5384608035519776  0.4312182275275163  0.4821288228790692   F   F   F
  0.4713083414346286  0.4805797151798927  0.5807598339419258   F   F   F
  0.3771163837573610  0.4514853175274567  0.4282230665427278   F   F   F
  0.4059018739390154  0.3822235888080883  0.4561785915149272   F   F   F
  0.5357818896390683  0.5680835373033233  0.4543473312664048   F   F   F
  0.4924712632432886  0.6367287407321953  0.4646113344718685   F   F   F
  0.4677327221812249  0.5829886973614862  0.4038343643763724   F   F   F
  0.5280944416629296  0.5063826634733033  0.5194466411805863   F   F   F
  0.6212454441397384  0.5105019604624417  0.3755946010283822   F   F   F
  0.6054499763524817  0.5821019035045651  0.4188664505762958   F   F   F
  0.4050790883739026  0.5245211222763402  0.5434909784116542   F   F   F
  0.3509224226471519  0.4700730942780881  0.5088061710292817   T   T   T
  0.4351108012509290  0.4547167800411830  0.2998903421974574   T   T   T
  0.5380765378795354  0.4218863802314454  0.5688702908249222   T   T   T
  0.3576507528666761  0.3869592516835587  0.5398799535614286   T   T   T
  0.4625951421883201  0.5516617238622956  0.4875128022361963   F   F   F
  0.6070991802167125  0.3757651892465622  0.5102992518717832   T   T   T
  0.4918147485754103  0.4388092645887548  0.6580079074573635   T   T   T
  0.5874782097609830  0.4676812003171495  0.3063575798204587   T   T   T
  0.4900497958562298  0.4037080615820798  0.4151644571778519   F   F   F
  0.4355228533166958  0.6742097594395398  0.4124408811776863   T   T   T
  0.4683550987168012  0.5367653309715015  0.6602576082038077   T   T   T
  0.5397532608265934  0.5319899791087650  0.3771480104995177   F   F   F
  0.6684368983368066  0.6004677625061738  0.4838455617479995   T   T   T
  0.6657141687232215  0.5193707980186564  0.5507735399162778   T   T   T
  0.3743235345580335  0.3345065130148463  0.3862803152481374   T   T   T
  0.6794614659493303  0.4368848091634258  0.4869581067798755   T   T   T
  0.5395764229973384  0.3193323029107177  0.3901426888609930   T   T   T
  0.3024069995727571  0.5030977025988451  0.4370989193264171   T   T   T
  0.3133223927782725  0.3956412141634196  0.4495644336516849   T   T   T
  0.5119808524383085  0.6252837650142002  0.6168589035664422   T   T   T
  0.4492829733329217  0.3742506785589140  0.5851421392819344   T   T   T
  0.3906658690895866  0.5803981061319426  0.6130418542423812   T   T   T
  0.4062356878145590  0.3056514444992333  0.5018984686884608   T   T   T
  0.4010214237557298  0.3698345935303257  0.2891744713303902   T   T   T
  0.3839876769880894  0.5323521821861663  0.2933562717623399   T   T   T
  0.6930176968012375  0.4609448329658478  0.3874383952684878   T   T   T
  0.3376396115470134  0.5722734432588469  0.5128087986799855   T   T   T
  0.5993847711349466  0.5723219943730512  0.3076075095723879   T   T   T
  0.6124571919885948  0.6145561265183755  0.5754547972617646   T   T   T
  0.4395112515260620  0.6145806167902891  0.3236598433519543   T   T   T
  0.4667616618439608  0.4542636587935994  0.2533961685239543   T   T   T
 
  0.00000000E+00  0.00000000E+00  0.00000000E+00
  0.00000000E+00  0.00000000E+00  0.00000000E+00
  0.00000000E+00  0.00000000E+00  0.00000000E+00
  0.00000000E+00  0.00000000E+00  0.00000000E+00
  0.00000000E+00  0.00000000E+00  0.00000000E+00
  0.00000000E+00  0.00000000E+00  0.00000000E+00
  0.00000000E+00  0.00000000E+00  0.00000000E+00
  0.00000000E+00  0.00000000E+00  0.00000000E+00
  0.00000000E+00  0.00000000E+00  0.00000000E+00
  0.00000000E+00  0.00000000E+00  0.00000000E+00
  0.00000000E+00  0.00000000E+00  0.00000000E+00
  0.00000000E+00  0.00000000E+00  0.00000000E+00
  0.00000000E+00  0.00000000E+00  0.00000000E+00
  0.00000000E+00  0.00000000E+00  0.00000000E+00
  0.00000000E+00  0.00000000E+00  0.00000000E+00
  0.00000000E+00  0.00000000E+00  0.00000000E+00
  0.00000000E+00  0.00000000E+00  0.00000000E+00
  0.00000000E+00  0.00000000E+00  0.00000000E+00
  0.00000000E+00  0.00000000E+00  0.00000000E+00
  0.00000000E+00  0.00000000E+00  0.00000000E+00
  0.00000000E+00  0.00000000E+00  0.00000000E+00
  0.00000000E+00  0.00000000E+00  0.00000000E+00
  0.00000000E+00  0.00000000E+00  0.00000000E+00
  0.00000000E+00  0.00000000E+00  0.00000000E+00
  0.00000000E+00  0.00000000E+00  0.00000000E+00
  0.00000000E+00  0.00000000E+00  0.00000000E+00
  0.00000000E+00  0.00000000E+00  0.00000000E+00
  0.00000000E+00  0.00000000E+00  0.00000000E+00
  0.00000000E+00  0.00000000E+00  0.00000000E+00
  0.00000000E+00  0.00000000E+00  0.00000000E+00
  0.00000000E+00  0.00000000E+00  0.00000000E+00
  0.00000000E+00  0.00000000E+00  0.00000000E+00
  0.00000000E+00  0.00000000E+00  0.00000000E+00
  0.00000000E+00  0.00000000E+00  0.00000000E+00
  0.00000000E+00  0.00000000E+00  0.00000000E+00
  0.00000000E+00  0.00000000E+00  0.00000000E+00
  0.00000000E+00  0.00000000E+00  0.00000000E+00
  0.00000000E+00  0.00000000E+00  0.00000000E+00
  0.00000000E+00  0.00000000E+00  0.00000000E+00
  0.00000000E+00  0.00000000E+00  0.00000000E+00
  0.00000000E+00  0.00000000E+00  0.00000000E+00
  0.00000000E+00  0.00000000E+00  0.00000000E+00
  0.00000000E+00  0.00000000E+00  0.00000000E+00
  0.00000000E+00  0.00000000E+00  0.00000000E+00
  0.00000000E+00  0.00000000E+00  0.00000000E+00
  0.00000000E+00  0.00000000E+00  0.00000000E+00
  0.00000000E+00  0.00000000E+00  0.00000000E+00
  0.00000000E+00  0.00000000E+00  0.00000000E+00
  0.00000000E+00  0.00000000E+00  0.00000000E+00
  0.00000000E+00  0.00000000E+00  0.00000000E+00
  0.00000000E+00  0.00000000E+00  0.00000000E+00
  0.00000000E+00  0.00000000E+00  0.00000000E+00
  0.00000000E+00  0.00000000E+00  0.00000000E+00
  0.00000000E+00  0.00000000E+00  0.00000000E+00
  0.00000000E+00  0.00000000E+00  0.00000000E+00
  0.00000000E+00  0.00000000E+00  0.00000000E+00
  0.00000000E+00  0.00000000E+00  0.00000000E+00
  0.00000000E+00  0.00000000E+00  0.00000000E+00
  0.00000000E+00  0.00000000E+00  0.00000000E+00
  0.00000000E+00  0.00000000E+00  0.00000000E+00
  0.00000000E+00  0.00000000E+00  0.00000000E+00
  0.00000000E+00  0.00000000E+00  0.00000000E+00
  0.00000000E+00  0.00000000E+00  0.00000000E+00
  0.00000000E+00  0.00000000E+00  0.00000000E+00
  0.00000000E+00  0.00000000E+00  0.00000000E+00
  0.00000000E+00  0.00000000E+00  0.00000000E+00
  0.00000000E+00  0.00000000E+00  0.00000000E+00
  0.00000000E+00  0.00000000E+00  0.00000000E+00
  0.00000000E+00  0.00000000E+00  0.00000000E+00
