La Co Ni Sn Bi H                        
   1.00000000000000     
    29.1044006348000011    0.0000000000000000    0.0000000000000000
     0.4451680315000000   28.3694074727000007    0.0000000000000000
     0.0682082826000000    0.3036559964000000   28.5240018092999996
   La   Co   Ni   Sn   Bi   H 
    14    13    13    14    14     1
Selective dynamics
Direct
  0.5932280100555373  0.4210025643390003  0.4078002332148163   T   T   T
  0.6847599532769558  0.5717745493569605  0.3804744009505573   T   T   T
  0.4958907395788383  0.5266546904133396  0.2817188786696856   T   T   T
  0.5623651532545109  0.5220750865382127  0.6020488372386855   T   T   T
  0.5111788088752580  0.3860230419266529  0.3062239840692648   T   T   T
  0.5751981049591779  0.6553744702316049  0.4833682100737515   T   T   T
  0.5089315662942729  0.3376856147133002  0.5003212333102673   T   T   T
  0.5351553278107207  0.6377113745885024  0.3750055468617363   T   T   T
  0.4359869990464479  0.6434342520916954  0.5355199951741314   T   T   T
  0.4373551010143757  0.5015757590148624  0.3842817269995109   F   F   F
  0.4437846394494898  0.4460183835780285  0.5005161578087822   F   F   F
  0.3873027715369661  0.4670982371537846  0.6093411616791253   T   T   T
  0.3458749120696255  0.4422571444059929  0.3461725391733051   T   T   T
  0.3618100793450528  0.5853442911212379  0.3933112885286739   T   T   T
  0.4217425606853311  0.4061295180575186  0.3699802678458894   F   F   F
  0.5011311695957161  0.4887203336762909  0.4395023580252015   F   F   F
  0.4044148221271726  0.6101724300038001  0.4624736492929173   F   F   F
  0.4722931245665194  0.5596737886932672  0.5729988711091565   F   F   F
  0.6552684236953183  0.5165424048424470  0.4543399438695133   F   F   F
  0.5967309916701211  0.5535378348504167  0.5056109707055541   F   F   F
  0.5314074673932367  0.5941153005651714  0.5336729985293047   F   F   F
  0.5796732686089143  0.4997731718447866  0.4507473928409595   F   F   F
  0.4649295393755810  0.3324042396337273  0.3478251450644417   T   T   T
  0.3905180950192175  0.5252419063175111  0.4552418453041511   F   F   F
  0.4582192255182319  0.3250100541024240  0.4274447726500170   T   T   T
  0.5074804872141527  0.4592780196109629  0.3501259710292359   F   F   F
  0.6012877811302459  0.4669891268301640  0.5212355700313438   F   F   F
  0.5384608035519776  0.4312182275275163  0.4821288228790692   F   F   F
  0.4713083414346286  0.4805797151798927  0.5807598339419258   F   F   F
  0.3771163837573610  0.4514853175274567  0.4282230665427278   F   F   F
  0.4059018739390154  0.3822235888080883  0.4561785915149272   F   F   F
  0.5357818896390683  0.5680835373033233  0.4543473312664048   F   F   F
  0.4924712632432886  0.6367287407321953  0.4646113344718685   F   F   F
  0.4677327221812249  0.5829886973614862  0.4038343643763724   F   F   F
  0.5280944416629296  0.5063826634733033  0.5194466411805863   F   F   F
  0.6212454441397384  0.5105019604624417  0.3755946010283822   F   F   F
  0.6054499763524817  0.5821019035045651  0.4188664505762958   F   F   F
  0.4050790883739026  0.5245211222763402  0.5434909784116542   F   F   F
  0.3506810837111536  0.4699870151880098  0.5084196852797368   T   T   T
  0.4349931766655152  0.4565468229843450  0.3012763541147734   T   T   T
  0.5380687363774258  0.4219323345015313  0.5690291685388624   T   T   T
  0.3575359034385953  0.3869417774472224  0.5394715889578936   T   T   T
  0.4625951421883201  0.5516617238622956  0.4875128022361963   F   F   F
  0.6066256549645915  0.3750316597207312  0.5100484054296728   T   T   T
  0.4916523792929061  0.4390362104283508  0.6578913426496182   T   T   T
  0.5879968804045531  0.4677240044533813  0.3062546575399436   T   T   T
  0.4900497958562298  0.4037080615820798  0.4151644571778519   F   F   F
  0.4353610499302609  0.6742848507489222  0.4124070285231218   T   T   T
  0.4685056557880565  0.5374282917563873  0.6601992265226012   T   T   T
  0.5397532608265934  0.5319899791087650  0.3771480104995177   F   F   F
  0.6684797844765661  0.6002926700957206  0.4835792506758157   T   T   T
  0.6657615129496853  0.5192327477446181  0.5506026494093484   T   T   T
  0.3789523499761518  0.3318832795289052  0.3859564975782493   T   T   T
  0.6786435068755240  0.4367576951883717  0.4868985879612825   T   T   T
  0.5448526998635042  0.3165079144803942  0.3945047117874409   T   T   T
  0.3025937150016154  0.5021641638262723  0.4353897804790245   T   T   T
  0.3144558814235066  0.3943356188236775  0.4485811518294129   T   T   T
  0.5123357265094770  0.6257137247167748  0.6165483588419516   T   T   T
  0.4486240347310507  0.3745638531234697  0.5855418983058358   T   T   T
  0.3906776360987718  0.5805872246121284  0.6129590584565747   T   T   T
  0.4046771615235852  0.3051947928951981  0.5004094129619012   T   T   T
  0.4054939301234489  0.3695926324527762  0.2877593955339631   T   T   T
  0.3840735270300205  0.5326773254344170  0.2921755237221004   T   T   T
  0.6934840173903710  0.4611849629707179  0.3875180686462177   T   T   T
  0.3374067182271173  0.5716039573844964  0.5123549875870191   T   T   T
  0.5989337440833092  0.5725055306245240  0.3074230629904221   T   T   T
  0.6126616283009710  0.6145826832282133  0.5754641110476096   T   T   T
  0.4405863914252245  0.6139874387029479  0.3234295562526766   T   T   T
  0.5631742581607654  0.2578443406688542  0.3738223771373068   T   T   T
 
  0.00000000E+00  0.00000000E+00  0.00000000E+00
  0.00000000E+00  0.00000000E+00  0.00000000E+00
  0.00000000E+00  0.00000000E+00  0.00000000E+00
  0.00000000E+00  0.00000000E+00  0.00000000E+00
  0.00000000E+00  0.00000000E+00  0.00000000E+00
  0.00000000E+00  0.00000000E+00  0.00000000E+00
  0.00000000E+00  0.00000000E+00  0.00000000E+00
  0.00000000E+00  0.00000000E+00  0.00000000E+00
  0.00000000E+00  0.00000000E+00  0.00000000E+00
  0.00000000E+00  0.00000000E+00  0.00000000E+00
  0.00000000E+00  0.00000000E+00  0.00000000E+00
  0.00000000E+00  0.00000000E+00  0.00000000E+00
  0.00000000E+00  0.00000000E+00  0.00000000E+00
  0.00000000E+00  0.00000000E+00  0.00000000E+00
  0.00000000E+00  0.00000000E+00  0.00000000E+00
  0.00000000E+00  0.00000000E+00  0.00000000E+00
  0.00000000E+00  0.00000000E+00  0.00000000E+00
  0.00000000E+00  0.00000000E+00  0.00000000E+00
  0.00000000E+00  0.00000000E+00  0.00000000E+00
  0.00000000E+00  0.00000000E+00  0.00000000E+00
  0.00000000E+00  0.00000000E+00  0.00000000E+00
  0.00000000E+00  0.00000000E+00  0.00000000E+00
  0.00000000E+00  0.00000000E+00  0.00000000E+00
  0.00000000E+00  0.00000000E+00  0.00000000E+00
  0.00000000E+00  0.00000000E+00  0.00000000E+00
  0.00000000E+00  0.00000000E+00  0.00000000E+00
  0.00000000E+00  0.00000000E+00  0.00000000E+00
  0.00000000E+00  0.00000000E+00  0.00000000E+00
  0.00000000E+00  0.00000000E+00  0.00000000E+00
  0.00000000E+00  0.00000000E+00  0.00000000E+00
  0.00000000E+00  0.00000000E+00  0.00000000E+00
  0.00000000E+00  0.00000000E+00  0.00000000E+00
  0.00000000E+00  0.00000000E+00  0.00000000E+00
  0.00000000E+00  0.00000000E+00  0.00000000E+00
  0.00000000E+00  0.00000000E+00  0.00000000E+00
  0.00000000E+00  0.00000000E+00  0.00000000E+00
  0.00000000E+00  0.00000000E+00  0.00000000E+00
  0.00000000E+00  0.00000000E+00  0.00000000E+00
  0.00000000E+00  0.00000000E+00  0.00000000E+00
  0.00000000E+00  0.00000000E+00  0.00000000E+00
  0.00000000E+00  0.00000000E+00  0.00000000E+00
  0.00000000E+00  0.00000000E+00  0.00000000E+00
  0.00000000E+00  0.00000000E+00  0.00000000E+00
  0.00000000E+00  0.00000000E+00  0.00000000E+00
  0.00000000E+00  0.00000000E+00  0.00000000E+00
  0.00000000E+00  0.00000000E+00  0.00000000E+00
  0.00000000E+00  0.00000000E+00  0.00000000E+00
  0.00000000E+00  0.00000000E+00  0.00000000E+00
  0.00000000E+00  0.00000000E+00  0.00000000E+00
  0.00000000E+00  0.00000000E+00  0.00000000E+00
  0.00000000E+00  0.00000000E+00  0.00000000E+00
  0.00000000E+00  0.00000000E+00  0.00000000E+00
  0.00000000E+00  0.00000000E+00  0.00000000E+00
  0.00000000E+00  0.00000000E+00  0.00000000E+00
  0.00000000E+00  0.00000000E+00  0.00000000E+00
  0.00000000E+00  0.00000000E+00  0.00000000E+00
  0.00000000E+00  0.00000000E+00  0.00000000E+00
  0.00000000E+00  0.00000000E+00  0.00000000E+00
  0.00000000E+00  0.00000000E+00  0.00000000E+00
  0.00000000E+00  0.00000000E+00  0.00000000E+00
  0.00000000E+00  0.00000000E+00  0.00000000E+00
  0.00000000E+00  0.00000000E+00  0.00000000E+00
  0.00000000E+00  0.00000000E+00  0.00000000E+00
  0.00000000E+00  0.00000000E+00  0.00000000E+00
  0.00000000E+00  0.00000000E+00  0.00000000E+00
  0.00000000E+00  0.00000000E+00  0.00000000E+00
  0.00000000E+00  0.00000000E+00  0.00000000E+00
  0.00000000E+00  0.00000000E+00  0.00000000E+00
  0.00000000E+00  0.00000000E+00  0.00000000E+00
