La Co Ni Sn Bi H                        
   1.00000000000000     
    29.1044006348000011    0.0000000000000000    0.0000000000000000
     0.4451680315000000   28.3694074727000007    0.0000000000000000
     0.0682082826000000    0.3036559964000000   28.5240018092999996
   La   Co   Ni   Sn   Bi   H 
    14    13    13    14    14     1
Selective dynamics
Direct
  0.5921555548308698  0.4206025767172094  0.4073477595771782   T   T   T
  0.6856109776974483  0.5710858332675215  0.3814310625076050   T   T   T
  0.4952473697888592  0.5285721829106872  0.2819285703721006   T   T   T
  0.5623667358091931  0.5212116717656000  0.6020175025725707   T   T   T
  0.5080028314773816  0.3896361623269148  0.3030100111005561   T   T   T
  0.5751502450787246  0.6555025615102478  0.4838763954541649   T   T   T
  0.5101328528344664  0.3375478626864089  0.4981590034385973   T   T   T
  0.5348303485188567  0.6377798526536872  0.3754621379596746   T   T   T
  0.4358549344833046  0.6430661529245032  0.5361091099820243   T   T   T
  0.4373551010143757  0.5015757590148624  0.3842817269995109   F   F   F
  0.4437846394494898  0.4460183835780285  0.5005161578087822   F   F   F
  0.3876947965946658  0.4657584232095925  0.6089779124129464   T   T   T
  0.3438782820677801  0.4448147992963369  0.3470022961486935   T   T   T
  0.3613779198234799  0.5855514613715687  0.3941929962805853   T   T   T
  0.4217425606853311  0.4061295180575186  0.3699802678458894   F   F   F
  0.5011311695957161  0.4887203336762909  0.4395023580252015   F   F   F
  0.4044148221271726  0.6101724300038001  0.4624736492929173   F   F   F
  0.4722931245665194  0.5596737886932672  0.5729988711091565   F   F   F
  0.6552684236953183  0.5165424048424470  0.4543399438695133   F   F   F
  0.5967309916701211  0.5535378348504167  0.5056109707055541   F   F   F
  0.5314074673932367  0.5941153005651714  0.5336729985293047   F   F   F
  0.5796732686089143  0.4997731718447866  0.4507473928409595   F   F   F
  0.4594119728096119  0.3287420672589246  0.3454345791941359   T   T   T
  0.3905180950192175  0.5252419063175111  0.4552418453041511   F   F   F
  0.4545565708376783  0.3250731530692736  0.4240746690478283   T   T   T
  0.5074804872141527  0.4592780196109629  0.3501259710292359   F   F   F
  0.6012877811302459  0.4669891268301640  0.5212355700313438   F   F   F
  0.5384608035519776  0.4312182275275163  0.4821288228790692   F   F   F
  0.4713083414346286  0.4805797151798927  0.5807598339419258   F   F   F
  0.3771163837573610  0.4514853175274567  0.4282230665427278   F   F   F
  0.4059018739390154  0.3822235888080883  0.4561785915149272   F   F   F
  0.5357818896390683  0.5680835373033233  0.4543473312664048   F   F   F
  0.4924712632432886  0.6367287407321953  0.4646113344718685   F   F   F
  0.4677327221812249  0.5829886973614862  0.4038343643763724   F   F   F
  0.5280944416629296  0.5063826634733033  0.5194466411805863   F   F   F
  0.6212454441397384  0.5105019604624417  0.3755946010283822   F   F   F
  0.6054499763524817  0.5821019035045651  0.4188664505762958   F   F   F
  0.4050790883739026  0.5245211222763402  0.5434909784116542   F   F   F
  0.3511218091646370  0.4696331646506346  0.5088602747207432   T   T   T
  0.4350843251790630  0.4551000481740450  0.3001324048137785   T   T   T
  0.5377696463157766  0.4214276621114271  0.5685244279682622   T   T   T
  0.3577109825153372  0.3861288036351989  0.5389826989438150   T   T   T
  0.4625951421883201  0.5516617238622956  0.4875128022361963   F   F   F
  0.6071852413014155  0.3756853309082589  0.5100885192822722   T   T   T
  0.4914101464531485  0.4375494035503835  0.6573417171220522   T   T   T
  0.5872903989730309  0.4682895865157174  0.3061487091898435   T   T   T
  0.4900497958562298  0.4037080615820798  0.4151644571778519   F   F   F
  0.4353147688619962  0.6747796131203156  0.4131280960134540   T   T   T
  0.4684610176586812  0.5359787361615460  0.6602173998012900   T   T   T
  0.5397532608265934  0.5319899791087650  0.3771480104995177   F   F   F
  0.6683800461032129  0.6003946467902633  0.4839537886453026   T   T   T
  0.6656583732797873  0.5190525476071606  0.5508164951500347   T   T   T
  0.3742595744003959  0.3345572508612553  0.3859411684504758   T   T   T
  0.6792195915809314  0.4367800534407233  0.4865242323652271   T   T   T
  0.5394509518031754  0.3192201918298157  0.3896403915527192   T   T   T
  0.3025035558115242  0.5030596184723948  0.4372058883791773   T   T   T
  0.3132239110002231  0.3953648796590741  0.4486903970080753   T   T   T
  0.5125915789974876  0.6246758199248295  0.6172227035300903   T   T   T
  0.4492660274305141  0.3728982478053528  0.5842376708259517   T   T   T
  0.3905701567373108  0.5794687670106605  0.6135338679154765   T   T   T
  0.4064511869894017  0.3048328379272147  0.5007752136150327   T   T   T
  0.4009594581448426  0.3701358763156127  0.2889113685657247   T   T   T
  0.3839905292491880  0.5330595369585288  0.2935075990575386   T   T   T
  0.6926457378478134  0.4602577098352945  0.3871217762478678   T   T   T
  0.3376799465679262  0.5722724124371256  0.5128179669985365   T   T   T
  0.5997551525078727  0.5730886424101804  0.3085214087073500   T   T   T
  0.6126610261065629  0.6139398969229487  0.5759563202922983   T   T   T
  0.4393337553840699  0.6154205206872232  0.3240721017236539   T   T   T
  0.4667919329056392  0.4553671682248287  0.2538647659566766   T   T   T
 
  0.00000000E+00  0.00000000E+00  0.00000000E+00
  0.00000000E+00  0.00000000E+00  0.00000000E+00
  0.00000000E+00  0.00000000E+00  0.00000000E+00
  0.00000000E+00  0.00000000E+00  0.00000000E+00
  0.00000000E+00  0.00000000E+00  0.00000000E+00
  0.00000000E+00  0.00000000E+00  0.00000000E+00
  0.00000000E+00  0.00000000E+00  0.00000000E+00
  0.00000000E+00  0.00000000E+00  0.00000000E+00
  0.00000000E+00  0.00000000E+00  0.00000000E+00
  0.00000000E+00  0.00000000E+00  0.00000000E+00
  0.00000000E+00  0.00000000E+00  0.00000000E+00
  0.00000000E+00  0.00000000E+00  0.00000000E+00
  0.00000000E+00  0.00000000E+00  0.00000000E+00
  0.00000000E+00  0.00000000E+00  0.00000000E+00
  0.00000000E+00  0.00000000E+00  0.00000000E+00
  0.00000000E+00  0.00000000E+00  0.00000000E+00
  0.00000000E+00  0.00000000E+00  0.00000000E+00
  0.00000000E+00  0.00000000E+00  0.00000000E+00
  0.00000000E+00  0.00000000E+00  0.00000000E+00
  0.00000000E+00  0.00000000E+00  0.00000000E+00
  0.00000000E+00  0.00000000E+00  0.00000000E+00
  0.00000000E+00  0.00000000E+00  0.00000000E+00
  0.00000000E+00  0.00000000E+00  0.00000000E+00
  0.00000000E+00  0.00000000E+00  0.00000000E+00
  0.00000000E+00  0.00000000E+00  0.00000000E+00
  0.00000000E+00  0.00000000E+00  0.00000000E+00
  0.00000000E+00  0.00000000E+00  0.00000000E+00
  0.00000000E+00  0.00000000E+00  0.00000000E+00
  0.00000000E+00  0.00000000E+00  0.00000000E+00
  0.00000000E+00  0.00000000E+00  0.00000000E+00
  0.00000000E+00  0.00000000E+00  0.00000000E+00
  0.00000000E+00  0.00000000E+00  0.00000000E+00
  0.00000000E+00  0.00000000E+00  0.00000000E+00
  0.00000000E+00  0.00000000E+00  0.00000000E+00
  0.00000000E+00  0.00000000E+00  0.00000000E+00
  0.00000000E+00  0.00000000E+00  0.00000000E+00
  0.00000000E+00  0.00000000E+00  0.00000000E+00
  0.00000000E+00  0.00000000E+00  0.00000000E+00
  0.00000000E+00  0.00000000E+00  0.00000000E+00
  0.00000000E+00  0.00000000E+00  0.00000000E+00
  0.00000000E+00  0.00000000E+00  0.00000000E+00
  0.00000000E+00  0.00000000E+00  0.00000000E+00
  0.00000000E+00  0.00000000E+00  0.00000000E+00
  0.00000000E+00  0.00000000E+00  0.00000000E+00
  0.00000000E+00  0.00000000E+00  0.00000000E+00
  0.00000000E+00  0.00000000E+00  0.00000000E+00
  0.00000000E+00  0.00000000E+00  0.00000000E+00
  0.00000000E+00  0.00000000E+00  0.00000000E+00
  0.00000000E+00  0.00000000E+00  0.00000000E+00
  0.00000000E+00  0.00000000E+00  0.00000000E+00
  0.00000000E+00  0.00000000E+00  0.00000000E+00
  0.00000000E+00  0.00000000E+00  0.00000000E+00
  0.00000000E+00  0.00000000E+00  0.00000000E+00
  0.00000000E+00  0.00000000E+00  0.00000000E+00
  0.00000000E+00  0.00000000E+00  0.00000000E+00
  0.00000000E+00  0.00000000E+00  0.00000000E+00
  0.00000000E+00  0.00000000E+00  0.00000000E+00
  0.00000000E+00  0.00000000E+00  0.00000000E+00
  0.00000000E+00  0.00000000E+00  0.00000000E+00
  0.00000000E+00  0.00000000E+00  0.00000000E+00
  0.00000000E+00  0.00000000E+00  0.00000000E+00
  0.00000000E+00  0.00000000E+00  0.00000000E+00
  0.00000000E+00  0.00000000E+00  0.00000000E+00
  0.00000000E+00  0.00000000E+00  0.00000000E+00
  0.00000000E+00  0.00000000E+00  0.00000000E+00
  0.00000000E+00  0.00000000E+00  0.00000000E+00
  0.00000000E+00  0.00000000E+00  0.00000000E+00
  0.00000000E+00  0.00000000E+00  0.00000000E+00
  0.00000000E+00  0.00000000E+00  0.00000000E+00
