La Co Ni Sn Bi H                        
   1.00000000000000     
    29.1044006348000011    0.0000000000000000    0.0000000000000000
     0.4451680315000000   28.3694074727000007    0.0000000000000000
     0.0682082826000000    0.3036559964000000   28.5240018092999996
   La   Co   Ni   Sn   Bi   H 
    14    13    13    14    14     1
Selective dynamics
Direct
  0.5920691445322520  0.4208288652359592  0.4068431208532797   T   T   T
  0.6852860674212105  0.5713077208563538  0.3812272496219745   T   T   T
  0.4947229284846382  0.5286700792788211  0.2828028486762287   T   T   T
  0.5625141129300860  0.5213109978894445  0.6019745961556623   T   T   T
  0.5104541806015768  0.3871569131318039  0.3043209753752901   T   T   T
  0.5751595812674475  0.6555335663270347  0.4839244476522330   T   T   T
  0.5084538358739384  0.3377795333370854  0.4990981740685128   T   T   T
  0.5347060301182990  0.6378239283414350  0.3756213153417146   T   T   T
  0.4358917810958130  0.6431164010777664  0.5360025371693793   T   T   T
  0.4373551010143757  0.5015757590148624  0.3842817269995109   F   F   F
  0.4437846394494898  0.4460183835780285  0.5005161578087822   F   F   F
  0.3877173578690944  0.4666886442291314  0.6097129007799331   T   T   T
  0.3449481732674050  0.4440044533189402  0.3471114470208549   T   T   T
  0.3613491124890597  0.5853729820392295  0.3943817085171563   T   T   T
  0.4217425606853311  0.4061295180575186  0.3699802678458894   F   F   F
  0.5011311695957161  0.4887203336762909  0.4395023580252015   F   F   F
  0.4044148221271726  0.6101724300038001  0.4624736492929173   F   F   F
  0.4722931245665194  0.5596737886932672  0.5729988711091565   F   F   F
  0.6552684236953183  0.5165424048424470  0.4543399438695133   F   F   F
  0.5967309916701211  0.5535378348504167  0.5056109707055541   F   F   F
  0.5314074673932367  0.5941153005651714  0.5336729985293047   F   F   F
  0.5796732686089143  0.4997731718447866  0.4507473928409595   F   F   F
  0.4603672078983456  0.3306291821666097  0.3442798756403995   T   T   T
  0.3905180950192175  0.5252419063175111  0.4552418453041511   F   F   F
  0.4544633734442112  0.3248947767298939  0.4239553082863226   T   T   T
  0.5074804872141527  0.4592780196109629  0.3501259710292359   F   F   F
  0.6012877811302459  0.4669891268301640  0.5212355700313438   F   F   F
  0.5384608035519776  0.4312182275275163  0.4821288228790692   F   F   F
  0.4713083414346286  0.4805797151798927  0.5807598339419258   F   F   F
  0.3771163837573610  0.4514853175274567  0.4282230665427278   F   F   F
  0.4059018739390154  0.3822235888080883  0.4561785915149272   F   F   F
  0.5357818896390683  0.5680835373033233  0.4543473312664048   F   F   F
  0.4924712632432886  0.6367287407321953  0.4646113344718685   F   F   F
  0.4677327221812249  0.5829886973614862  0.4038343643763724   F   F   F
  0.5280944416629296  0.5063826634733033  0.5194466411805863   F   F   F
  0.6212454441397384  0.5105019604624417  0.3755946010283822   F   F   F
  0.6054499763524817  0.5821019035045651  0.4188664505762958   F   F   F
  0.4050790883739026  0.5245211222763402  0.5434909784116542   F   F   F
  0.3511394997331170  0.4704407252390144  0.5089393121482373   T   T   T
  0.4343092200517988  0.4583002265045902  0.3020766218538862   T   T   T
  0.5379547052021963  0.4215001156877674  0.5685544773679942   T   T   T
  0.3573228400472976  0.3872221217445734  0.5398037888963435   T   T   T
  0.4625951421883201  0.5516617238622956  0.4875128022361963   F   F   F
  0.6061513492065727  0.3747662554194001  0.5091801839769907   T   T   T
  0.4916439580826565  0.4380690988865570  0.6575472055184364   T   T   T
  0.5869881754200738  0.4688646259449981  0.3057959332549856   T   T   T
  0.4900497958562298  0.4037080615820798  0.4151644571778519   F   F   F
  0.4351545199278525  0.6751831671952719  0.4135101695729579   T   T   T
  0.4686716602775714  0.5365887871747707  0.6601593456101628   T   T   T
  0.5397532608265934  0.5319899791087650  0.3771480104995177   F   F   F
  0.6684861965486718  0.6003596037924466  0.4840379956948930   T   T   T
  0.6657985949802724  0.5188665153003608  0.5503404140263893   T   T   T
  0.3748443598320507  0.3346773182743039  0.3846424551055627   T   T   T
  0.6782127558887596  0.4362624402598632  0.4863560257100751   T   T   T
  0.5395705082512846  0.3187971120209789  0.3915832139902262   T   T   T
  0.3023453969024372  0.5022269455487840  0.4369726489684289   T   T   T
  0.3135694763104104  0.3948494127714731  0.4490371291310263   T   T   T
  0.5124349047634815  0.6249422864569152  0.6170434017143233   T   T   T
  0.4486901782313973  0.3738211853419141  0.5850458493236913   T   T   T
  0.3905214211961191  0.5799468282940682  0.6134331983149852   T   T   T
  0.4042909080988865  0.3058126625288397  0.5008806557313524   T   T   T
  0.4040285236262534  0.3727131577311122  0.2867089407836449   T   T   T
  0.3831153029234304  0.5340005829088315  0.2928659716981677   T   T   T
  0.6928439088679275  0.4606076725351335  0.3874063858029702   T   T   T
  0.3377129566900660  0.5723215937090290  0.5127346430171114   T   T   T
  0.5993495841392465  0.5732364070626681  0.3082247667533542   T   T   T
  0.6127239734807352  0.6140423401479814  0.5758179063861323   T   T   T
  0.4392278179865176  0.6158377354842746  0.3243837209874188   T   T   T
  0.4789879672984590  0.3051385277081164  0.3009639696453804   T   T   T
 
  0.00000000E+00  0.00000000E+00  0.00000000E+00
  0.00000000E+00  0.00000000E+00  0.00000000E+00
  0.00000000E+00  0.00000000E+00  0.00000000E+00
  0.00000000E+00  0.00000000E+00  0.00000000E+00
  0.00000000E+00  0.00000000E+00  0.00000000E+00
  0.00000000E+00  0.00000000E+00  0.00000000E+00
  0.00000000E+00  0.00000000E+00  0.00000000E+00
  0.00000000E+00  0.00000000E+00  0.00000000E+00
  0.00000000E+00  0.00000000E+00  0.00000000E+00
  0.00000000E+00  0.00000000E+00  0.00000000E+00
  0.00000000E+00  0.00000000E+00  0.00000000E+00
  0.00000000E+00  0.00000000E+00  0.00000000E+00
  0.00000000E+00  0.00000000E+00  0.00000000E+00
  0.00000000E+00  0.00000000E+00  0.00000000E+00
  0.00000000E+00  0.00000000E+00  0.00000000E+00
  0.00000000E+00  0.00000000E+00  0.00000000E+00
  0.00000000E+00  0.00000000E+00  0.00000000E+00
  0.00000000E+00  0.00000000E+00  0.00000000E+00
  0.00000000E+00  0.00000000E+00  0.00000000E+00
  0.00000000E+00  0.00000000E+00  0.00000000E+00
  0.00000000E+00  0.00000000E+00  0.00000000E+00
  0.00000000E+00  0.00000000E+00  0.00000000E+00
  0.00000000E+00  0.00000000E+00  0.00000000E+00
  0.00000000E+00  0.00000000E+00  0.00000000E+00
  0.00000000E+00  0.00000000E+00  0.00000000E+00
  0.00000000E+00  0.00000000E+00  0.00000000E+00
  0.00000000E+00  0.00000000E+00  0.00000000E+00
  0.00000000E+00  0.00000000E+00  0.00000000E+00
  0.00000000E+00  0.00000000E+00  0.00000000E+00
  0.00000000E+00  0.00000000E+00  0.00000000E+00
  0.00000000E+00  0.00000000E+00  0.00000000E+00
  0.00000000E+00  0.00000000E+00  0.00000000E+00
  0.00000000E+00  0.00000000E+00  0.00000000E+00
  0.00000000E+00  0.00000000E+00  0.00000000E+00
  0.00000000E+00  0.00000000E+00  0.00000000E+00
  0.00000000E+00  0.00000000E+00  0.00000000E+00
  0.00000000E+00  0.00000000E+00  0.00000000E+00
  0.00000000E+00  0.00000000E+00  0.00000000E+00
  0.00000000E+00  0.00000000E+00  0.00000000E+00
  0.00000000E+00  0.00000000E+00  0.00000000E+00
  0.00000000E+00  0.00000000E+00  0.00000000E+00
  0.00000000E+00  0.00000000E+00  0.00000000E+00
  0.00000000E+00  0.00000000E+00  0.00000000E+00
  0.00000000E+00  0.00000000E+00  0.00000000E+00
  0.00000000E+00  0.00000000E+00  0.00000000E+00
  0.00000000E+00  0.00000000E+00  0.00000000E+00
  0.00000000E+00  0.00000000E+00  0.00000000E+00
  0.00000000E+00  0.00000000E+00  0.00000000E+00
  0.00000000E+00  0.00000000E+00  0.00000000E+00
  0.00000000E+00  0.00000000E+00  0.00000000E+00
  0.00000000E+00  0.00000000E+00  0.00000000E+00
  0.00000000E+00  0.00000000E+00  0.00000000E+00
  0.00000000E+00  0.00000000E+00  0.00000000E+00
  0.00000000E+00  0.00000000E+00  0.00000000E+00
  0.00000000E+00  0.00000000E+00  0.00000000E+00
  0.00000000E+00  0.00000000E+00  0.00000000E+00
  0.00000000E+00  0.00000000E+00  0.00000000E+00
  0.00000000E+00  0.00000000E+00  0.00000000E+00
  0.00000000E+00  0.00000000E+00  0.00000000E+00
  0.00000000E+00  0.00000000E+00  0.00000000E+00
  0.00000000E+00  0.00000000E+00  0.00000000E+00
  0.00000000E+00  0.00000000E+00  0.00000000E+00
  0.00000000E+00  0.00000000E+00  0.00000000E+00
  0.00000000E+00  0.00000000E+00  0.00000000E+00
  0.00000000E+00  0.00000000E+00  0.00000000E+00
  0.00000000E+00  0.00000000E+00  0.00000000E+00
  0.00000000E+00  0.00000000E+00  0.00000000E+00
  0.00000000E+00  0.00000000E+00  0.00000000E+00
  0.00000000E+00  0.00000000E+00  0.00000000E+00
