La Co Ni Sn Bi H                        
   1.00000000000000     
    29.1044006348000011    0.0000000000000000    0.0000000000000000
     0.4451680315000000   28.3694074727000007    0.0000000000000000
     0.0682082826000000    0.3036559964000000   28.5240018092999996
   La   Co   Ni   Sn   Bi   H 
    14    13    13    14    14     1
Selective dynamics
Direct
  0.5923922521591365  0.4207614159792823  0.4076756437116714   T   T   T
  0.6848923523019008  0.5717144280511153  0.3812070219303868   T   T   T
  0.4954699180411318  0.5263242142344445  0.2820447820261583   T   T   T
  0.5604591520361161  0.5217977062235601  0.6034047669192051   T   T   T
  0.5090592538396547  0.3863631663739288  0.3057368120915342   T   T   T
  0.5756680154754148  0.6554404537348490  0.4839267055737713   T   T   T
  0.5075799230705226  0.3390180140365959  0.5006096990676956   T   T   T
  0.5356055067587649  0.6376093850220697  0.3753261899832706   T   T   T
  0.4357591544605310  0.6439253820386922  0.5347895184432745   T   T   T
  0.4373551010143757  0.5015757590148624  0.3842817269995109   F   F   F
  0.4437846394494898  0.4460183835780285  0.5005161578087822   F   F   F
  0.3863490496286266  0.4689215200894043  0.6107174269668614   T   T   T
  0.3446690953118865  0.4435745089430336  0.3469836771114486   T   T   T
  0.3621152041661709  0.5855177625346285  0.3930355866612680   T   T   T
  0.4217425606853311  0.4061295180575186  0.3699802678458894   F   F   F
  0.5011311695957161  0.4887203336762909  0.4395023580252015   F   F   F
  0.4044148221271726  0.6101724300038001  0.4624736492929173   F   F   F
  0.4722931245665194  0.5596737886932672  0.5729988711091565   F   F   F
  0.6552684236953183  0.5165424048424470  0.4543399438695133   F   F   F
  0.5967309916701211  0.5535378348504167  0.5056109707055541   F   F   F
  0.5314074673932367  0.5941153005651714  0.5336729985293047   F   F   F
  0.5796732686089143  0.4997731718447866  0.4507473928409595   F   F   F
  0.4615530302006787  0.3313425201106437  0.3445497190595840   T   T   T
  0.3905180950192175  0.5252419063175111  0.4552418453041511   F   F   F
  0.4541696214276958  0.3243972724143961  0.4239581617152527   T   T   T
  0.5074804872141527  0.4592780196109629  0.3501259710292359   F   F   F
  0.6012877811302459  0.4669891268301640  0.5212355700313438   F   F   F
  0.5384608035519776  0.4312182275275163  0.4821288228790692   F   F   F
  0.4713083414346286  0.4805797151798927  0.5807598339419258   F   F   F
  0.3771163837573610  0.4514853175274567  0.4282230665427278   F   F   F
  0.4059018739390154  0.3822235888080883  0.4561785915149272   F   F   F
  0.5357818896390683  0.5680835373033233  0.4543473312664048   F   F   F
  0.4924712632432886  0.6367287407321953  0.4646113344718685   F   F   F
  0.4677327221812249  0.5829886973614862  0.4038343643763724   F   F   F
  0.5280944416629296  0.5063826634733033  0.5194466411805863   F   F   F
  0.6212454441397384  0.5105019604624417  0.3755946010283822   F   F   F
  0.6054499763524817  0.5821019035045651  0.4188664505762958   F   F   F
  0.4050790883739026  0.5245211222763402  0.5434909784116542   F   F   F
  0.3504264139429643  0.4701527096777588  0.5081670512204089   T   T   T
  0.4339208543604361  0.4567436134354649  0.3018567295165162   T   T   T
  0.5389594846972370  0.4224131563454179  0.5681637293177727   T   T   T
  0.3588275188868148  0.3877012503922756  0.5406511160872423   T   T   T
  0.4625951421883201  0.5516617238622956  0.4875128022361963   F   F   F
  0.6061503757994661  0.3741604914714936  0.5089144766812221   T   T   T
  0.4902458870817475  0.4418323738945233  0.6606631151613204   T   T   T
  0.5873979698031260  0.4672826817563079  0.3062450027749520   T   T   T
  0.4900497958562298  0.4037080615820798  0.4151644571778519   F   F   F
  0.4355788526880761  0.6741130921357176  0.4121807573722919   T   T   T
  0.4672487410067338  0.5418086292626413  0.6600982491802178   T   T   T
  0.5397532608265934  0.5319899791087650  0.3771480104995177   F   F   F
  0.6686142167175256  0.6003192694174780  0.4841553219838434   T   T   T
  0.6652909403150586  0.5188135797350123  0.5510695681604517   T   T   T
  0.3746821110927469  0.3347015184949727  0.3850320596137508   T   T   T
  0.6784995735772933  0.4363399136505252  0.4870025629797699   T   T   T
  0.5398208219608041  0.3187941609917274  0.3931490577489070   T   T   T
  0.3025215224210809  0.5030604839348688  0.4358817812239401   T   T   T
  0.3135884435225172  0.3957633277448559  0.4503884133541241   T   T   T
  0.5124440901073736  0.6275821729938356  0.6152603898866237   T   T   T
  0.4499923512184414  0.3770601241505053  0.5878647038007985   T   T   T
  0.3889958600608538  0.5821890022965444  0.6119197857865688   T   T   T
  0.4046186315919149  0.3059265967665773  0.5013289695761081   T   T   T
  0.4027799545435057  0.3712118848793791  0.2869696767328434   T   T   T
  0.3838841240880115  0.5330386818357944  0.2921124694296619   T   T   T
  0.6929469775590025  0.4607490528660610  0.3877933369769729   T   T   T
  0.3373164657593832  0.5717949516718823  0.5123978961270889   T   T   T
  0.5992543276217708  0.5721988487165642  0.3076737138160520   T   T   T
  0.6123988089504426  0.6135682199083748  0.5762991045550134   T   T   T
  0.4408998049838760  0.6143266946956818  0.3233251831769530   T   T   T
  0.4294122393239546  0.4586580329954585  0.6798578681905868   T   T   T
 
  0.00000000E+00  0.00000000E+00  0.00000000E+00
  0.00000000E+00  0.00000000E+00  0.00000000E+00
  0.00000000E+00  0.00000000E+00  0.00000000E+00
  0.00000000E+00  0.00000000E+00  0.00000000E+00
  0.00000000E+00  0.00000000E+00  0.00000000E+00
  0.00000000E+00  0.00000000E+00  0.00000000E+00
  0.00000000E+00  0.00000000E+00  0.00000000E+00
  0.00000000E+00  0.00000000E+00  0.00000000E+00
  0.00000000E+00  0.00000000E+00  0.00000000E+00
  0.00000000E+00  0.00000000E+00  0.00000000E+00
  0.00000000E+00  0.00000000E+00  0.00000000E+00
  0.00000000E+00  0.00000000E+00  0.00000000E+00
  0.00000000E+00  0.00000000E+00  0.00000000E+00
  0.00000000E+00  0.00000000E+00  0.00000000E+00
  0.00000000E+00  0.00000000E+00  0.00000000E+00
  0.00000000E+00  0.00000000E+00  0.00000000E+00
  0.00000000E+00  0.00000000E+00  0.00000000E+00
  0.00000000E+00  0.00000000E+00  0.00000000E+00
  0.00000000E+00  0.00000000E+00  0.00000000E+00
  0.00000000E+00  0.00000000E+00  0.00000000E+00
  0.00000000E+00  0.00000000E+00  0.00000000E+00
  0.00000000E+00  0.00000000E+00  0.00000000E+00
  0.00000000E+00  0.00000000E+00  0.00000000E+00
  0.00000000E+00  0.00000000E+00  0.00000000E+00
  0.00000000E+00  0.00000000E+00  0.00000000E+00
  0.00000000E+00  0.00000000E+00  0.00000000E+00
  0.00000000E+00  0.00000000E+00  0.00000000E+00
  0.00000000E+00  0.00000000E+00  0.00000000E+00
  0.00000000E+00  0.00000000E+00  0.00000000E+00
  0.00000000E+00  0.00000000E+00  0.00000000E+00
  0.00000000E+00  0.00000000E+00  0.00000000E+00
  0.00000000E+00  0.00000000E+00  0.00000000E+00
  0.00000000E+00  0.00000000E+00  0.00000000E+00
  0.00000000E+00  0.00000000E+00  0.00000000E+00
  0.00000000E+00  0.00000000E+00  0.00000000E+00
  0.00000000E+00  0.00000000E+00  0.00000000E+00
  0.00000000E+00  0.00000000E+00  0.00000000E+00
  0.00000000E+00  0.00000000E+00  0.00000000E+00
  0.00000000E+00  0.00000000E+00  0.00000000E+00
  0.00000000E+00  0.00000000E+00  0.00000000E+00
  0.00000000E+00  0.00000000E+00  0.00000000E+00
  0.00000000E+00  0.00000000E+00  0.00000000E+00
  0.00000000E+00  0.00000000E+00  0.00000000E+00
  0.00000000E+00  0.00000000E+00  0.00000000E+00
  0.00000000E+00  0.00000000E+00  0.00000000E+00
  0.00000000E+00  0.00000000E+00  0.00000000E+00
  0.00000000E+00  0.00000000E+00  0.00000000E+00
  0.00000000E+00  0.00000000E+00  0.00000000E+00
  0.00000000E+00  0.00000000E+00  0.00000000E+00
  0.00000000E+00  0.00000000E+00  0.00000000E+00
  0.00000000E+00  0.00000000E+00  0.00000000E+00
  0.00000000E+00  0.00000000E+00  0.00000000E+00
  0.00000000E+00  0.00000000E+00  0.00000000E+00
  0.00000000E+00  0.00000000E+00  0.00000000E+00
  0.00000000E+00  0.00000000E+00  0.00000000E+00
  0.00000000E+00  0.00000000E+00  0.00000000E+00
  0.00000000E+00  0.00000000E+00  0.00000000E+00
  0.00000000E+00  0.00000000E+00  0.00000000E+00
  0.00000000E+00  0.00000000E+00  0.00000000E+00
  0.00000000E+00  0.00000000E+00  0.00000000E+00
  0.00000000E+00  0.00000000E+00  0.00000000E+00
  0.00000000E+00  0.00000000E+00  0.00000000E+00
  0.00000000E+00  0.00000000E+00  0.00000000E+00
  0.00000000E+00  0.00000000E+00  0.00000000E+00
  0.00000000E+00  0.00000000E+00  0.00000000E+00
  0.00000000E+00  0.00000000E+00  0.00000000E+00
  0.00000000E+00  0.00000000E+00  0.00000000E+00
  0.00000000E+00  0.00000000E+00  0.00000000E+00
  0.00000000E+00  0.00000000E+00  0.00000000E+00
