La Co Ni Sn Bi H                        
   1.00000000000000     
    29.1044006348000011    0.0000000000000000    0.0000000000000000
     0.4451680315000000   28.3694074727000007    0.0000000000000000
     0.0682082826000000    0.3036559964000000   28.5240018092999996
   La   Co   Ni   Sn   Bi   H 
    14    13    13    14    14     1
Selective dynamics
Direct
  0.5923160022662578  0.4202847178155211  0.4074513093676813   T   T   T
  0.6849677800139987  0.5717160630178781  0.3808329069519586   T   T   T
  0.4956010932067338  0.5283125664152539  0.2824752721158866   T   T   T
  0.5625572143424282  0.5216226510141280  0.6019474904256435   T   T   T
  0.5079861421256853  0.3878580922661288  0.3048016350914174   T   T   T
  0.5751072829712645  0.6553839183465083  0.4832695081046915   T   T   T
  0.5101197826088957  0.3379609771914728  0.4987859871067950   T   T   T
  0.5353531908741581  0.6377102130543884  0.3753024005331220   T   T   T
  0.4354430069381057  0.6429770816702801  0.5356879540749986   T   T   T
  0.4373551010143757  0.5015757590148624  0.3842817269995109   F   F   F
  0.4437846394494898  0.4460183835780285  0.5005161578087822   F   F   F
  0.3877040836510242  0.4661309077757048  0.6089720984482438   T   T   T
  0.3441926047551825  0.4453856685433885  0.3464829733673987   T   T   T
  0.3609859410184158  0.5839507165422687  0.3931069795593097   T   T   T
  0.4217425606853311  0.4061295180575186  0.3699802678458894   F   F   F
  0.5011311695957161  0.4887203336762909  0.4395023580252015   F   F   F
  0.4044148221271726  0.6101724300038001  0.4624736492929173   F   F   F
  0.4722931245665194  0.5596737886932672  0.5729988711091565   F   F   F
  0.6552684236953183  0.5165424048424470  0.4543399438695133   F   F   F
  0.5967309916701211  0.5535378348504167  0.5056109707055541   F   F   F
  0.5314074673932367  0.5941153005651714  0.5336729985293047   F   F   F
  0.5796732686089143  0.4997731718447866  0.4507473928409595   F   F   F
  0.4598275527536292  0.3303297066057284  0.3433397618217530   T   T   T
  0.3905180950192175  0.5252419063175111  0.4552418453041511   F   F   F
  0.4534644625277807  0.3244146641013160  0.4221678486069253   T   T   T
  0.5074804872141527  0.4592780196109629  0.3501259710292359   F   F   F
  0.6012877811302459  0.4669891268301640  0.5212355700313438   F   F   F
  0.5384608035519776  0.4312182275275163  0.4821288228790692   F   F   F
  0.4713083414346286  0.4805797151798927  0.5807598339419258   F   F   F
  0.3771163837573610  0.4514853175274567  0.4282230665427278   F   F   F
  0.4059018739390154  0.3822235888080883  0.4561785915149272   F   F   F
  0.5357818896390683  0.5680835373033233  0.4543473312664048   F   F   F
  0.4924712632432886  0.6367287407321953  0.4646113344718685   F   F   F
  0.4677327221812249  0.5829886973614862  0.4038343643763724   F   F   F
  0.5280944416629296  0.5063826634733033  0.5194466411805863   F   F   F
  0.6212454441397384  0.5105019604624417  0.3755946010283822   F   F   F
  0.6054499763524817  0.5821019035045651  0.4188664505762958   F   F   F
  0.4050790883739026  0.5245211222763402  0.5434909784116542   F   F   F
  0.3500065379276507  0.4728824365632332  0.5085469640596839   T   T   T
  0.4339161736519362  0.4575325447241395  0.3023181738067095   T   T   T
  0.5379130550844761  0.4216704274480862  0.5687240619931218   T   T   T
  0.3567053892632130  0.3884379349727563  0.5372822495905928   T   T   T
  0.4625951421883201  0.5516617238622956  0.4875128022361963   F   F   F
  0.6071292163033667  0.3759216292252783  0.5106737743678770   T   T   T
  0.4916187509948722  0.4379004723179452  0.6577296393550247   T   T   T
  0.5872506784210162  0.4677515559547832  0.3063170736238672   T   T   T
  0.4900497958562298  0.4037080615820798  0.4151644571778519   F   F   F
  0.4349613094022682  0.6742002405068975  0.4123464745021712   T   T   T
  0.4683686759764670  0.5365045188134675  0.6600560361223171   T   T   T
  0.5397532608265934  0.5319899791087650  0.3771480104995177   F   F   F
  0.6685407685927029  0.6003652935537017  0.4834552290712534   T   T   T
  0.6658548674753282  0.5189818776964017  0.5503360942607085   T   T   T
  0.3742934285308716  0.3347750368648043  0.3840886426427314   T   T   T
  0.6790968571907886  0.4367795259109901  0.4865351208710947   T   T   T
  0.5389081457089421  0.3186937801939473  0.3905182086392806   T   T   T
  0.3004819700997723  0.5011822962852235  0.4370808893947076   T   T   T
  0.3135876356732962  0.3931179778530826  0.4464277864100923   T   T   T
  0.5124160446702193  0.6251634338052120  0.6168122805026897   T   T   T
  0.4491427714102588  0.3738563915249110  0.5844800260025380   T   T   T
  0.3903582345989396  0.5795642466059820  0.6135365595333915   T   T   T
  0.4073677355793493  0.3065230585600877  0.5019689893522101   T   T   T
  0.4010675903070173  0.3725660492086019  0.2868575227817377   T   T   T
  0.3844345866766019  0.5338430236403791  0.2912774155207543   T   T   T
  0.6926713672595627  0.4607037819834228  0.3872327832261683   T   T   T
  0.3379573176159809  0.5734882948334341  0.5123050708373841   T   T   T
  0.5992401315089397  0.5725718273519055  0.3076974697522963   T   T   T
  0.6127611304814798  0.6142698133006448  0.5753241063368362   T   T   T
  0.4401624963569893  0.6156039905370062  0.3237561816711756   T   T   T
  0.2973191454918393  0.5789426048869465  0.4388760330608602   T   T   T
 
  0.00000000E+00  0.00000000E+00  0.00000000E+00
  0.00000000E+00  0.00000000E+00  0.00000000E+00
  0.00000000E+00  0.00000000E+00  0.00000000E+00
  0.00000000E+00  0.00000000E+00  0.00000000E+00
  0.00000000E+00  0.00000000E+00  0.00000000E+00
  0.00000000E+00  0.00000000E+00  0.00000000E+00
  0.00000000E+00  0.00000000E+00  0.00000000E+00
  0.00000000E+00  0.00000000E+00  0.00000000E+00
  0.00000000E+00  0.00000000E+00  0.00000000E+00
  0.00000000E+00  0.00000000E+00  0.00000000E+00
  0.00000000E+00  0.00000000E+00  0.00000000E+00
  0.00000000E+00  0.00000000E+00  0.00000000E+00
  0.00000000E+00  0.00000000E+00  0.00000000E+00
  0.00000000E+00  0.00000000E+00  0.00000000E+00
  0.00000000E+00  0.00000000E+00  0.00000000E+00
  0.00000000E+00  0.00000000E+00  0.00000000E+00
  0.00000000E+00  0.00000000E+00  0.00000000E+00
  0.00000000E+00  0.00000000E+00  0.00000000E+00
  0.00000000E+00  0.00000000E+00  0.00000000E+00
  0.00000000E+00  0.00000000E+00  0.00000000E+00
  0.00000000E+00  0.00000000E+00  0.00000000E+00
  0.00000000E+00  0.00000000E+00  0.00000000E+00
  0.00000000E+00  0.00000000E+00  0.00000000E+00
  0.00000000E+00  0.00000000E+00  0.00000000E+00
  0.00000000E+00  0.00000000E+00  0.00000000E+00
  0.00000000E+00  0.00000000E+00  0.00000000E+00
  0.00000000E+00  0.00000000E+00  0.00000000E+00
  0.00000000E+00  0.00000000E+00  0.00000000E+00
  0.00000000E+00  0.00000000E+00  0.00000000E+00
  0.00000000E+00  0.00000000E+00  0.00000000E+00
  0.00000000E+00  0.00000000E+00  0.00000000E+00
  0.00000000E+00  0.00000000E+00  0.00000000E+00
  0.00000000E+00  0.00000000E+00  0.00000000E+00
  0.00000000E+00  0.00000000E+00  0.00000000E+00
  0.00000000E+00  0.00000000E+00  0.00000000E+00
  0.00000000E+00  0.00000000E+00  0.00000000E+00
  0.00000000E+00  0.00000000E+00  0.00000000E+00
  0.00000000E+00  0.00000000E+00  0.00000000E+00
  0.00000000E+00  0.00000000E+00  0.00000000E+00
  0.00000000E+00  0.00000000E+00  0.00000000E+00
  0.00000000E+00  0.00000000E+00  0.00000000E+00
  0.00000000E+00  0.00000000E+00  0.00000000E+00
  0.00000000E+00  0.00000000E+00  0.00000000E+00
  0.00000000E+00  0.00000000E+00  0.00000000E+00
  0.00000000E+00  0.00000000E+00  0.00000000E+00
  0.00000000E+00  0.00000000E+00  0.00000000E+00
  0.00000000E+00  0.00000000E+00  0.00000000E+00
  0.00000000E+00  0.00000000E+00  0.00000000E+00
  0.00000000E+00  0.00000000E+00  0.00000000E+00
  0.00000000E+00  0.00000000E+00  0.00000000E+00
  0.00000000E+00  0.00000000E+00  0.00000000E+00
  0.00000000E+00  0.00000000E+00  0.00000000E+00
  0.00000000E+00  0.00000000E+00  0.00000000E+00
  0.00000000E+00  0.00000000E+00  0.00000000E+00
  0.00000000E+00  0.00000000E+00  0.00000000E+00
  0.00000000E+00  0.00000000E+00  0.00000000E+00
  0.00000000E+00  0.00000000E+00  0.00000000E+00
  0.00000000E+00  0.00000000E+00  0.00000000E+00
  0.00000000E+00  0.00000000E+00  0.00000000E+00
  0.00000000E+00  0.00000000E+00  0.00000000E+00
  0.00000000E+00  0.00000000E+00  0.00000000E+00
  0.00000000E+00  0.00000000E+00  0.00000000E+00
  0.00000000E+00  0.00000000E+00  0.00000000E+00
  0.00000000E+00  0.00000000E+00  0.00000000E+00
  0.00000000E+00  0.00000000E+00  0.00000000E+00
  0.00000000E+00  0.00000000E+00  0.00000000E+00
  0.00000000E+00  0.00000000E+00  0.00000000E+00
  0.00000000E+00  0.00000000E+00  0.00000000E+00
  0.00000000E+00  0.00000000E+00  0.00000000E+00
