La Co Ni Sn Bi H                        
   1.00000000000000     
    29.1044006348000011    0.0000000000000000    0.0000000000000000
     0.4451680315000000   28.3694074727000007    0.0000000000000000
     0.0682082826000000    0.3036559964000000   28.5240018092999996
   La   Co   Ni   Sn   Bi   H 
    14    13    13    14    14     1
Selective dynamics
Direct
  0.5927540009941770  0.4203452019234403  0.4076333909588520   T   T   T
  0.6847577258212079  0.5719174741033837  0.3804396689310527   T   T   T
  0.4952447877247824  0.5280690980810955  0.2825355413036481   T   T   T
  0.5623105083578237  0.5220186061128790  0.6019591749766403   T   T   T
  0.5078384868339580  0.3879981515854048  0.3047697458983429   T   T   T
  0.5751823860915398  0.6554828923757958  0.4833978942211505   T   T   T
  0.5125193669110376  0.3381160160408665  0.4985061874679164   T   T   T
  0.5353714225269908  0.6375503815393198  0.3753961979930628   T   T   T
  0.4361431644914869  0.6432015821547207  0.5359051972332585   T   T   T
  0.4373551010143757  0.5015757590148624  0.3842817269995109   F   F   F
  0.4437846394494898  0.4460183835780285  0.5005161578087822   F   F   F
  0.3887866994197913  0.4674847526699444  0.6097853206402770   T   T   T
  0.3440893001774773  0.4449592364705348  0.3468047324827991   T   T   T
  0.3621644057184181  0.5857119382639722  0.3938387664845110   T   T   T
  0.4217425606853311  0.4061295180575186  0.3699802678458894   F   F   F
  0.5011311695957161  0.4887203336762909  0.4395023580252015   F   F   F
  0.4044148221271726  0.6101724300038001  0.4624736492929173   F   F   F
  0.4722931245665194  0.5596737886932672  0.5729988711091565   F   F   F
  0.6552684236953183  0.5165424048424470  0.4543399438695133   F   F   F
  0.5967309916701211  0.5535378348504167  0.5056109707055541   F   F   F
  0.5314074673932367  0.5941153005651714  0.5336729985293047   F   F   F
  0.5796732686089143  0.4997731718447866  0.4507473928409595   F   F   F
  0.4593292323782199  0.3296727252671086  0.3445609992683143   T   T   T
  0.3905180950192175  0.5252419063175111  0.4552418453041511   F   F   F
  0.4543690301547127  0.3245185163550535  0.4236139295507465   T   T   T
  0.5074804872141527  0.4592780196109629  0.3501259710292359   F   F   F
  0.6012877811302459  0.4669891268301640  0.5212355700313438   F   F   F
  0.5384608035519776  0.4312182275275163  0.4821288228790692   F   F   F
  0.4713083414346286  0.4805797151798927  0.5807598339419258   F   F   F
  0.3771163837573610  0.4514853175274567  0.4282230665427278   F   F   F
  0.4059018739390154  0.3822235888080883  0.4561785915149272   F   F   F
  0.5357818896390683  0.5680835373033233  0.4543473312664048   F   F   F
  0.4924712632432886  0.6367287407321953  0.4646113344718685   F   F   F
  0.4677327221812249  0.5829886973614862  0.4038343643763724   F   F   F
  0.5280944416629296  0.5063826634733033  0.5194466411805863   F   F   F
  0.6212454441397384  0.5105019604624417  0.3755946010283822   F   F   F
  0.6054499763524817  0.5821019035045651  0.4188664505762958   F   F   F
  0.4050790883739026  0.5245211222763402  0.5434909784116542   F   F   F
  0.3497944505574131  0.4712205377119824  0.5088727597810124   T   T   T
  0.4334465033904228  0.4575854829115101  0.3020668072170308   T   T   T
  0.5386830440505549  0.4216991723811959  0.5690329142884883   T   T   T
  0.3592069565655663  0.3886406916658192  0.5376236913312294   T   T   T
  0.4625951421883201  0.5516617238622956  0.4875128022361963   F   F   F
  0.6088838460193565  0.3765708195275925  0.5114000372569296   T   T   T
  0.4921396858033412  0.4391247008558279  0.6579745605954721   T   T   T
  0.5870789802946930  0.4676284608543557  0.3063678007559827   T   T   T
  0.4900497958562298  0.4037080615820798  0.4151644571778519   F   F   F
  0.4355786854908198  0.6748064529990742  0.4128988904107635   T   T   T
  0.4684386206108228  0.5375987546314906  0.6603128106265964   T   T   T
  0.5397532608265934  0.5319899791087650  0.3771480104995177   F   F   F
  0.6686630365815509  0.6003739664505495  0.4832699165228614   T   T   T
  0.6655545720152304  0.5192682118433729  0.5507527784632074   T   T   T
  0.3739447946169048  0.3352557309121240  0.3852747564689852   T   T   T
  0.6801021941405558  0.4374740904184981  0.4871297626047921   T   T   T
  0.5393608800867536  0.3187502011945973  0.3899606037647654   T   T   T
  0.3024980909695469  0.5036271651554627  0.4366355896444267   T   T   T
  0.3121458200841677  0.3966634074816050  0.4482196779204867   T   T   T
  0.5125275888427447  0.6253662680694602  0.6170029904306081   T   T   T
  0.4506395273939507  0.3734347138707349  0.5848419778733474   T   T   T
  0.3905029405510052  0.5807109649281622  0.6131655853511520   T   T   T
  0.4099784958555987  0.3056536392700790  0.5020161362604435   T   T   T
  0.4015510112021462  0.3720974866297704  0.2870842943234933   T   T   T
  0.3836162622363856  0.5339606641009650  0.2924785667313695   T   T   T
  0.6930664463071931  0.4611609265247001  0.3875534656008334   T   T   T
  0.3377002530008415  0.5723874859980718  0.5128916567574239   T   T   T
  0.5988938424109144  0.5723768911274012  0.3073559525024998   T   T   T
  0.6129082460948677  0.6145338497534023  0.5753250137135435   T   T   T
  0.4400614145222308  0.6157340011499720  0.3238560214837820   T   T   T
  0.3176017623931816  0.3545710041386489  0.5661157964084818   T   T   T
 
  0.00000000E+00  0.00000000E+00  0.00000000E+00
  0.00000000E+00  0.00000000E+00  0.00000000E+00
  0.00000000E+00  0.00000000E+00  0.00000000E+00
  0.00000000E+00  0.00000000E+00  0.00000000E+00
  0.00000000E+00  0.00000000E+00  0.00000000E+00
  0.00000000E+00  0.00000000E+00  0.00000000E+00
  0.00000000E+00  0.00000000E+00  0.00000000E+00
  0.00000000E+00  0.00000000E+00  0.00000000E+00
  0.00000000E+00  0.00000000E+00  0.00000000E+00
  0.00000000E+00  0.00000000E+00  0.00000000E+00
  0.00000000E+00  0.00000000E+00  0.00000000E+00
  0.00000000E+00  0.00000000E+00  0.00000000E+00
  0.00000000E+00  0.00000000E+00  0.00000000E+00
  0.00000000E+00  0.00000000E+00  0.00000000E+00
  0.00000000E+00  0.00000000E+00  0.00000000E+00
  0.00000000E+00  0.00000000E+00  0.00000000E+00
  0.00000000E+00  0.00000000E+00  0.00000000E+00
  0.00000000E+00  0.00000000E+00  0.00000000E+00
  0.00000000E+00  0.00000000E+00  0.00000000E+00
  0.00000000E+00  0.00000000E+00  0.00000000E+00
  0.00000000E+00  0.00000000E+00  0.00000000E+00
  0.00000000E+00  0.00000000E+00  0.00000000E+00
  0.00000000E+00  0.00000000E+00  0.00000000E+00
  0.00000000E+00  0.00000000E+00  0.00000000E+00
  0.00000000E+00  0.00000000E+00  0.00000000E+00
  0.00000000E+00  0.00000000E+00  0.00000000E+00
  0.00000000E+00  0.00000000E+00  0.00000000E+00
  0.00000000E+00  0.00000000E+00  0.00000000E+00
  0.00000000E+00  0.00000000E+00  0.00000000E+00
  0.00000000E+00  0.00000000E+00  0.00000000E+00
  0.00000000E+00  0.00000000E+00  0.00000000E+00
  0.00000000E+00  0.00000000E+00  0.00000000E+00
  0.00000000E+00  0.00000000E+00  0.00000000E+00
  0.00000000E+00  0.00000000E+00  0.00000000E+00
  0.00000000E+00  0.00000000E+00  0.00000000E+00
  0.00000000E+00  0.00000000E+00  0.00000000E+00
  0.00000000E+00  0.00000000E+00  0.00000000E+00
  0.00000000E+00  0.00000000E+00  0.00000000E+00
  0.00000000E+00  0.00000000E+00  0.00000000E+00
  0.00000000E+00  0.00000000E+00  0.00000000E+00
  0.00000000E+00  0.00000000E+00  0.00000000E+00
  0.00000000E+00  0.00000000E+00  0.00000000E+00
  0.00000000E+00  0.00000000E+00  0.00000000E+00
  0.00000000E+00  0.00000000E+00  0.00000000E+00
  0.00000000E+00  0.00000000E+00  0.00000000E+00
  0.00000000E+00  0.00000000E+00  0.00000000E+00
  0.00000000E+00  0.00000000E+00  0.00000000E+00
  0.00000000E+00  0.00000000E+00  0.00000000E+00
  0.00000000E+00  0.00000000E+00  0.00000000E+00
  0.00000000E+00  0.00000000E+00  0.00000000E+00
  0.00000000E+00  0.00000000E+00  0.00000000E+00
  0.00000000E+00  0.00000000E+00  0.00000000E+00
  0.00000000E+00  0.00000000E+00  0.00000000E+00
  0.00000000E+00  0.00000000E+00  0.00000000E+00
  0.00000000E+00  0.00000000E+00  0.00000000E+00
  0.00000000E+00  0.00000000E+00  0.00000000E+00
  0.00000000E+00  0.00000000E+00  0.00000000E+00
  0.00000000E+00  0.00000000E+00  0.00000000E+00
  0.00000000E+00  0.00000000E+00  0.00000000E+00
  0.00000000E+00  0.00000000E+00  0.00000000E+00
  0.00000000E+00  0.00000000E+00  0.00000000E+00
  0.00000000E+00  0.00000000E+00  0.00000000E+00
  0.00000000E+00  0.00000000E+00  0.00000000E+00
  0.00000000E+00  0.00000000E+00  0.00000000E+00
  0.00000000E+00  0.00000000E+00  0.00000000E+00
  0.00000000E+00  0.00000000E+00  0.00000000E+00
  0.00000000E+00  0.00000000E+00  0.00000000E+00
  0.00000000E+00  0.00000000E+00  0.00000000E+00
  0.00000000E+00  0.00000000E+00  0.00000000E+00
