La Co Ni Sn Bi H                        
   1.00000000000000     
    29.1044006348000011    0.0000000000000000    0.0000000000000000
     0.4451680315000000   28.3694074727000007    0.0000000000000000
     0.0682082826000000    0.3036559964000000   28.5240018092999996
   La   Co   Ni   Sn   Bi   H 
    14    13    13    14    14     1
Selective dynamics
Direct
  0.5924561058041364  0.4204560276608158  0.4074819399108711   T   T   T
  0.6848043085582224  0.5717856951360808  0.3807297722331151   T   T   T
  0.4954376193610918  0.5275118775446521  0.2822375755152188   T   T   T
  0.5625827154148757  0.5217312387494084  0.6021669798126171   T   T   T
  0.5082966413563055  0.3873238003646594  0.3053060278683602   T   T   T
  0.5751452950773402  0.6556331033815630  0.4837767059803840   T   T   T
  0.5087020040987008  0.3381156670348537  0.4994827149894479   T   T   T
  0.5369729957111595  0.6371369007261528  0.3753777570051717   T   T   T
  0.4361654394748465  0.6427602922455971  0.5362900044770358   T   T   T
  0.4373551010143757  0.5015757590148624  0.3842817269995109   F   F   F
  0.4437846394494898  0.4460183835780285  0.5005161578087822   F   F   F
  0.3873827835338537  0.4668456857132874  0.6095537600820045   T   T   T
  0.3444043676518762  0.4444259464789759  0.3470059523095863   T   T   T
  0.3621767317718949  0.5850162797728218  0.3931366516611718   T   T   T
  0.4217425606853311  0.4061295180575186  0.3699802678458894   F   F   F
  0.5011311695957161  0.4887203336762909  0.4395023580252015   F   F   F
  0.4044148221271726  0.6101724300038001  0.4624736492929173   F   F   F
  0.4722931245665194  0.5596737886932672  0.5729988711091565   F   F   F
  0.6552684236953183  0.5165424048424470  0.4543399438695133   F   F   F
  0.5967309916701211  0.5535378348504167  0.5056109707055541   F   F   F
  0.5314074673932367  0.5941153005651714  0.5336729985293047   F   F   F
  0.5796732686089143  0.4997731718447866  0.4507473928409595   F   F   F
  0.4609134636877679  0.3313531132935958  0.3446451843695719   T   T   T
  0.3905180950192175  0.5252419063175111  0.4552418453041511   F   F   F
  0.4541980412586398  0.3248458424401958  0.4238473330328272   T   T   T
  0.5074804872141527  0.4592780196109629  0.3501259710292359   F   F   F
  0.6012877811302459  0.4669891268301640  0.5212355700313438   F   F   F
  0.5384608035519776  0.4312182275275163  0.4821288228790692   F   F   F
  0.4713083414346286  0.4805797151798927  0.5807598339419258   F   F   F
  0.3771163837573610  0.4514853175274567  0.4282230665427278   F   F   F
  0.4059018739390154  0.3822235888080883  0.4561785915149272   F   F   F
  0.5357818896390683  0.5680835373033233  0.4543473312664048   F   F   F
  0.4924712632432886  0.6367287407321953  0.4646113344718685   F   F   F
  0.4677327221812249  0.5829886973614862  0.4038343643763724   F   F   F
  0.5280944416629296  0.5063826634733033  0.5194466411805863   F   F   F
  0.6212454441397384  0.5105019604624417  0.3755946010283822   F   F   F
  0.6054499763524817  0.5821019035045651  0.4188664505762958   F   F   F
  0.4050790883739026  0.5245211222763402  0.5434909784116542   F   F   F
  0.3508153719261584  0.4706374832956874  0.5089940969787552   T   T   T
  0.4334176292111427  0.4574677566434006  0.3020442822887461   T   T   T
  0.5381300110755115  0.4218161394865061  0.5688355830438125   T   T   T
  0.3576744854335638  0.3873573587797133  0.5393957555177468   T   T   T
  0.4625951421883201  0.5516617238622956  0.4875128022361963   F   F   F
  0.6065202119572527  0.3750944142631276  0.5100607658827632   T   T   T
  0.4918308034043255  0.4387459032289198  0.6577081598259729   T   T   T
  0.5872506661182061  0.4674441544674828  0.3062914494749703   T   T   T
  0.4900497958562298  0.4037080615820798  0.4151644571778519   F   F   F
  0.4347628220593813  0.6738662769107765  0.4151538400553765   T   T   T
  0.4685134745818808  0.5370082654525461  0.6601069772645495   T   T   T
  0.5397532608265934  0.5319899791087650  0.3771480104995177   F   F   F
  0.6685009703415494  0.6003189751541762  0.4836860018868571   T   T   T
  0.6657329224136057  0.5189779125096939  0.5505456023091367   T   T   T
  0.3744742243444050  0.3347029182720368  0.3850983937076194   T   T   T
  0.6785829944035865  0.4365320531491884  0.4867233362722653   T   T   T
  0.5395628562200897  0.3186759205373067  0.3916264055740211   T   T   T
  0.3022714708034443  0.5031055533378324  0.4367897020746712   T   T   T
  0.3133479897055187  0.3953437904779193  0.4491946937297761   T   T   T
  0.5126540889637717  0.6251745090866534  0.6169898096246319   T   T   T
  0.4488707731946568  0.3743997938410195  0.5855044018256477   T   T   T
  0.3902313956387257  0.5799991023472725  0.6132848359325084   T   T   T
  0.4050861942162691  0.3057176590927747  0.5013005202945173   T   T   T
  0.4020384425174125  0.3715880932568064  0.2872055657279258   T   T   T
  0.3836161886493674  0.5337198525127576  0.2917492600942171   T   T   T
  0.6930096908931729  0.4609761199768916  0.3874888421906592   T   T   T
  0.3378383117699922  0.5724330370708400  0.5124433556572467   T   T   T
  0.5992532165386494  0.5719052304205203  0.3069946772016721   T   T   T
  0.6126278501014216  0.6143631901371324  0.5755237193543435   T   T   T
  0.4416856991026795  0.6146872354912919  0.3239471780881562   T   T   T
  0.4316403995239833  0.7254980343337090  0.3815117820921922   T   T   T
 
  0.00000000E+00  0.00000000E+00  0.00000000E+00
  0.00000000E+00  0.00000000E+00  0.00000000E+00
  0.00000000E+00  0.00000000E+00  0.00000000E+00
  0.00000000E+00  0.00000000E+00  0.00000000E+00
  0.00000000E+00  0.00000000E+00  0.00000000E+00
  0.00000000E+00  0.00000000E+00  0.00000000E+00
  0.00000000E+00  0.00000000E+00  0.00000000E+00
  0.00000000E+00  0.00000000E+00  0.00000000E+00
  0.00000000E+00  0.00000000E+00  0.00000000E+00
  0.00000000E+00  0.00000000E+00  0.00000000E+00
  0.00000000E+00  0.00000000E+00  0.00000000E+00
  0.00000000E+00  0.00000000E+00  0.00000000E+00
  0.00000000E+00  0.00000000E+00  0.00000000E+00
  0.00000000E+00  0.00000000E+00  0.00000000E+00
  0.00000000E+00  0.00000000E+00  0.00000000E+00
  0.00000000E+00  0.00000000E+00  0.00000000E+00
  0.00000000E+00  0.00000000E+00  0.00000000E+00
  0.00000000E+00  0.00000000E+00  0.00000000E+00
  0.00000000E+00  0.00000000E+00  0.00000000E+00
  0.00000000E+00  0.00000000E+00  0.00000000E+00
  0.00000000E+00  0.00000000E+00  0.00000000E+00
  0.00000000E+00  0.00000000E+00  0.00000000E+00
  0.00000000E+00  0.00000000E+00  0.00000000E+00
  0.00000000E+00  0.00000000E+00  0.00000000E+00
  0.00000000E+00  0.00000000E+00  0.00000000E+00
  0.00000000E+00  0.00000000E+00  0.00000000E+00
  0.00000000E+00  0.00000000E+00  0.00000000E+00
  0.00000000E+00  0.00000000E+00  0.00000000E+00
  0.00000000E+00  0.00000000E+00  0.00000000E+00
  0.00000000E+00  0.00000000E+00  0.00000000E+00
  0.00000000E+00  0.00000000E+00  0.00000000E+00
  0.00000000E+00  0.00000000E+00  0.00000000E+00
  0.00000000E+00  0.00000000E+00  0.00000000E+00
  0.00000000E+00  0.00000000E+00  0.00000000E+00
  0.00000000E+00  0.00000000E+00  0.00000000E+00
  0.00000000E+00  0.00000000E+00  0.00000000E+00
  0.00000000E+00  0.00000000E+00  0.00000000E+00
  0.00000000E+00  0.00000000E+00  0.00000000E+00
  0.00000000E+00  0.00000000E+00  0.00000000E+00
  0.00000000E+00  0.00000000E+00  0.00000000E+00
  0.00000000E+00  0.00000000E+00  0.00000000E+00
  0.00000000E+00  0.00000000E+00  0.00000000E+00
  0.00000000E+00  0.00000000E+00  0.00000000E+00
  0.00000000E+00  0.00000000E+00  0.00000000E+00
  0.00000000E+00  0.00000000E+00  0.00000000E+00
  0.00000000E+00  0.00000000E+00  0.00000000E+00
  0.00000000E+00  0.00000000E+00  0.00000000E+00
  0.00000000E+00  0.00000000E+00  0.00000000E+00
  0.00000000E+00  0.00000000E+00  0.00000000E+00
  0.00000000E+00  0.00000000E+00  0.00000000E+00
  0.00000000E+00  0.00000000E+00  0.00000000E+00
  0.00000000E+00  0.00000000E+00  0.00000000E+00
  0.00000000E+00  0.00000000E+00  0.00000000E+00
  0.00000000E+00  0.00000000E+00  0.00000000E+00
  0.00000000E+00  0.00000000E+00  0.00000000E+00
  0.00000000E+00  0.00000000E+00  0.00000000E+00
  0.00000000E+00  0.00000000E+00  0.00000000E+00
  0.00000000E+00  0.00000000E+00  0.00000000E+00
  0.00000000E+00  0.00000000E+00  0.00000000E+00
  0.00000000E+00  0.00000000E+00  0.00000000E+00
  0.00000000E+00  0.00000000E+00  0.00000000E+00
  0.00000000E+00  0.00000000E+00  0.00000000E+00
  0.00000000E+00  0.00000000E+00  0.00000000E+00
  0.00000000E+00  0.00000000E+00  0.00000000E+00
  0.00000000E+00  0.00000000E+00  0.00000000E+00
  0.00000000E+00  0.00000000E+00  0.00000000E+00
  0.00000000E+00  0.00000000E+00  0.00000000E+00
  0.00000000E+00  0.00000000E+00  0.00000000E+00
  0.00000000E+00  0.00000000E+00  0.00000000E+00
