La Co Ni Sn Bi H                        
   1.00000000000000     
    29.1044006348000011    0.0000000000000000    0.0000000000000000
     0.4451680315000000   28.3694074727000007    0.0000000000000000
     0.0682082826000000    0.3036559964000000   28.5240018092999996
   La   Co   Ni   Sn   Bi   H 
    14    13    13    14    14     1
Selective dynamics
Direct
  0.5922090790224416  0.4200688484348318  0.4081359338936364   T   T   T
  0.6844796181789362  0.5713892147775163  0.3800380024124999   T   T   T
  0.4965718508840374  0.5184753738914578  0.2793631327326492   T   T   T
  0.5624900227859667  0.5218026438642821  0.6020806544262166   T   T   T
  0.5092641660117446  0.3850576737921459  0.3059440718170329   T   T   T
  0.5746206460479093  0.6558632581100459  0.4857218420523599   T   T   T
  0.5084511711652795  0.3382042486110387  0.5000971973214406   T   T   T
  0.5382220152174547  0.6384647722091211  0.3770382773086481   T   T   T
  0.4358584884559384  0.6433041618219392  0.5353558310603321   T   T   T
  0.4373551010143757  0.5015757590148624  0.3842817269995109   F   F   F
  0.4437846394494898  0.4460183835780285  0.5005161578087822   F   F   F
  0.3873877710927112  0.4671878202655663  0.6097300595862718   T   T   T
  0.3450492449142140  0.4429077533098184  0.3463781191874392   T   T   T
  0.3635268427119082  0.5848944425376804  0.3915465096247288   T   T   T
  0.4217425606853311  0.4061295180575186  0.3699802678458894   F   F   F
  0.5011311695957161  0.4887203336762909  0.4395023580252015   F   F   F
  0.4044148221271726  0.6101724300038001  0.4624736492929173   F   F   F
  0.4722931245665194  0.5596737886932672  0.5729988711091565   F   F   F
  0.6552684236953183  0.5165424048424470  0.4543399438695133   F   F   F
  0.5967309916701211  0.5535378348504167  0.5056109707055541   F   F   F
  0.5314074673932367  0.5941153005651714  0.5336729985293047   F   F   F
  0.5796732686089143  0.4997731718447866  0.4507473928409595   F   F   F
  0.4613340114752215  0.3305696347307354  0.3453509836610536   T   T   T
  0.3905180950192175  0.5252419063175111  0.4552418453041511   F   F   F
  0.4546413475172091  0.3246112908253797  0.4249563856012147   T   T   T
  0.5074804872141527  0.4592780196109629  0.3501259710292359   F   F   F
  0.6012877811302459  0.4669891268301640  0.5212355700313438   F   F   F
  0.5384608035519776  0.4312182275275163  0.4821288228790692   F   F   F
  0.4713083414346286  0.4805797151798927  0.5807598339419258   F   F   F
  0.3771163837573610  0.4514853175274567  0.4282230665427278   F   F   F
  0.4059018739390154  0.3822235888080883  0.4561785915149272   F   F   F
  0.5357818896390683  0.5680835373033233  0.4543473312664048   F   F   F
  0.4924712632432886  0.6367287407321953  0.4646113344718685   F   F   F
  0.4677327221812249  0.5829886973614862  0.4038343643763724   F   F   F
  0.5280944416629296  0.5063826634733033  0.5194466411805863   F   F   F
  0.6212454441397384  0.5105019604624417  0.3755946010283822   F   F   F
  0.6054499763524817  0.5821019035045651  0.4188664505762958   F   F   F
  0.4050790883739026  0.5245211222763402  0.5434909784116542   F   F   F
  0.3503303570358069  0.4709010349601134  0.5085572735836826   T   T   T
  0.4340400978275897  0.4545222979515142  0.3014371342325743   T   T   T
  0.5380717393182702  0.4219288155337297  0.5690418550097485   T   T   T
  0.3575179413226348  0.3878791640474448  0.5395086739252978   T   T   T
  0.4625951421883201  0.5516617238622956  0.4875128022361963   F   F   F
  0.6064424374059281  0.3749917544010696  0.5109634165481228   T   T   T
  0.4919863787045053  0.4393154963873914  0.6581011866371472   T   T   T
  0.5890038297771335  0.4655859420809565  0.3071203791875644   T   T   T
  0.4900497958562298  0.4037080615820798  0.4151644571778519   F   F   F
  0.4373476897184576  0.6737672115927296  0.4110070834927548   T   T   T
  0.4684218383341166  0.5375110564138343  0.6599608626480812   T   T   T
  0.5397532608265934  0.5319899791087650  0.3771480104995177   F   F   F
  0.6681966946393488  0.6005785495120023  0.4831010419294204   T   T   T
  0.6659083957735289  0.5188859011480290  0.5501804598378608   T   T   T
  0.3753190071820092  0.3343969758394478  0.3854697228867801   T   T   T
  0.6784784274490051  0.4362933425913257  0.4865223598705190   T   T   T
  0.5398624181808684  0.3181088965537939  0.3931356520430767   T   T   T
  0.3028887047990076  0.5034849774669232  0.4355196745487522   T   T   T
  0.3133690609911682  0.3958274172496276  0.4491226527490048   T   T   T
  0.5125854205899950  0.6257865094329615  0.6162630786605643   T   T   T
  0.4487391952486221  0.3748417013567647  0.5858539122246079   T   T   T
  0.3903077770006879  0.5804792227482650  0.6129076375254887   T   T   T
  0.4047457100720495  0.3059736340632840  0.5017522307781497   T   T   T
  0.4028234261836424  0.3695202538503412  0.2870033755100343   T   T   T
  0.3851975230494536  0.5309524103978095  0.2902502651168758   T   T   T
  0.6925160289835831  0.4602904214058996  0.3873529525566778   T   T   T
  0.3375426997406373  0.5722631065799039  0.5122433768138117   T   T   T
  0.5980372730515325  0.5708961273855852  0.3062428057353647   T   T   T
  0.6133456692245340  0.6137569678787135  0.5761181399313230   T   T   T
  0.4492392807658110  0.6085225114779588  0.3217136466972207   T   T   T
  0.3893492954098516  0.6339878471744558  0.3277241096008394   T   T   T
 
  0.00000000E+00  0.00000000E+00  0.00000000E+00
  0.00000000E+00  0.00000000E+00  0.00000000E+00
  0.00000000E+00  0.00000000E+00  0.00000000E+00
  0.00000000E+00  0.00000000E+00  0.00000000E+00
  0.00000000E+00  0.00000000E+00  0.00000000E+00
  0.00000000E+00  0.00000000E+00  0.00000000E+00
  0.00000000E+00  0.00000000E+00  0.00000000E+00
  0.00000000E+00  0.00000000E+00  0.00000000E+00
  0.00000000E+00  0.00000000E+00  0.00000000E+00
  0.00000000E+00  0.00000000E+00  0.00000000E+00
  0.00000000E+00  0.00000000E+00  0.00000000E+00
  0.00000000E+00  0.00000000E+00  0.00000000E+00
  0.00000000E+00  0.00000000E+00  0.00000000E+00
  0.00000000E+00  0.00000000E+00  0.00000000E+00
  0.00000000E+00  0.00000000E+00  0.00000000E+00
  0.00000000E+00  0.00000000E+00  0.00000000E+00
  0.00000000E+00  0.00000000E+00  0.00000000E+00
  0.00000000E+00  0.00000000E+00  0.00000000E+00
  0.00000000E+00  0.00000000E+00  0.00000000E+00
  0.00000000E+00  0.00000000E+00  0.00000000E+00
  0.00000000E+00  0.00000000E+00  0.00000000E+00
  0.00000000E+00  0.00000000E+00  0.00000000E+00
  0.00000000E+00  0.00000000E+00  0.00000000E+00
  0.00000000E+00  0.00000000E+00  0.00000000E+00
  0.00000000E+00  0.00000000E+00  0.00000000E+00
  0.00000000E+00  0.00000000E+00  0.00000000E+00
  0.00000000E+00  0.00000000E+00  0.00000000E+00
  0.00000000E+00  0.00000000E+00  0.00000000E+00
  0.00000000E+00  0.00000000E+00  0.00000000E+00
  0.00000000E+00  0.00000000E+00  0.00000000E+00
  0.00000000E+00  0.00000000E+00  0.00000000E+00
  0.00000000E+00  0.00000000E+00  0.00000000E+00
  0.00000000E+00  0.00000000E+00  0.00000000E+00
  0.00000000E+00  0.00000000E+00  0.00000000E+00
  0.00000000E+00  0.00000000E+00  0.00000000E+00
  0.00000000E+00  0.00000000E+00  0.00000000E+00
  0.00000000E+00  0.00000000E+00  0.00000000E+00
  0.00000000E+00  0.00000000E+00  0.00000000E+00
  0.00000000E+00  0.00000000E+00  0.00000000E+00
  0.00000000E+00  0.00000000E+00  0.00000000E+00
  0.00000000E+00  0.00000000E+00  0.00000000E+00
  0.00000000E+00  0.00000000E+00  0.00000000E+00
  0.00000000E+00  0.00000000E+00  0.00000000E+00
  0.00000000E+00  0.00000000E+00  0.00000000E+00
  0.00000000E+00  0.00000000E+00  0.00000000E+00
  0.00000000E+00  0.00000000E+00  0.00000000E+00
  0.00000000E+00  0.00000000E+00  0.00000000E+00
  0.00000000E+00  0.00000000E+00  0.00000000E+00
  0.00000000E+00  0.00000000E+00  0.00000000E+00
  0.00000000E+00  0.00000000E+00  0.00000000E+00
  0.00000000E+00  0.00000000E+00  0.00000000E+00
  0.00000000E+00  0.00000000E+00  0.00000000E+00
  0.00000000E+00  0.00000000E+00  0.00000000E+00
  0.00000000E+00  0.00000000E+00  0.00000000E+00
  0.00000000E+00  0.00000000E+00  0.00000000E+00
  0.00000000E+00  0.00000000E+00  0.00000000E+00
  0.00000000E+00  0.00000000E+00  0.00000000E+00
  0.00000000E+00  0.00000000E+00  0.00000000E+00
  0.00000000E+00  0.00000000E+00  0.00000000E+00
  0.00000000E+00  0.00000000E+00  0.00000000E+00
  0.00000000E+00  0.00000000E+00  0.00000000E+00
  0.00000000E+00  0.00000000E+00  0.00000000E+00
  0.00000000E+00  0.00000000E+00  0.00000000E+00
  0.00000000E+00  0.00000000E+00  0.00000000E+00
  0.00000000E+00  0.00000000E+00  0.00000000E+00
  0.00000000E+00  0.00000000E+00  0.00000000E+00
  0.00000000E+00  0.00000000E+00  0.00000000E+00
  0.00000000E+00  0.00000000E+00  0.00000000E+00
  0.00000000E+00  0.00000000E+00  0.00000000E+00
