La Co Ni Sn Bi H                        
   1.00000000000000     
    29.1044006348000011    0.0000000000000000    0.0000000000000000
     0.4451680315000000   28.3694074727000007    0.0000000000000000
     0.0682082826000000    0.3036559964000000   28.5240018092999996
   La   Co   Ni   Sn   Bi   H 
    14    13    13    14    14     1
Selective dynamics
Direct
  0.5925669906349429  0.4207289227351210  0.4073358112393662   T   T   T
  0.6849150316658306  0.5718220730362087  0.3808610594721095   T   T   T
  0.4950249681202326  0.5289543435502977  0.2834699621158867   T   T   T
  0.5627432364586288  0.5220844061600315  0.6021149103781939   T   T   T
  0.5089019476187718  0.3863483124659499  0.3058799666150354   T   T   T
  0.5751614532028847  0.6554542738199741  0.4835492967333665   T   T   T
  0.5086048773371711  0.3382476589057368  0.4998972454852765   T   T   T
  0.5352207021785856  0.6376464031091851  0.3751419750788142   T   T   T
  0.4363117362935012  0.6434101079991157  0.5359247071764207   T   T   T
  0.4373551010143757  0.5015757590148624  0.3842817269995109   F   F   F
  0.4437846394494898  0.4460183835780285  0.5005161578087822   F   F   F
  0.3877062125595330  0.4673754952808001  0.6101198868603986   T   T   T
  0.3442313814553499  0.4405146532702320  0.3478438280172038   T   T   T
  0.3615780703265060  0.5861975607926595  0.3950753781422449   T   T   T
  0.4217425606853311  0.4061295180575186  0.3699802678458894   F   F   F
  0.5011311695957161  0.4887203336762909  0.4395023580252015   F   F   F
  0.4044148221271726  0.6101724300038001  0.4624736492929173   F   F   F
  0.4722931245665194  0.5596737886932672  0.5729988711091565   F   F   F
  0.6552684236953183  0.5165424048424470  0.4543399438695133   F   F   F
  0.5967309916701211  0.5535378348504167  0.5056109707055541   F   F   F
  0.5314074673932367  0.5941153005651714  0.5336729985293047   F   F   F
  0.5796732686089143  0.4997731718447866  0.4507473928409595   F   F   F
  0.4615240522817675  0.3308662664560682  0.3449739624908023   T   T   T
  0.3905180950192175  0.5252419063175111  0.4552418453041511   F   F   F
  0.4550203619105646  0.3246178615694990  0.4248308384699572   T   T   T
  0.5074804872141527  0.4592780196109629  0.3501259710292359   F   F   F
  0.6012877811302459  0.4669891268301640  0.5212355700313438   F   F   F
  0.5384608035519776  0.4312182275275163  0.4821288228790692   F   F   F
  0.4713083414346286  0.4805797151798927  0.5807598339419258   F   F   F
  0.3771163837573610  0.4514853175274567  0.4282230665427278   F   F   F
  0.4059018739390154  0.3822235888080883  0.4561785915149272   F   F   F
  0.5357818896390683  0.5680835373033233  0.4543473312664048   F   F   F
  0.4924712632432886  0.6367287407321953  0.4646113344718685   F   F   F
  0.4677327221812249  0.5829886973614862  0.4038343643763724   F   F   F
  0.5280944416629296  0.5063826634733033  0.5194466411805863   F   F   F
  0.6212454441397384  0.5105019604624417  0.3755946010283822   F   F   F
  0.6054499763524817  0.5821019035045651  0.4188664505762958   F   F   F
  0.4050790883739026  0.5245211222763402  0.5434909784116542   F   F   F
  0.3507753727586008  0.4702770932729239  0.5088582295906307   T   T   T
  0.4341353730042346  0.4559483220425398  0.3015333927071722   T   T   T
  0.5386252810805510  0.4221170994632443  0.5690422618022442   T   T   T
  0.3581069471609689  0.3875132962086481  0.5407818918081020   T   T   T
  0.4625951421883201  0.5516617238622956  0.4875128022361963   F   F   F
  0.6064084003393823  0.3749873968423288  0.5097498545588526   T   T   T
  0.4922656863016580  0.4393639901572584  0.6582986972217070   T   T   T
  0.5865150590259033  0.4679770054312855  0.3059744558640149   T   T   T
  0.4900497958562298  0.4037080615820798  0.4151644571778519   F   F   F
  0.4357368637774264  0.6751936474561425  0.4135348906508584   T   T   T
  0.4686963897893757  0.5373985002123586  0.6600167555969843   T   T   T
  0.5397532608265934  0.5319899791087650  0.3771480104995177   F   F   F
  0.6686699313985449  0.6005106884939893  0.4835935973328271   T   T   T
  0.6658765452691476  0.5191213404892501  0.5504155741626163   T   T   T
  0.3757371293701202  0.3339302229242011  0.3856216696398748   T   T   T
  0.6785092250373477  0.4364443911232772  0.4866259003650316   T   T   T
  0.5403123536428678  0.3187849724057805  0.3925418777460616   T   T   T
  0.3024229678985871  0.5026181330720021  0.4364716942388314   T   T   T
  0.3137206055516101  0.3952136431103149  0.4509186449008594   T   T   T
  0.5126192490093054  0.6256082473240946  0.6166254157554367   T   T   T
  0.4494908955748081  0.3751026154840045  0.5860296490930268   T   T   T
  0.3905437562069604  0.5805759055321227  0.6131688177577366   T   T   T
  0.4047147839777411  0.3058975717313723  0.5013977132333919   T   T   T
  0.4029317711110522  0.3702789393351115  0.2868441062022543   T   T   T
  0.3829193653258736  0.5307008317923563  0.2946088953275627   T   T   T
  0.6931912487002073  0.4611289048789464  0.3874938801519707   T   T   T
  0.3376512421435353  0.5720993224206589  0.5130334915564042   T   T   T
  0.5991463497373907  0.5726292127895380  0.3076217688896297   T   T   T
  0.6130074448220577  0.6146323977977016  0.5753210805848573   T   T   T
  0.4390599171741227  0.6169270659907390  0.3248687783314802   T   T   T
  0.3644914108425779  0.5619859257990873  0.2415730013998997   T   T   T
 
  0.00000000E+00  0.00000000E+00  0.00000000E+00
  0.00000000E+00  0.00000000E+00  0.00000000E+00
  0.00000000E+00  0.00000000E+00  0.00000000E+00
  0.00000000E+00  0.00000000E+00  0.00000000E+00
  0.00000000E+00  0.00000000E+00  0.00000000E+00
  0.00000000E+00  0.00000000E+00  0.00000000E+00
  0.00000000E+00  0.00000000E+00  0.00000000E+00
  0.00000000E+00  0.00000000E+00  0.00000000E+00
  0.00000000E+00  0.00000000E+00  0.00000000E+00
  0.00000000E+00  0.00000000E+00  0.00000000E+00
  0.00000000E+00  0.00000000E+00  0.00000000E+00
  0.00000000E+00  0.00000000E+00  0.00000000E+00
  0.00000000E+00  0.00000000E+00  0.00000000E+00
  0.00000000E+00  0.00000000E+00  0.00000000E+00
  0.00000000E+00  0.00000000E+00  0.00000000E+00
  0.00000000E+00  0.00000000E+00  0.00000000E+00
  0.00000000E+00  0.00000000E+00  0.00000000E+00
  0.00000000E+00  0.00000000E+00  0.00000000E+00
  0.00000000E+00  0.00000000E+00  0.00000000E+00
  0.00000000E+00  0.00000000E+00  0.00000000E+00
  0.00000000E+00  0.00000000E+00  0.00000000E+00
  0.00000000E+00  0.00000000E+00  0.00000000E+00
  0.00000000E+00  0.00000000E+00  0.00000000E+00
  0.00000000E+00  0.00000000E+00  0.00000000E+00
  0.00000000E+00  0.00000000E+00  0.00000000E+00
  0.00000000E+00  0.00000000E+00  0.00000000E+00
  0.00000000E+00  0.00000000E+00  0.00000000E+00
  0.00000000E+00  0.00000000E+00  0.00000000E+00
  0.00000000E+00  0.00000000E+00  0.00000000E+00
  0.00000000E+00  0.00000000E+00  0.00000000E+00
  0.00000000E+00  0.00000000E+00  0.00000000E+00
  0.00000000E+00  0.00000000E+00  0.00000000E+00
  0.00000000E+00  0.00000000E+00  0.00000000E+00
  0.00000000E+00  0.00000000E+00  0.00000000E+00
  0.00000000E+00  0.00000000E+00  0.00000000E+00
  0.00000000E+00  0.00000000E+00  0.00000000E+00
  0.00000000E+00  0.00000000E+00  0.00000000E+00
  0.00000000E+00  0.00000000E+00  0.00000000E+00
  0.00000000E+00  0.00000000E+00  0.00000000E+00
  0.00000000E+00  0.00000000E+00  0.00000000E+00
  0.00000000E+00  0.00000000E+00  0.00000000E+00
  0.00000000E+00  0.00000000E+00  0.00000000E+00
  0.00000000E+00  0.00000000E+00  0.00000000E+00
  0.00000000E+00  0.00000000E+00  0.00000000E+00
  0.00000000E+00  0.00000000E+00  0.00000000E+00
  0.00000000E+00  0.00000000E+00  0.00000000E+00
  0.00000000E+00  0.00000000E+00  0.00000000E+00
  0.00000000E+00  0.00000000E+00  0.00000000E+00
  0.00000000E+00  0.00000000E+00  0.00000000E+00
  0.00000000E+00  0.00000000E+00  0.00000000E+00
  0.00000000E+00  0.00000000E+00  0.00000000E+00
  0.00000000E+00  0.00000000E+00  0.00000000E+00
  0.00000000E+00  0.00000000E+00  0.00000000E+00
  0.00000000E+00  0.00000000E+00  0.00000000E+00
  0.00000000E+00  0.00000000E+00  0.00000000E+00
  0.00000000E+00  0.00000000E+00  0.00000000E+00
  0.00000000E+00  0.00000000E+00  0.00000000E+00
  0.00000000E+00  0.00000000E+00  0.00000000E+00
  0.00000000E+00  0.00000000E+00  0.00000000E+00
  0.00000000E+00  0.00000000E+00  0.00000000E+00
  0.00000000E+00  0.00000000E+00  0.00000000E+00
  0.00000000E+00  0.00000000E+00  0.00000000E+00
  0.00000000E+00  0.00000000E+00  0.00000000E+00
  0.00000000E+00  0.00000000E+00  0.00000000E+00
  0.00000000E+00  0.00000000E+00  0.00000000E+00
  0.00000000E+00  0.00000000E+00  0.00000000E+00
  0.00000000E+00  0.00000000E+00  0.00000000E+00
  0.00000000E+00  0.00000000E+00  0.00000000E+00
  0.00000000E+00  0.00000000E+00  0.00000000E+00
