La Co Ni Sn Bi H                        
   1.00000000000000     
    29.1044006348000011    0.0000000000000000    0.0000000000000000
     0.4451680315000000   28.3694074727000007    0.0000000000000000
     0.0682082826000000    0.3036559964000000   28.5240018092999996
   La   Co   Ni   Sn   Bi   H 
    14    13    13    14    14     1
Selective dynamics
Direct
  0.5923867037566273  0.4203719089771709  0.4083793119275114   T   T   T
  0.6880780650039537  0.5708914918231992  0.3784866136786049   T   T   T
  0.4958147342848152  0.5251167748932565  0.2820836916892870   T   T   T
  0.5627877455764656  0.5223588930008489  0.6018307822589527   T   T   T
  0.5090102933225642  0.3862724881807331  0.3055657802570577   T   T   T
  0.5751027493575643  0.6556813153996355  0.4823834746372855   T   T   T
  0.5091716299560121  0.3385032957640737  0.4998927483826999   T   T   T
  0.5361168870033471  0.6366556419672339  0.3745003052771985   T   T   T
  0.4363668855463979  0.6436574462049718  0.5354046528920628   T   T   T
  0.4373551010143757  0.5015757590148624  0.3842817269995109   F   F   F
  0.4437846394494898  0.4460183835780285  0.5005161578087822   F   F   F
  0.3873685170980351  0.4672774794559464  0.6096555532384377   T   T   T
  0.3446228879242151  0.4436643307864728  0.3468520098521126   T   T   T
  0.3620094359757982  0.5849738638158611  0.3935047931611889   T   T   T
  0.4217425606853311  0.4061295180575186  0.3699802678458894   F   F   F
  0.5011311695957161  0.4887203336762909  0.4395023580252015   F   F   F
  0.4044148221271726  0.6101724300038001  0.4624736492929173   F   F   F
  0.4722931245665194  0.5596737886932672  0.5729988711091565   F   F   F
  0.6552684236953183  0.5165424048424470  0.4543399438695133   F   F   F
  0.5967309916701211  0.5535378348504167  0.5056109707055541   F   F   F
  0.5314074673932367  0.5941153005651714  0.5336729985293047   F   F   F
  0.5796732686089143  0.4997731718447866  0.4507473928409595   F   F   F
  0.4611838369742629  0.3308219845430429  0.3451315879738131   T   T   T
  0.3905180950192175  0.5252419063175111  0.4552418453041511   F   F   F
  0.4547434006514715  0.3246429841772410  0.4247828437943295   T   T   T
  0.5074804872141527  0.4592780196109629  0.3501259710292359   F   F   F
  0.6012877811302459  0.4669891268301640  0.5212355700313438   F   F   F
  0.5384608035519776  0.4312182275275163  0.4821288228790692   F   F   F
  0.4713083414346286  0.4805797151798927  0.5807598339419258   F   F   F
  0.3771163837573610  0.4514853175274567  0.4282230665427278   F   F   F
  0.4059018739390154  0.3822235888080883  0.4561785915149272   F   F   F
  0.5357818896390683  0.5680835373033233  0.4543473312664048   F   F   F
  0.4924712632432886  0.6367287407321953  0.4646113344718685   F   F   F
  0.4677327221812249  0.5829886973614862  0.4038343643763724   F   F   F
  0.5280944416629296  0.5063826634733033  0.5194466411805863   F   F   F
  0.6212454441397384  0.5105019604624417  0.3755946010283822   F   F   F
  0.6054499763524817  0.5821019035045651  0.4188664505762958   F   F   F
  0.4050790883739026  0.5245211222763402  0.5434909784116542   F   F   F
  0.3507580183010465  0.4705215616165625  0.5085814777026921   T   T   T
  0.4341500507101910  0.4568594183352003  0.3018142488034699   T   T   T
  0.5382748656436683  0.4221978527509240  0.5692336740485809   T   T   T
  0.3575357873034042  0.3875967193727258  0.5397726423200124   T   T   T
  0.4625951421883201  0.5516617238622956  0.4875128022361963   F   F   F
  0.6067636724619939  0.3753506235905433  0.5113512499175870   T   T   T
  0.4915831985818769  0.4391186918007794  0.6581751493767793   T   T   T
  0.5882962465426819  0.4662714552433129  0.3068456890545732   T   T   T
  0.4900497958562298  0.4037080615820798  0.4151644571778519   F   F   F
  0.4357257979424115  0.6738651204418415  0.4116287221775174   T   T   T
  0.4684827311569861  0.5373829126468083  0.6599178444376763   T   T   T
  0.5397532608265934  0.5319899791087650  0.3771480104995177   F   F   F
  0.6679481783184005  0.6007907623763663  0.4818949274466204   T   T   T
  0.6660637245293659  0.5193991195011223  0.5498421317373779   T   T   T
  0.3752038599074632  0.3344298884784872  0.3850619323424145   T   T   T
  0.6789185719203327  0.4365004956080676  0.4869365575359439   T   T   T
  0.5399226875424596  0.3185107074772583  0.3924408256139844   T   T   T
  0.3022757240671285  0.5027582036219543  0.4364742221139364   T   T   T
  0.3135605054386453  0.3952098914398637  0.4491866745726525   T   T   T
  0.5123435959451098  0.6255468585229863  0.6167795329003549   T   T   T
  0.4489948367429513  0.3747640080161155  0.5857325653919633   T   T   T
  0.3906324457426795  0.5809021897680570  0.6127679782814139   T   T   T
  0.4056900818661901  0.3061827019988019  0.5020628937046142   T   T   T
  0.4026541621124979  0.3710838622092673  0.2870894905602798   T   T   T
  0.3837736477406111  0.5330427880495691  0.2919831608972387   T   T   T
  0.6922693305883351  0.4600244152097341  0.3873615366683439   T   T   T
  0.3374710967085692  0.5720999464335831  0.5127382252789854   T   T   T
  0.6006652114382603  0.5712931984964053  0.3081249623146279   T   T   T
  0.6124547208698971  0.6151056604760067  0.5745541141346973   T   T   T
  0.4412760486031713  0.6133329921335756  0.3231702528443438   T   T   T
  0.6776417533461859  0.5764619963093963  0.3002665587395287   T   T   T
 
  0.00000000E+00  0.00000000E+00  0.00000000E+00
  0.00000000E+00  0.00000000E+00  0.00000000E+00
  0.00000000E+00  0.00000000E+00  0.00000000E+00
  0.00000000E+00  0.00000000E+00  0.00000000E+00
  0.00000000E+00  0.00000000E+00  0.00000000E+00
  0.00000000E+00  0.00000000E+00  0.00000000E+00
  0.00000000E+00  0.00000000E+00  0.00000000E+00
  0.00000000E+00  0.00000000E+00  0.00000000E+00
  0.00000000E+00  0.00000000E+00  0.00000000E+00
  0.00000000E+00  0.00000000E+00  0.00000000E+00
  0.00000000E+00  0.00000000E+00  0.00000000E+00
  0.00000000E+00  0.00000000E+00  0.00000000E+00
  0.00000000E+00  0.00000000E+00  0.00000000E+00
  0.00000000E+00  0.00000000E+00  0.00000000E+00
  0.00000000E+00  0.00000000E+00  0.00000000E+00
  0.00000000E+00  0.00000000E+00  0.00000000E+00
  0.00000000E+00  0.00000000E+00  0.00000000E+00
  0.00000000E+00  0.00000000E+00  0.00000000E+00
  0.00000000E+00  0.00000000E+00  0.00000000E+00
  0.00000000E+00  0.00000000E+00  0.00000000E+00
  0.00000000E+00  0.00000000E+00  0.00000000E+00
  0.00000000E+00  0.00000000E+00  0.00000000E+00
  0.00000000E+00  0.00000000E+00  0.00000000E+00
  0.00000000E+00  0.00000000E+00  0.00000000E+00
  0.00000000E+00  0.00000000E+00  0.00000000E+00
  0.00000000E+00  0.00000000E+00  0.00000000E+00
  0.00000000E+00  0.00000000E+00  0.00000000E+00
  0.00000000E+00  0.00000000E+00  0.00000000E+00
  0.00000000E+00  0.00000000E+00  0.00000000E+00
  0.00000000E+00  0.00000000E+00  0.00000000E+00
  0.00000000E+00  0.00000000E+00  0.00000000E+00
  0.00000000E+00  0.00000000E+00  0.00000000E+00
  0.00000000E+00  0.00000000E+00  0.00000000E+00
  0.00000000E+00  0.00000000E+00  0.00000000E+00
  0.00000000E+00  0.00000000E+00  0.00000000E+00
  0.00000000E+00  0.00000000E+00  0.00000000E+00
  0.00000000E+00  0.00000000E+00  0.00000000E+00
  0.00000000E+00  0.00000000E+00  0.00000000E+00
  0.00000000E+00  0.00000000E+00  0.00000000E+00
  0.00000000E+00  0.00000000E+00  0.00000000E+00
  0.00000000E+00  0.00000000E+00  0.00000000E+00
  0.00000000E+00  0.00000000E+00  0.00000000E+00
  0.00000000E+00  0.00000000E+00  0.00000000E+00
  0.00000000E+00  0.00000000E+00  0.00000000E+00
  0.00000000E+00  0.00000000E+00  0.00000000E+00
  0.00000000E+00  0.00000000E+00  0.00000000E+00
  0.00000000E+00  0.00000000E+00  0.00000000E+00
  0.00000000E+00  0.00000000E+00  0.00000000E+00
  0.00000000E+00  0.00000000E+00  0.00000000E+00
  0.00000000E+00  0.00000000E+00  0.00000000E+00
  0.00000000E+00  0.00000000E+00  0.00000000E+00
  0.00000000E+00  0.00000000E+00  0.00000000E+00
  0.00000000E+00  0.00000000E+00  0.00000000E+00
  0.00000000E+00  0.00000000E+00  0.00000000E+00
  0.00000000E+00  0.00000000E+00  0.00000000E+00
  0.00000000E+00  0.00000000E+00  0.00000000E+00
  0.00000000E+00  0.00000000E+00  0.00000000E+00
  0.00000000E+00  0.00000000E+00  0.00000000E+00
  0.00000000E+00  0.00000000E+00  0.00000000E+00
  0.00000000E+00  0.00000000E+00  0.00000000E+00
  0.00000000E+00  0.00000000E+00  0.00000000E+00
  0.00000000E+00  0.00000000E+00  0.00000000E+00
  0.00000000E+00  0.00000000E+00  0.00000000E+00
  0.00000000E+00  0.00000000E+00  0.00000000E+00
  0.00000000E+00  0.00000000E+00  0.00000000E+00
  0.00000000E+00  0.00000000E+00  0.00000000E+00
  0.00000000E+00  0.00000000E+00  0.00000000E+00
  0.00000000E+00  0.00000000E+00  0.00000000E+00
  0.00000000E+00  0.00000000E+00  0.00000000E+00
