La Co Ni Sn Bi H                        
   1.00000000000000     
    29.1044006348000011    0.0000000000000000    0.0000000000000000
     0.4451680315000000   28.3694074727000007    0.0000000000000000
     0.0682082826000000    0.3036559964000000   28.5240018092999996
   La   Co   Ni   Sn   Bi   H 
    14    13    13    14    14     1
Selective dynamics
Direct
  0.5925920957948499  0.4217631470334015  0.4080330904252040   T   T   T
  0.6834868418573178  0.5763044708783353  0.3798929921367158   T   T   T
  0.4948822578704528  0.5271667796980960  0.2820521959326369   T   T   T
  0.5623652328370464  0.5219904741141718  0.6018910965802009   T   T   T
  0.5085277619669090  0.3871741341369232  0.3053848771479792   T   T   T
  0.5751933875059346  0.6559187373757376  0.4831265851613843   T   T   T
  0.5099987265388986  0.3379443530328115  0.4993554026419226   T   T   T
  0.5354531261740161  0.6374717565152379  0.3748784740016567   T   T   T
  0.4355213853630082  0.6431512751439318  0.5357060927509292   T   T   T
  0.4373551010143757  0.5015757590148624  0.3842817269995109   F   F   F
  0.4437846394494898  0.4460183835780285  0.5005161578087822   F   F   F
  0.3874416640091309  0.4667773986129424  0.6094086464661856   T   T   T
  0.3445542344816088  0.4441379931882657  0.3468442966468810   T   T   T
  0.3618917720728254  0.5853189393365505  0.3938552978679524   T   T   T
  0.4217425606853311  0.4061295180575186  0.3699802678458894   F   F   F
  0.5011311695957161  0.4887203336762909  0.4395023580252015   F   F   F
  0.4044148221271726  0.6101724300038001  0.4624736492929173   F   F   F
  0.4722931245665194  0.5596737886932672  0.5729988711091565   F   F   F
  0.6552684236953183  0.5165424048424470  0.4543399438695133   F   F   F
  0.5967309916701211  0.5535378348504167  0.5056109707055541   F   F   F
  0.5314074673932367  0.5941153005651714  0.5336729985293047   F   F   F
  0.5796732686089143  0.4997731718447866  0.4507473928409595   F   F   F
  0.4609061348581882  0.3306565005782117  0.3451362682180916   T   T   T
  0.3905180950192175  0.5252419063175111  0.4552418453041511   F   F   F
  0.4550340384898567  0.3247221123817824  0.4247905812737680   T   T   T
  0.5074804872141527  0.4592780196109629  0.3501259710292359   F   F   F
  0.6012877811302459  0.4669891268301640  0.5212355700313438   F   F   F
  0.5384608035519776  0.4312182275275163  0.4821288228790692   F   F   F
  0.4713083414346286  0.4805797151798927  0.5807598339419258   F   F   F
  0.3771163837573610  0.4514853175274567  0.4282230665427278   F   F   F
  0.4059018739390154  0.3822235888080883  0.4561785915149272   F   F   F
  0.5357818896390683  0.5680835373033233  0.4543473312664048   F   F   F
  0.4924712632432886  0.6367287407321953  0.4646113344718685   F   F   F
  0.4677327221812249  0.5829886973614862  0.4038343643763724   F   F   F
  0.5280944416629296  0.5063826634733033  0.5194466411805863   F   F   F
  0.6212454441397384  0.5105019604624417  0.3755946010283822   F   F   F
  0.6054499763524817  0.5821019035045651  0.4188664505762958   F   F   F
  0.4050790883739026  0.5245211222763402  0.5434909784116542   F   F   F
  0.3507039163304745  0.4702447635679278  0.5087248593877033   T   T   T
  0.4334699128422113  0.4571448511659755  0.3019666818965696   T   T   T
  0.5380381136544934  0.4216426802593062  0.5688684632592381   T   T   T
  0.3576042445757784  0.3870047002998970  0.5394810221639089   T   T   T
  0.4625951421883201  0.5516617238622956  0.4875128022361963   F   F   F
  0.6074955045136137  0.3759512945908720  0.5105852836569079   T   T   T
  0.4917678943118041  0.4387927030836450  0.6579944591116995   T   T   T
  0.5861835177923327  0.4673115917201869  0.3060799006256845   T   T   T
  0.4900497958562298  0.4037080615820798  0.4151644571778519   F   F   F
  0.4357080260957792  0.6744756111284399  0.4125588885359430   T   T   T
  0.4683398978229003  0.5371440157316467  0.6600001779844719   T   T   T
  0.5397532608265934  0.5319899791087650  0.3771480104995177   F   F   F
  0.6682014809395925  0.6005361038263684  0.4839931277375289   T   T   T
  0.6657314708506720  0.5200549684553617  0.5511115510769578   T   T   T
  0.3753822923525981  0.3343758080476968  0.3851033214515367   T   T   T
  0.6804870146940499  0.4376770535680478  0.4912717645346195   T   T   T
  0.5405227683957723  0.3194313646329857  0.3916792916463148   T   T   T
  0.3024116546794348  0.5028711387783625  0.4366410370972391   T   T   T
  0.3135063009764344  0.3954275947505259  0.4492693803705549   T   T   T
  0.5118674633581867  0.6256118213380444  0.6168212010768879   T   T   T
  0.4490613290608794  0.3743173913667746  0.5850383305341229   T   T   T
  0.3901735688881510  0.5801705916924573  0.6132404345070881   T   T   T
  0.4060345035617369  0.3057060266986751  0.5013873211898728   T   T   T
  0.4023524141921804  0.3713639655250214  0.2871439124338409   T   T   T
  0.3833196044782174  0.5336419939575612  0.2923079139563169   T   T   T
  0.6939075565169661  0.4639138635548614  0.3890337860804260   T   T   T
  0.3376646469553224  0.5721396343063080  0.5128418272238451   T   T   T
  0.5984362639942243  0.5719410556644845  0.3065655725859812   T   T   T
  0.6120320666459467  0.6149071021619928  0.5754819636222028   T   T   T
  0.4401376060734956  0.6146887955118125  0.3236892022352406   T   T   T
  0.7348932576860808  0.5137539566264975  0.3672936963138185   T   T   T
 
  0.00000000E+00  0.00000000E+00  0.00000000E+00
  0.00000000E+00  0.00000000E+00  0.00000000E+00
  0.00000000E+00  0.00000000E+00  0.00000000E+00
  0.00000000E+00  0.00000000E+00  0.00000000E+00
  0.00000000E+00  0.00000000E+00  0.00000000E+00
  0.00000000E+00  0.00000000E+00  0.00000000E+00
  0.00000000E+00  0.00000000E+00  0.00000000E+00
  0.00000000E+00  0.00000000E+00  0.00000000E+00
  0.00000000E+00  0.00000000E+00  0.00000000E+00
  0.00000000E+00  0.00000000E+00  0.00000000E+00
  0.00000000E+00  0.00000000E+00  0.00000000E+00
  0.00000000E+00  0.00000000E+00  0.00000000E+00
  0.00000000E+00  0.00000000E+00  0.00000000E+00
  0.00000000E+00  0.00000000E+00  0.00000000E+00
  0.00000000E+00  0.00000000E+00  0.00000000E+00
  0.00000000E+00  0.00000000E+00  0.00000000E+00
  0.00000000E+00  0.00000000E+00  0.00000000E+00
  0.00000000E+00  0.00000000E+00  0.00000000E+00
  0.00000000E+00  0.00000000E+00  0.00000000E+00
  0.00000000E+00  0.00000000E+00  0.00000000E+00
  0.00000000E+00  0.00000000E+00  0.00000000E+00
  0.00000000E+00  0.00000000E+00  0.00000000E+00
  0.00000000E+00  0.00000000E+00  0.00000000E+00
  0.00000000E+00  0.00000000E+00  0.00000000E+00
  0.00000000E+00  0.00000000E+00  0.00000000E+00
  0.00000000E+00  0.00000000E+00  0.00000000E+00
  0.00000000E+00  0.00000000E+00  0.00000000E+00
  0.00000000E+00  0.00000000E+00  0.00000000E+00
  0.00000000E+00  0.00000000E+00  0.00000000E+00
  0.00000000E+00  0.00000000E+00  0.00000000E+00
  0.00000000E+00  0.00000000E+00  0.00000000E+00
  0.00000000E+00  0.00000000E+00  0.00000000E+00
  0.00000000E+00  0.00000000E+00  0.00000000E+00
  0.00000000E+00  0.00000000E+00  0.00000000E+00
  0.00000000E+00  0.00000000E+00  0.00000000E+00
  0.00000000E+00  0.00000000E+00  0.00000000E+00
  0.00000000E+00  0.00000000E+00  0.00000000E+00
  0.00000000E+00  0.00000000E+00  0.00000000E+00
  0.00000000E+00  0.00000000E+00  0.00000000E+00
  0.00000000E+00  0.00000000E+00  0.00000000E+00
  0.00000000E+00  0.00000000E+00  0.00000000E+00
  0.00000000E+00  0.00000000E+00  0.00000000E+00
  0.00000000E+00  0.00000000E+00  0.00000000E+00
  0.00000000E+00  0.00000000E+00  0.00000000E+00
  0.00000000E+00  0.00000000E+00  0.00000000E+00
  0.00000000E+00  0.00000000E+00  0.00000000E+00
  0.00000000E+00  0.00000000E+00  0.00000000E+00
  0.00000000E+00  0.00000000E+00  0.00000000E+00
  0.00000000E+00  0.00000000E+00  0.00000000E+00
  0.00000000E+00  0.00000000E+00  0.00000000E+00
  0.00000000E+00  0.00000000E+00  0.00000000E+00
  0.00000000E+00  0.00000000E+00  0.00000000E+00
  0.00000000E+00  0.00000000E+00  0.00000000E+00
  0.00000000E+00  0.00000000E+00  0.00000000E+00
  0.00000000E+00  0.00000000E+00  0.00000000E+00
  0.00000000E+00  0.00000000E+00  0.00000000E+00
  0.00000000E+00  0.00000000E+00  0.00000000E+00
  0.00000000E+00  0.00000000E+00  0.00000000E+00
  0.00000000E+00  0.00000000E+00  0.00000000E+00
  0.00000000E+00  0.00000000E+00  0.00000000E+00
  0.00000000E+00  0.00000000E+00  0.00000000E+00
  0.00000000E+00  0.00000000E+00  0.00000000E+00
  0.00000000E+00  0.00000000E+00  0.00000000E+00
  0.00000000E+00  0.00000000E+00  0.00000000E+00
  0.00000000E+00  0.00000000E+00  0.00000000E+00
  0.00000000E+00  0.00000000E+00  0.00000000E+00
  0.00000000E+00  0.00000000E+00  0.00000000E+00
  0.00000000E+00  0.00000000E+00  0.00000000E+00
  0.00000000E+00  0.00000000E+00  0.00000000E+00
