La Co Ni Sn Bi H                        
   1.00000000000000     
    29.1044006348000011    0.0000000000000000    0.0000000000000000
     0.4451680315000000   28.3694074727000007    0.0000000000000000
     0.0682082826000000    0.3036559964000000   28.5240018092999996
   La   Co   Ni   Sn   Bi   H 
    14    13    13    14    14     1
Selective dynamics
Direct
  0.5923183540412006  0.4204554446053220  0.4075790711486998   T   T   T
  0.6853112474102877  0.5712521118000811  0.3810992368356372   T   T   T
  0.4954042282529751  0.5280366564319743  0.2825049344959938   T   T   T
  0.5623179544425363  0.5209738888878752  0.6019369667578357   T   T   T
  0.5086461025732676  0.3874966203372379  0.3049421513667827   T   T   T
  0.5751065402489156  0.6554270525027087  0.4838516419396771   T   T   T
  0.5095696430892919  0.3372580197965490  0.4985896429301147   T   T   T
  0.5352867967279717  0.6376065501424224  0.3751751697267658   T   T   T
  0.4355254161031294  0.6432717459007523  0.5355518174079790   T   T   T
  0.4373551010143757  0.5015757590148624  0.3842817269995109   F   F   F
  0.4437846394494898  0.4460183835780285  0.5005161578087822   F   F   F
  0.3860683898613605  0.4640541566530204  0.6107789694791025   T   T   T
  0.3444422942410629  0.4445242317052490  0.3467209231116548   T   T   T
  0.3619110633603017  0.5858427250875163  0.3937725189241325   T   T   T
  0.4217425606853311  0.4061295180575186  0.3699802678458894   F   F   F
  0.5011311695957161  0.4887203336762909  0.4395023580252015   F   F   F
  0.4044148221271726  0.6101724300038001  0.4624736492929173   F   F   F
  0.4722931245665194  0.5596737886932672  0.5729988711091565   F   F   F
  0.6552684236953183  0.5165424048424470  0.4543399438695133   F   F   F
  0.5967309916701211  0.5535378348504167  0.5056109707055541   F   F   F
  0.5314074673932367  0.5941153005651714  0.5336729985293047   F   F   F
  0.5796732686089143  0.4997731718447866  0.4507473928409595   F   F   F
  0.4606153856676696  0.3306947236937277  0.3437239897531091   T   T   T
  0.3905180950192175  0.5252419063175111  0.4552418453041511   F   F   F
  0.4543222880708805  0.3246686458792724  0.4230441554768928   T   T   T
  0.5074804872141527  0.4592780196109629  0.3501259710292359   F   F   F
  0.6012877811302459  0.4669891268301640  0.5212355700313438   F   F   F
  0.5384608035519776  0.4312182275275163  0.4821288228790692   F   F   F
  0.4713083414346286  0.4805797151798927  0.5807598339419258   F   F   F
  0.3771163837573610  0.4514853175274567  0.4282230665427278   F   F   F
  0.4059018739390154  0.3822235888080883  0.4561785915149272   F   F   F
  0.5357818896390683  0.5680835373033233  0.4543473312664048   F   F   F
  0.4924712632432886  0.6367287407321953  0.4646113344718685   F   F   F
  0.4677327221812249  0.5829886973614862  0.4038343643763724   F   F   F
  0.5280944416629296  0.5063826634733033  0.5194466411805863   F   F   F
  0.6212454441397384  0.5105019604624417  0.3755946010283822   F   F   F
  0.6054499763524817  0.5821019035045651  0.4188664505762958   F   F   F
  0.4050790883739026  0.5245211222763402  0.5434909784116542   F   F   F
  0.3508688034428746  0.4696363400164609  0.5080225825901775   T   T   T
  0.4338702822887168  0.4576269214929855  0.3021332147251276   T   T   T
  0.5377701642098685  0.4211505948311157  0.5685063659669831   T   T   T
  0.3581259206571594  0.3858810094070748  0.5385590416909479   T   T   T
  0.4625951421883201  0.5516617238622956  0.4875128022361963   F   F   F
  0.6067355858607596  0.3754892750528859  0.5102280319469364   T   T   T
  0.4926543896342949  0.4370963921150973  0.6570287567649429   T   T   T
  0.5872958201098795  0.4677923559695219  0.3062362068011777   T   T   T
  0.4900497958562298  0.4037080615820798  0.4151644571778519   F   F   F
  0.4355633954469329  0.6747521126009424  0.4128596080112894   T   T   T
  0.4684988223623260  0.5356257931252834  0.6599234839082185   T   T   T
  0.5397532608265934  0.5319899791087650  0.3771480104995177   F   F   F
  0.6683383641761697  0.6004627808816001  0.4838251608025251   T   T   T
  0.6659492047250199  0.5190696227593611  0.5504548256258749   T   T   T
  0.3746891397899395  0.3347549481932323  0.3844578070045198   T   T   T
  0.6789168663298856  0.4365199068632761  0.4866186192244931   T   T   T
  0.5396955201819397  0.3189108593037319  0.3906640112255464   T   T   T
  0.3024849501792381  0.5032163687568251  0.4364663296589902   T   T   T
  0.3133531423554231  0.3954751678246808  0.4485957226267500   T   T   T
  0.5122554201534706  0.6249624962008293  0.6167519715708694   T   T   T
  0.4496160634463065  0.3725528544152757  0.5843860156921613   T   T   T
  0.3910278531158896  0.5791040805019529  0.6132576210346843   T   T   T
  0.4060791135888008  0.3046792295317782  0.5001893224492067   T   T   T
  0.4022635725004111  0.3720960088358460  0.2867449935388653   T   T   T
  0.3837124752596951  0.5340827863741041  0.2923375254043701   T   T   T
  0.6927517793896518  0.4604409143366674  0.3873801564219478   T   T   T
  0.3375879030030372  0.5718420995858304  0.5126630807780611   T   T   T
  0.5996206745093875  0.5725512535799767  0.3078699754241017   T   T   T
  0.6125639735160462  0.6138004776165756  0.5758188724172189   T   T   T
  0.4401068543060497  0.6155332708897173  0.3238231006860895   T   T   T
  0.3323547146621994  0.4552314810315379  0.6616949204626359   T   T   T
 
  0.00000000E+00  0.00000000E+00  0.00000000E+00
  0.00000000E+00  0.00000000E+00  0.00000000E+00
  0.00000000E+00  0.00000000E+00  0.00000000E+00
  0.00000000E+00  0.00000000E+00  0.00000000E+00
  0.00000000E+00  0.00000000E+00  0.00000000E+00
  0.00000000E+00  0.00000000E+00  0.00000000E+00
  0.00000000E+00  0.00000000E+00  0.00000000E+00
  0.00000000E+00  0.00000000E+00  0.00000000E+00
  0.00000000E+00  0.00000000E+00  0.00000000E+00
  0.00000000E+00  0.00000000E+00  0.00000000E+00
  0.00000000E+00  0.00000000E+00  0.00000000E+00
  0.00000000E+00  0.00000000E+00  0.00000000E+00
  0.00000000E+00  0.00000000E+00  0.00000000E+00
  0.00000000E+00  0.00000000E+00  0.00000000E+00
  0.00000000E+00  0.00000000E+00  0.00000000E+00
  0.00000000E+00  0.00000000E+00  0.00000000E+00
  0.00000000E+00  0.00000000E+00  0.00000000E+00
  0.00000000E+00  0.00000000E+00  0.00000000E+00
  0.00000000E+00  0.00000000E+00  0.00000000E+00
  0.00000000E+00  0.00000000E+00  0.00000000E+00
  0.00000000E+00  0.00000000E+00  0.00000000E+00
  0.00000000E+00  0.00000000E+00  0.00000000E+00
  0.00000000E+00  0.00000000E+00  0.00000000E+00
  0.00000000E+00  0.00000000E+00  0.00000000E+00
  0.00000000E+00  0.00000000E+00  0.00000000E+00
  0.00000000E+00  0.00000000E+00  0.00000000E+00
  0.00000000E+00  0.00000000E+00  0.00000000E+00
  0.00000000E+00  0.00000000E+00  0.00000000E+00
  0.00000000E+00  0.00000000E+00  0.00000000E+00
  0.00000000E+00  0.00000000E+00  0.00000000E+00
  0.00000000E+00  0.00000000E+00  0.00000000E+00
  0.00000000E+00  0.00000000E+00  0.00000000E+00
  0.00000000E+00  0.00000000E+00  0.00000000E+00
  0.00000000E+00  0.00000000E+00  0.00000000E+00
  0.00000000E+00  0.00000000E+00  0.00000000E+00
  0.00000000E+00  0.00000000E+00  0.00000000E+00
  0.00000000E+00  0.00000000E+00  0.00000000E+00
  0.00000000E+00  0.00000000E+00  0.00000000E+00
  0.00000000E+00  0.00000000E+00  0.00000000E+00
  0.00000000E+00  0.00000000E+00  0.00000000E+00
  0.00000000E+00  0.00000000E+00  0.00000000E+00
  0.00000000E+00  0.00000000E+00  0.00000000E+00
  0.00000000E+00  0.00000000E+00  0.00000000E+00
  0.00000000E+00  0.00000000E+00  0.00000000E+00
  0.00000000E+00  0.00000000E+00  0.00000000E+00
  0.00000000E+00  0.00000000E+00  0.00000000E+00
  0.00000000E+00  0.00000000E+00  0.00000000E+00
  0.00000000E+00  0.00000000E+00  0.00000000E+00
  0.00000000E+00  0.00000000E+00  0.00000000E+00
  0.00000000E+00  0.00000000E+00  0.00000000E+00
  0.00000000E+00  0.00000000E+00  0.00000000E+00
  0.00000000E+00  0.00000000E+00  0.00000000E+00
  0.00000000E+00  0.00000000E+00  0.00000000E+00
  0.00000000E+00  0.00000000E+00  0.00000000E+00
  0.00000000E+00  0.00000000E+00  0.00000000E+00
  0.00000000E+00  0.00000000E+00  0.00000000E+00
  0.00000000E+00  0.00000000E+00  0.00000000E+00
  0.00000000E+00  0.00000000E+00  0.00000000E+00
  0.00000000E+00  0.00000000E+00  0.00000000E+00
  0.00000000E+00  0.00000000E+00  0.00000000E+00
  0.00000000E+00  0.00000000E+00  0.00000000E+00
  0.00000000E+00  0.00000000E+00  0.00000000E+00
  0.00000000E+00  0.00000000E+00  0.00000000E+00
  0.00000000E+00  0.00000000E+00  0.00000000E+00
  0.00000000E+00  0.00000000E+00  0.00000000E+00
  0.00000000E+00  0.00000000E+00  0.00000000E+00
  0.00000000E+00  0.00000000E+00  0.00000000E+00
  0.00000000E+00  0.00000000E+00  0.00000000E+00
  0.00000000E+00  0.00000000E+00  0.00000000E+00
