La Co Ni Sn Bi H                        
   1.00000000000000     
    29.1044006348000011    0.0000000000000000    0.0000000000000000
     0.4451680315000000   28.3694074727000007    0.0000000000000000
     0.0682082826000000    0.3036559964000000   28.5240018092999996
   La   Co   Ni   Sn   Bi   H 
    14    13    13    14    14     1
Selective dynamics
Direct
  0.5923159365660270  0.4202544492628097  0.4075505866862190   T   T   T
  0.6853724337511352  0.5711829810753477  0.3812147659221136   T   T   T
  0.4956781883648745  0.5277248005522439  0.2822032595538609   T   T   T
  0.5625160386202835  0.5219273145375368  0.6022251067126142   T   T   T
  0.5113706878575842  0.3863697659189959  0.3071081641609920   T   T   T
  0.5751304957570920  0.6554928338827105  0.4833983820848493   T   T   T
  0.5098259045901506  0.3377616344182005  0.4996567440977817   T   T   T
  0.5347265531491125  0.6376537359859751  0.3750920186590899   T   T   T
  0.4358640541203709  0.6434699639864229  0.5355486574778883   T   T   T
  0.4373551010143757  0.5015757590148624  0.3842817269995109   F   F   F
  0.4437846394494898  0.4460183835780285  0.5005161578087822   F   F   F
  0.3874029030784760  0.4670106305103012  0.6095770960839501   T   T   T
  0.3461613472061149  0.4412228657099294  0.3465151725514679   T   T   T
  0.3617569108941389  0.5854271187421362  0.3937576366398519   T   T   T
  0.4217425606853311  0.4061295180575186  0.3699802678458894   F   F   F
  0.5011311695957161  0.4887203336762909  0.4395023580252015   F   F   F
  0.4044148221271726  0.6101724300038001  0.4624736492929173   F   F   F
  0.4722931245665194  0.5596737886932672  0.5729988711091565   F   F   F
  0.6552684236953183  0.5165424048424470  0.4543399438695133   F   F   F
  0.5967309916701211  0.5535378348504167  0.5056109707055541   F   F   F
  0.5314074673932367  0.5941153005651714  0.5336729985293047   F   F   F
  0.5796732686089143  0.4997731718447866  0.4507473928409595   F   F   F
  0.4594749392143776  0.3311751959694801  0.3480629079754353   T   T   T
  0.3905180950192175  0.5252419063175111  0.4552418453041511   F   F   F
  0.4579302332071631  0.3240843297724909  0.4299345441592366   T   T   T
  0.5074804872141527  0.4592780196109629  0.3501259710292359   F   F   F
  0.6012877811302459  0.4669891268301640  0.5212355700313438   F   F   F
  0.5384608035519776  0.4312182275275163  0.4821288228790692   F   F   F
  0.4713083414346286  0.4805797151798927  0.5807598339419258   F   F   F
  0.3771163837573610  0.4514853175274567  0.4282230665427278   F   F   F
  0.4059018739390154  0.3822235888080883  0.4561785915149272   F   F   F
  0.5357818896390683  0.5680835373033233  0.4543473312664048   F   F   F
  0.4924712632432886  0.6367287407321953  0.4646113344718685   F   F   F
  0.4677327221812249  0.5829886973614862  0.4038343643763724   F   F   F
  0.5280944416629296  0.5063826634733033  0.5194466411805863   F   F   F
  0.6212454441397384  0.5105019604624417  0.3755946010283822   F   F   F
  0.6054499763524817  0.5821019035045651  0.4188664505762958   F   F   F
  0.4050790883739026  0.5245211222763402  0.5434909784116542   F   F   F
  0.3506375298432560  0.4703863144076126  0.5084686462827288   T   T   T
  0.4351977458339799  0.4569861637348282  0.3015789285155163   T   T   T
  0.5380125375786311  0.4218510812944067  0.5690203039605451   T   T   T
  0.3573260857007577  0.3875219017305334  0.5402477991159851   T   T   T
  0.4625951421883201  0.5516617238622956  0.4875128022361963   F   F   F
  0.6072848678364055  0.3758273652746190  0.5111402897990164   T   T   T
  0.4915432316135579  0.4386804176184653  0.6577815003277470   T   T   T
  0.5875523736290883  0.4681791929951468  0.3060591337191269   T   T   T
  0.4900497958562298  0.4037080615820798  0.4151644571778519   F   F   F
  0.4352811404737366  0.6745332296990584  0.4127344309005335   T   T   T
  0.4683912047237119  0.5370430311984988  0.6599985326264894   T   T   T
  0.5397532608265934  0.5319899791087650  0.3771480104995177   F   F   F
  0.6686344693371294  0.6003985201526650  0.4836978341556704   T   T   T
  0.6656065502810835  0.5191163587037299  0.5508152631527845   T   T   T
  0.3780202859982508  0.3328641713845422  0.3881705311473304   T   T   T
  0.6794241292662599  0.4370471986848186  0.4868398062251693   T   T   T
  0.5400571909276715  0.3175167840825923  0.3919155451253534   T   T   T
  0.3026022755617445  0.5024568762512939  0.4353789050822564   T   T   T
  0.3136942060534907  0.3956307807015895  0.4499716189241387   T   T   T
  0.5122921123031662  0.6255051358941880  0.6165035350008499   T   T   T
  0.4488319380761676  0.3742806428138217  0.5851133029128520   T   T   T
  0.3904393129389251  0.5804644832000186  0.6130041760854049   T   T   T
  0.4042856622792936  0.3056724834002224  0.5017410717430743   T   T   T
  0.4082697924222149  0.3720289805084613  0.2841215441538952   T   T   T
  0.3838471042321628  0.5325341517723741  0.2923694809735171   T   T   T
  0.6926035296331363  0.4601934424694586  0.3872720765473782   T   T   T
  0.3374385101691432  0.5717823256558147  0.5125551552143018   T   T   T
  0.5997860148794096  0.5731446115983508  0.3083777195738642   T   T   T
  0.6126776201323969  0.6144210395429971  0.5753717142209397   T   T   T
  0.4396282344804094  0.6145047673723256  0.3236642520851699   T   T   T
  0.3444667929007891  0.3681568565232766  0.3030466058342298   T   T   T
 
  0.00000000E+00  0.00000000E+00  0.00000000E+00
  0.00000000E+00  0.00000000E+00  0.00000000E+00
  0.00000000E+00  0.00000000E+00  0.00000000E+00
  0.00000000E+00  0.00000000E+00  0.00000000E+00
  0.00000000E+00  0.00000000E+00  0.00000000E+00
  0.00000000E+00  0.00000000E+00  0.00000000E+00
  0.00000000E+00  0.00000000E+00  0.00000000E+00
  0.00000000E+00  0.00000000E+00  0.00000000E+00
  0.00000000E+00  0.00000000E+00  0.00000000E+00
  0.00000000E+00  0.00000000E+00  0.00000000E+00
  0.00000000E+00  0.00000000E+00  0.00000000E+00
  0.00000000E+00  0.00000000E+00  0.00000000E+00
  0.00000000E+00  0.00000000E+00  0.00000000E+00
  0.00000000E+00  0.00000000E+00  0.00000000E+00
  0.00000000E+00  0.00000000E+00  0.00000000E+00
  0.00000000E+00  0.00000000E+00  0.00000000E+00
  0.00000000E+00  0.00000000E+00  0.00000000E+00
  0.00000000E+00  0.00000000E+00  0.00000000E+00
  0.00000000E+00  0.00000000E+00  0.00000000E+00
  0.00000000E+00  0.00000000E+00  0.00000000E+00
  0.00000000E+00  0.00000000E+00  0.00000000E+00
  0.00000000E+00  0.00000000E+00  0.00000000E+00
  0.00000000E+00  0.00000000E+00  0.00000000E+00
  0.00000000E+00  0.00000000E+00  0.00000000E+00
  0.00000000E+00  0.00000000E+00  0.00000000E+00
  0.00000000E+00  0.00000000E+00  0.00000000E+00
  0.00000000E+00  0.00000000E+00  0.00000000E+00
  0.00000000E+00  0.00000000E+00  0.00000000E+00
  0.00000000E+00  0.00000000E+00  0.00000000E+00
  0.00000000E+00  0.00000000E+00  0.00000000E+00
  0.00000000E+00  0.00000000E+00  0.00000000E+00
  0.00000000E+00  0.00000000E+00  0.00000000E+00
  0.00000000E+00  0.00000000E+00  0.00000000E+00
  0.00000000E+00  0.00000000E+00  0.00000000E+00
  0.00000000E+00  0.00000000E+00  0.00000000E+00
  0.00000000E+00  0.00000000E+00  0.00000000E+00
  0.00000000E+00  0.00000000E+00  0.00000000E+00
  0.00000000E+00  0.00000000E+00  0.00000000E+00
  0.00000000E+00  0.00000000E+00  0.00000000E+00
  0.00000000E+00  0.00000000E+00  0.00000000E+00
  0.00000000E+00  0.00000000E+00  0.00000000E+00
  0.00000000E+00  0.00000000E+00  0.00000000E+00
  0.00000000E+00  0.00000000E+00  0.00000000E+00
  0.00000000E+00  0.00000000E+00  0.00000000E+00
  0.00000000E+00  0.00000000E+00  0.00000000E+00
  0.00000000E+00  0.00000000E+00  0.00000000E+00
  0.00000000E+00  0.00000000E+00  0.00000000E+00
  0.00000000E+00  0.00000000E+00  0.00000000E+00
  0.00000000E+00  0.00000000E+00  0.00000000E+00
  0.00000000E+00  0.00000000E+00  0.00000000E+00
  0.00000000E+00  0.00000000E+00  0.00000000E+00
  0.00000000E+00  0.00000000E+00  0.00000000E+00
  0.00000000E+00  0.00000000E+00  0.00000000E+00
  0.00000000E+00  0.00000000E+00  0.00000000E+00
  0.00000000E+00  0.00000000E+00  0.00000000E+00
  0.00000000E+00  0.00000000E+00  0.00000000E+00
  0.00000000E+00  0.00000000E+00  0.00000000E+00
  0.00000000E+00  0.00000000E+00  0.00000000E+00
  0.00000000E+00  0.00000000E+00  0.00000000E+00
  0.00000000E+00  0.00000000E+00  0.00000000E+00
  0.00000000E+00  0.00000000E+00  0.00000000E+00
  0.00000000E+00  0.00000000E+00  0.00000000E+00
  0.00000000E+00  0.00000000E+00  0.00000000E+00
  0.00000000E+00  0.00000000E+00  0.00000000E+00
  0.00000000E+00  0.00000000E+00  0.00000000E+00
  0.00000000E+00  0.00000000E+00  0.00000000E+00
  0.00000000E+00  0.00000000E+00  0.00000000E+00
  0.00000000E+00  0.00000000E+00  0.00000000E+00
  0.00000000E+00  0.00000000E+00  0.00000000E+00
