La Co Ni Sn Bi H                        
   1.00000000000000     
    29.1044006348000011    0.0000000000000000    0.0000000000000000
     0.4451680315000000   28.3694074727000007    0.0000000000000000
     0.0682082826000000    0.3036559964000000   28.5240018092999996
   La   Co   Ni   Sn   Bi   H 
    14    13    13    14    14     1
Selective dynamics
Direct
  0.5921420256936081  0.4184675355187349  0.4086826103728335   T   T   T
  0.6851277120457925  0.5712432193177246  0.3813238097935142   T   T   T
  0.4957421749443375  0.5275336931577859  0.2821753717271087   T   T   T
  0.5623404313483295  0.5220956173923906  0.6020672508657839   T   T   T
  0.5081252389995284  0.3870687881612503  0.3052156280327417   T   T   T
  0.5752228606889179  0.6555456220503062  0.4835341491796040   T   T   T
  0.5119571617825051  0.3381977185233239  0.4981999382891435   T   T   T
  0.5354023495214383  0.6376645038182445  0.3752316841617993   T   T   T
  0.4359068668337399  0.6433900117689134  0.5355157507361905   T   T   T
  0.4373551010143757  0.5015757590148624  0.3842817269995109   F   F   F
  0.4437846394494898  0.4460183835780285  0.5005161578087822   F   F   F
  0.3875664977501767  0.4667127148266575  0.6092761181713768   T   T   T
  0.3443470452666679  0.4446538735373443  0.3471248130008950   T   T   T
  0.3620598456000477  0.5852123460608046  0.3936421490292141   T   T   T
  0.4217425606853311  0.4061295180575186  0.3699802678458894   F   F   F
  0.5011311695957161  0.4887203336762909  0.4395023580252015   F   F   F
  0.4044148221271726  0.6101724300038001  0.4624736492929173   F   F   F
  0.4722931245665194  0.5596737886932672  0.5729988711091565   F   F   F
  0.6552684236953183  0.5165424048424470  0.4543399438695133   F   F   F
  0.5967309916701211  0.5535378348504167  0.5056109707055541   F   F   F
  0.5314074673932367  0.5941153005651714  0.5336729985293047   F   F   F
  0.5796732686089143  0.4997731718447866  0.4507473928409595   F   F   F
  0.4579287863127288  0.3303749833160596  0.3440613243793939   T   T   T
  0.3905180950192175  0.5252419063175111  0.4552418453041511   F   F   F
  0.4558829148018657  0.3249978128961002  0.4245140611067340   T   T   T
  0.5074804872141527  0.4592780196109629  0.3501259710292359   F   F   F
  0.6012877811302459  0.4669891268301640  0.5212355700313438   F   F   F
  0.5384608035519776  0.4312182275275163  0.4821288228790692   F   F   F
  0.4713083414346286  0.4805797151798927  0.5807598339419258   F   F   F
  0.3771163837573610  0.4514853175274567  0.4282230665427278   F   F   F
  0.4059018739390154  0.3822235888080883  0.4561785915149272   F   F   F
  0.5357818896390683  0.5680835373033233  0.4543473312664048   F   F   F
  0.4924712632432886  0.6367287407321953  0.4646113344718685   F   F   F
  0.4677327221812249  0.5829886973614862  0.4038343643763724   F   F   F
  0.5280944416629296  0.5063826634733033  0.5194466411805863   F   F   F
  0.6212454441397384  0.5105019604624417  0.3755946010283822   F   F   F
  0.6054499763524817  0.5821019035045651  0.4188664505762958   F   F   F
  0.4050790883739026  0.5245211222763402  0.5434909784116542   F   F   F
  0.3507519642812760  0.4700397345398901  0.5089589403308834   T   T   T
  0.4340420352056222  0.4576955351772442  0.3018414359826821   T   T   T
  0.5380871938861328  0.4226689262131716  0.5688727608687902   T   T   T
  0.3582625401026380  0.3864674334647338  0.5393332755162349   T   T   T
  0.4625951421883201  0.5516617238622956  0.4875128022361963   F   F   F
  0.6091623702609281  0.3744704052898956  0.5143345518664928   T   T   T
  0.4916352588205303  0.4389875874115796  0.6578938328937438   T   T   T
  0.5873282799157401  0.4670005708843952  0.3067662794925280   T   T   T
  0.4900497958562298  0.4037080615820798  0.4151644571778519   F   F   F
  0.4354626455134639  0.6743815061609510  0.4125474238663523   T   T   T
  0.4681585835506274  0.5370999896057378  0.6601655452377585   T   T   T
  0.5397532608265934  0.5319899791087650  0.3771480104995177   F   F   F
  0.6685864094296554  0.6003046720373995  0.4840144206721555   T   T   T
  0.6656519297694792  0.5186982657589020  0.5510430327026451   T   T   T
  0.3752835303404355  0.3344558910393701  0.3861415280017588   T   T   T
  0.6790553373221977  0.4365512199180425  0.4869448254322963   T   T   T
  0.5378223999118502  0.3168507677771428  0.3883782514997386   T   T   T
  0.3023802688098456  0.5031434532043981  0.4371036670735572   T   T   T
  0.3133065384297523  0.3959816974517406  0.4496733327669455   T   T   T
  0.5122467434446311  0.6255120009451681  0.6166944781742074   T   T   T
  0.4498739307770921  0.3739881135568444  0.5846061395835838   T   T   T
  0.3903506156723324  0.5803924653578101  0.6130165876317786   T   T   T
  0.4076100356526002  0.3052345377430690  0.5008255025485692   T   T   T
  0.4019149418198497  0.3730799893432875  0.2864970908226830   T   T   T
  0.3839894206414146  0.5335364034589992  0.2919859934373469   T   T   T
  0.6919901668957839  0.4598408524646627  0.3873623931504114   T   T   T
  0.3377725960530421  0.5723501351097763  0.5129182927654504   T   T   T
  0.5995829155464123  0.5722023302923547  0.3079119721653964   T   T   T
  0.6127076768214218  0.6144104851603899  0.5755283233745913   T   T   T
  0.4403337041869947  0.6150767987034165  0.3235766660507913   T   T   T
  0.5786676604009713  0.3496433663191383  0.4535381434230962   T   T   T
 
  0.00000000E+00  0.00000000E+00  0.00000000E+00
  0.00000000E+00  0.00000000E+00  0.00000000E+00
  0.00000000E+00  0.00000000E+00  0.00000000E+00
  0.00000000E+00  0.00000000E+00  0.00000000E+00
  0.00000000E+00  0.00000000E+00  0.00000000E+00
  0.00000000E+00  0.00000000E+00  0.00000000E+00
  0.00000000E+00  0.00000000E+00  0.00000000E+00
  0.00000000E+00  0.00000000E+00  0.00000000E+00
  0.00000000E+00  0.00000000E+00  0.00000000E+00
  0.00000000E+00  0.00000000E+00  0.00000000E+00
  0.00000000E+00  0.00000000E+00  0.00000000E+00
  0.00000000E+00  0.00000000E+00  0.00000000E+00
  0.00000000E+00  0.00000000E+00  0.00000000E+00
  0.00000000E+00  0.00000000E+00  0.00000000E+00
  0.00000000E+00  0.00000000E+00  0.00000000E+00
  0.00000000E+00  0.00000000E+00  0.00000000E+00
  0.00000000E+00  0.00000000E+00  0.00000000E+00
  0.00000000E+00  0.00000000E+00  0.00000000E+00
  0.00000000E+00  0.00000000E+00  0.00000000E+00
  0.00000000E+00  0.00000000E+00  0.00000000E+00
  0.00000000E+00  0.00000000E+00  0.00000000E+00
  0.00000000E+00  0.00000000E+00  0.00000000E+00
  0.00000000E+00  0.00000000E+00  0.00000000E+00
  0.00000000E+00  0.00000000E+00  0.00000000E+00
  0.00000000E+00  0.00000000E+00  0.00000000E+00
  0.00000000E+00  0.00000000E+00  0.00000000E+00
  0.00000000E+00  0.00000000E+00  0.00000000E+00
  0.00000000E+00  0.00000000E+00  0.00000000E+00
  0.00000000E+00  0.00000000E+00  0.00000000E+00
  0.00000000E+00  0.00000000E+00  0.00000000E+00
  0.00000000E+00  0.00000000E+00  0.00000000E+00
  0.00000000E+00  0.00000000E+00  0.00000000E+00
  0.00000000E+00  0.00000000E+00  0.00000000E+00
  0.00000000E+00  0.00000000E+00  0.00000000E+00
  0.00000000E+00  0.00000000E+00  0.00000000E+00
  0.00000000E+00  0.00000000E+00  0.00000000E+00
  0.00000000E+00  0.00000000E+00  0.00000000E+00
  0.00000000E+00  0.00000000E+00  0.00000000E+00
  0.00000000E+00  0.00000000E+00  0.00000000E+00
  0.00000000E+00  0.00000000E+00  0.00000000E+00
  0.00000000E+00  0.00000000E+00  0.00000000E+00
  0.00000000E+00  0.00000000E+00  0.00000000E+00
  0.00000000E+00  0.00000000E+00  0.00000000E+00
  0.00000000E+00  0.00000000E+00  0.00000000E+00
  0.00000000E+00  0.00000000E+00  0.00000000E+00
  0.00000000E+00  0.00000000E+00  0.00000000E+00
  0.00000000E+00  0.00000000E+00  0.00000000E+00
  0.00000000E+00  0.00000000E+00  0.00000000E+00
  0.00000000E+00  0.00000000E+00  0.00000000E+00
  0.00000000E+00  0.00000000E+00  0.00000000E+00
  0.00000000E+00  0.00000000E+00  0.00000000E+00
  0.00000000E+00  0.00000000E+00  0.00000000E+00
  0.00000000E+00  0.00000000E+00  0.00000000E+00
  0.00000000E+00  0.00000000E+00  0.00000000E+00
  0.00000000E+00  0.00000000E+00  0.00000000E+00
  0.00000000E+00  0.00000000E+00  0.00000000E+00
  0.00000000E+00  0.00000000E+00  0.00000000E+00
  0.00000000E+00  0.00000000E+00  0.00000000E+00
  0.00000000E+00  0.00000000E+00  0.00000000E+00
  0.00000000E+00  0.00000000E+00  0.00000000E+00
  0.00000000E+00  0.00000000E+00  0.00000000E+00
  0.00000000E+00  0.00000000E+00  0.00000000E+00
  0.00000000E+00  0.00000000E+00  0.00000000E+00
  0.00000000E+00  0.00000000E+00  0.00000000E+00
  0.00000000E+00  0.00000000E+00  0.00000000E+00
  0.00000000E+00  0.00000000E+00  0.00000000E+00
  0.00000000E+00  0.00000000E+00  0.00000000E+00
  0.00000000E+00  0.00000000E+00  0.00000000E+00
  0.00000000E+00  0.00000000E+00  0.00000000E+00
