La Co Ni Sn Bi H                        
   1.00000000000000     
    29.1044006348000011    0.0000000000000000    0.0000000000000000
     0.4451680315000000   28.3694074727000007    0.0000000000000000
     0.0682082826000000    0.3036559964000000   28.5240018092999996
   La   Co   Ni   Sn   Bi   H 
    14    13    13    14    14     1
Selective dynamics
Direct
  0.5929386411772545  0.4203112203339157  0.4077519721290341   T   T   T
  0.6851146645000227  0.5714826790924988  0.3810675089439625   T   T   T
  0.4959648687110104  0.5276676436882748  0.2819609959267627   T   T   T
  0.5626102697180425  0.5209903293484258  0.6020871032363527   T   T   T
  0.5086457484897808  0.3887792734324352  0.3044544868771332   T   T   T
  0.5750516925278815  0.6554871040455180  0.4839476215500462   T   T   T
  0.5125621750957100  0.3376189386165814  0.4981506476527642   T   T   T
  0.5353336701577317  0.6376155416226966  0.3753556066656885   T   T   T
  0.4359865828668441  0.6428049461597821  0.5361554022459887   T   T   T
  0.4373551010143757  0.5015757590148624  0.3842817269995109   F   F   F
  0.4437846394494898  0.4460183835780285  0.5005161578087822   F   F   F
  0.3881795027904398  0.4661734793717234  0.6088031332012682   T   T   T
  0.3451637396819898  0.4447551347173976  0.3459936319049645   T   T   T
  0.3623579578362868  0.5851096347734348  0.3934888899335365   T   T   T
  0.4217425606853311  0.4061295180575186  0.3699802678458894   F   F   F
  0.5011311695957161  0.4887203336762909  0.4395023580252015   F   F   F
  0.4044148221271726  0.6101724300038001  0.4624736492929173   F   F   F
  0.4722931245665194  0.5596737886932672  0.5729988711091565   F   F   F
  0.6552684236953183  0.5165424048424470  0.4543399438695133   F   F   F
  0.5967309916701211  0.5535378348504167  0.5056109707055541   F   F   F
  0.5314074673932367  0.5941153005651714  0.5336729985293047   F   F   F
  0.5796732686089143  0.4997731718447866  0.4507473928409595   F   F   F
  0.4603959252381638  0.3287071839358370  0.3447903160253002   T   T   T
  0.3905180950192175  0.5252419063175111  0.4552418453041511   F   F   F
  0.4562443336329384  0.3248965932018958  0.4237935004912724   T   T   T
  0.5074804872141527  0.4592780196109629  0.3501259710292359   F   F   F
  0.6012877811302459  0.4669891268301640  0.5212355700313438   F   F   F
  0.5384608035519776  0.4312182275275163  0.4821288228790692   F   F   F
  0.4713083414346286  0.4805797151798927  0.5807598339419258   F   F   F
  0.3771163837573610  0.4514853175274567  0.4282230665427278   F   F   F
  0.4059018739390154  0.3822235888080883  0.4561785915149272   F   F   F
  0.5357818896390683  0.5680835373033233  0.4543473312664048   F   F   F
  0.4924712632432886  0.6367287407321953  0.4646113344718685   F   F   F
  0.4677327221812249  0.5829886973614862  0.4038343643763724   F   F   F
  0.5280944416629296  0.5063826634733033  0.5194466411805863   F   F   F
  0.6212454441397384  0.5105019604624417  0.3755946010283822   F   F   F
  0.6054499763524817  0.5821019035045651  0.4188664505762958   F   F   F
  0.4050790883739026  0.5245211222763402  0.5434909784116542   F   F   F
  0.3500271661680509  0.4714822855932717  0.5089975226636461   T   T   T
  0.4342710622511947  0.4571644208695000  0.3018671946849642   T   T   T
  0.5379548715176403  0.4212714414898131  0.5685865896461774   T   T   T
  0.3579929587262938  0.3880377558022385  0.5354025221993917   T   T   T
  0.4625951421883201  0.5516617238622956  0.4875128022361963   F   F   F
  0.6089325345264992  0.3765485225488036  0.5113464795212062   T   T   T
  0.4916075281378116  0.4369826309221372  0.6571254536889674   T   T   T
  0.5877371262668670  0.4675987475089588  0.3065520378029291   T   T   T
  0.4900497958562298  0.4037080615820798  0.4151644571778519   F   F   F
  0.4355548988296797  0.6746068559499029  0.4126119149597355   T   T   T
  0.4684960339905012  0.5358926346420260  0.6600482415571556   T   T   T
  0.5397532608265934  0.5319899791087650  0.3771480104995177   F   F   F
  0.6685160034234797  0.6002496211932198  0.4840782332886407   T   T   T
  0.6655700390776706  0.5190350315359767  0.5511625737378049   T   T   T
  0.3758842310980914  0.3335926821657266  0.3853619712445261   T   T   T
  0.6803571189046759  0.4374006913340642  0.4872371527934510   T   T   T
  0.5404107825257860  0.3193849108446942  0.3895076554238024   T   T   T
  0.3025932655127193  0.5028241669537274  0.4363198292755730   T   T   T
  0.3124965221157727  0.3951906822790440  0.4452054871515789   T   T   T
  0.5130573734474537  0.6244621232836566  0.6173212392790577   T   T   T
  0.4496736384179611  0.3722911958722614  0.5833607209544329   T   T   T
  0.3903495179400908  0.5796282514173373  0.6134816180106049   T   T   T
  0.4097830094501849  0.3042538995774270  0.4991436640802894   T   T   T
  0.4028521083912007  0.3712600925320480  0.2872528221636444   T   T   T
  0.3847737448702779  0.5337454867125502  0.2911850263958037   T   T   T
  0.6931234731821080  0.4608125291757572  0.3875324132671784   T   T   T
  0.3377372839889662  0.5722513948580313  0.5126738355003556   T   T   T
  0.5993411600131173  0.5723698500118795  0.3076425524208108   T   T   T
  0.6127200188517801  0.6139619555469115  0.5757736271763729   T   T   T
  0.4405048431035528  0.6152172804413860  0.3235072773544026   T   T   T
  0.3179497228651370  0.3479393185387528  0.5574576460972954   T   T   T
 
  0.00000000E+00  0.00000000E+00  0.00000000E+00
  0.00000000E+00  0.00000000E+00  0.00000000E+00
  0.00000000E+00  0.00000000E+00  0.00000000E+00
  0.00000000E+00  0.00000000E+00  0.00000000E+00
  0.00000000E+00  0.00000000E+00  0.00000000E+00
  0.00000000E+00  0.00000000E+00  0.00000000E+00
  0.00000000E+00  0.00000000E+00  0.00000000E+00
  0.00000000E+00  0.00000000E+00  0.00000000E+00
  0.00000000E+00  0.00000000E+00  0.00000000E+00
  0.00000000E+00  0.00000000E+00  0.00000000E+00
  0.00000000E+00  0.00000000E+00  0.00000000E+00
  0.00000000E+00  0.00000000E+00  0.00000000E+00
  0.00000000E+00  0.00000000E+00  0.00000000E+00
  0.00000000E+00  0.00000000E+00  0.00000000E+00
  0.00000000E+00  0.00000000E+00  0.00000000E+00
  0.00000000E+00  0.00000000E+00  0.00000000E+00
  0.00000000E+00  0.00000000E+00  0.00000000E+00
  0.00000000E+00  0.00000000E+00  0.00000000E+00
  0.00000000E+00  0.00000000E+00  0.00000000E+00
  0.00000000E+00  0.00000000E+00  0.00000000E+00
  0.00000000E+00  0.00000000E+00  0.00000000E+00
  0.00000000E+00  0.00000000E+00  0.00000000E+00
  0.00000000E+00  0.00000000E+00  0.00000000E+00
  0.00000000E+00  0.00000000E+00  0.00000000E+00
  0.00000000E+00  0.00000000E+00  0.00000000E+00
  0.00000000E+00  0.00000000E+00  0.00000000E+00
  0.00000000E+00  0.00000000E+00  0.00000000E+00
  0.00000000E+00  0.00000000E+00  0.00000000E+00
  0.00000000E+00  0.00000000E+00  0.00000000E+00
  0.00000000E+00  0.00000000E+00  0.00000000E+00
  0.00000000E+00  0.00000000E+00  0.00000000E+00
  0.00000000E+00  0.00000000E+00  0.00000000E+00
  0.00000000E+00  0.00000000E+00  0.00000000E+00
  0.00000000E+00  0.00000000E+00  0.00000000E+00
  0.00000000E+00  0.00000000E+00  0.00000000E+00
  0.00000000E+00  0.00000000E+00  0.00000000E+00
  0.00000000E+00  0.00000000E+00  0.00000000E+00
  0.00000000E+00  0.00000000E+00  0.00000000E+00
  0.00000000E+00  0.00000000E+00  0.00000000E+00
  0.00000000E+00  0.00000000E+00  0.00000000E+00
  0.00000000E+00  0.00000000E+00  0.00000000E+00
  0.00000000E+00  0.00000000E+00  0.00000000E+00
  0.00000000E+00  0.00000000E+00  0.00000000E+00
  0.00000000E+00  0.00000000E+00  0.00000000E+00
  0.00000000E+00  0.00000000E+00  0.00000000E+00
  0.00000000E+00  0.00000000E+00  0.00000000E+00
  0.00000000E+00  0.00000000E+00  0.00000000E+00
  0.00000000E+00  0.00000000E+00  0.00000000E+00
  0.00000000E+00  0.00000000E+00  0.00000000E+00
  0.00000000E+00  0.00000000E+00  0.00000000E+00
  0.00000000E+00  0.00000000E+00  0.00000000E+00
  0.00000000E+00  0.00000000E+00  0.00000000E+00
  0.00000000E+00  0.00000000E+00  0.00000000E+00
  0.00000000E+00  0.00000000E+00  0.00000000E+00
  0.00000000E+00  0.00000000E+00  0.00000000E+00
  0.00000000E+00  0.00000000E+00  0.00000000E+00
  0.00000000E+00  0.00000000E+00  0.00000000E+00
  0.00000000E+00  0.00000000E+00  0.00000000E+00
  0.00000000E+00  0.00000000E+00  0.00000000E+00
  0.00000000E+00  0.00000000E+00  0.00000000E+00
  0.00000000E+00  0.00000000E+00  0.00000000E+00
  0.00000000E+00  0.00000000E+00  0.00000000E+00
  0.00000000E+00  0.00000000E+00  0.00000000E+00
  0.00000000E+00  0.00000000E+00  0.00000000E+00
  0.00000000E+00  0.00000000E+00  0.00000000E+00
  0.00000000E+00  0.00000000E+00  0.00000000E+00
  0.00000000E+00  0.00000000E+00  0.00000000E+00
  0.00000000E+00  0.00000000E+00  0.00000000E+00
  0.00000000E+00  0.00000000E+00  0.00000000E+00
