La Co Ni Sn Bi H                        
   1.00000000000000     
    29.1044006348000011    0.0000000000000000    0.0000000000000000
     0.4451680315000000   28.3694074727000007    0.0000000000000000
     0.0682082826000000    0.3036559964000000   28.5240018092999996
   La   Co   Ni   Sn   Bi   H 
    14    13    13    14    14     1
Selective dynamics
Direct
  0.5925691031029000  0.4210678961411354  0.4072629952236786   T   T   T
  0.6848263096039455  0.5722301177431246  0.3809015227270653   T   T   T
  0.4948527696845514  0.5277459800048390  0.2825853338482172   T   T   T
  0.5626431429503305  0.5216922213316384  0.6018629522200017   T   T   T
  0.5086107409412106  0.3867672181544943  0.3055118567547301   T   T   T
  0.5751577236619139  0.6554890020019654  0.4840105997672920   T   T   T
  0.5070651153713920  0.3380831804982952  0.5000262586379487   T   T   T
  0.5352176353149635  0.6375130657834198  0.3751704060048302   T   T   T
  0.4359945998840366  0.6434339048812586  0.5356616688079582   T   T   T
  0.4373551010143757  0.5015757590148624  0.3842817269995109   F   F   F
  0.4437846394494898  0.4460183835780285  0.5005161578087822   F   F   F
  0.3871796159942227  0.4673535673820416  0.6095181379252976   T   T   T
  0.3443416741844289  0.4442004730901288  0.3469842296506523   T   T   T
  0.3617283093458516  0.5853183063828160  0.3940065972766956   T   T   T
  0.4217425606853311  0.4061295180575186  0.3699802678458894   F   F   F
  0.5011311695957161  0.4887203336762909  0.4395023580252015   F   F   F
  0.4044148221271726  0.6101724300038001  0.4624736492929173   F   F   F
  0.4722931245665194  0.5596737886932672  0.5729988711091565   F   F   F
  0.6552684236953183  0.5165424048424470  0.4543399438695133   F   F   F
  0.5967309916701211  0.5535378348504167  0.5056109707055541   F   F   F
  0.5314074673932367  0.5941153005651714  0.5336729985293047   F   F   F
  0.5796732686089143  0.4997731718447866  0.4507473928409595   F   F   F
  0.4614253854986000  0.3313594968559994  0.3438121974563829   T   T   T
  0.3905180950192175  0.5252419063175111  0.4552418453041511   F   F   F
  0.4540129829307500  0.3247356292530974  0.4232523079881070   T   T   T
  0.5074804872141527  0.4592780196109629  0.3501259710292359   F   F   F
  0.6012877811302459  0.4669891268301640  0.5212355700313438   F   F   F
  0.5384608035519776  0.4312182275275163  0.4821288228790692   F   F   F
  0.4713083414346286  0.4805797151798927  0.5807598339419258   F   F   F
  0.3771163837573610  0.4514853175274567  0.4282230665427278   F   F   F
  0.4059018739390154  0.3822235888080883  0.4561785915149272   F   F   F
  0.5357818896390683  0.5680835373033233  0.4543473312664048   F   F   F
  0.4924712632432886  0.6367287407321953  0.4646113344718685   F   F   F
  0.4677327221812249  0.5829886973614862  0.4038343643763724   F   F   F
  0.5280944416629296  0.5063826634733033  0.5194466411805863   F   F   F
  0.6212454441397384  0.5105019604624417  0.3755946010283822   F   F   F
  0.6054499763524817  0.5821019035045651  0.4188664505762958   F   F   F
  0.4050790883739026  0.5245211222763402  0.5434909784116542   F   F   F
  0.3507457481210379  0.4702476768109578  0.5088122897850453   T   T   T
  0.4335911126235591  0.4573192701345787  0.3020271536639588   T   T   T
  0.5386208741378786  0.4218219121768355  0.5686523973178371   T   T   T
  0.3578318931670667  0.3871759567978950  0.5399997068020246   T   T   T
  0.4625951421883201  0.5516617238622956  0.4875128022361963   F   F   F
  0.6048107304833962  0.3729144539065269  0.5083590112493559   T   T   T
  0.4920921256111605  0.4390789333269705  0.6579545879458288   T   T   T
  0.5867494423123328  0.4676345952734159  0.3059948217656634   T   T   T
  0.4900497958562298  0.4037080615820798  0.4151644571778519   F   F   F
  0.4354759565788768  0.6746722733641147  0.4128312558438062   T   T   T
  0.4682344925827641  0.5370592598680237  0.6599940428242616   T   T   T
  0.5397532608265934  0.5319899791087650  0.3771480104995177   F   F   F
  0.6684353260178520  0.6002931131914976  0.4837908952351436   T   T   T
  0.6657922939946909  0.5184406958206558  0.5495150915282074   T   T   T
  0.3746321169019181  0.3347414129723482  0.3847404438909657   T   T   T
  0.6744015822143609  0.4347467844002883  0.4828022572913349   T   T   T
  0.5399526942408491  0.3192229723246763  0.3925434475537858   T   T   T
  0.3022086884624195  0.5027337862864237  0.4367218432497904   T   T   T
  0.3135451869288632  0.3954901834785305  0.4496468467496826   T   T   T
  0.5124352870552865  0.6252083984066326  0.6169040239663102   T   T   T
  0.4486863480286085  0.3749812063849558  0.5859439821485056   T   T   T
  0.3905084527855577  0.5806535614561092  0.6130743084908623   T   T   T
  0.4034914315065703  0.3053141063600208  0.5001413926793398   T   T   T
  0.4021842140292744  0.3718542694820193  0.2869981480643701   T   T   T
  0.3834774009002883  0.5337484310817734  0.2925313257389887   T   T   T
  0.6935518318487874  0.4617640802740328  0.3859048190964317   T   T   T
  0.3376556251393386  0.5721047108287566  0.5128445224500559   T   T   T
  0.5992561217367186  0.5721720017389283  0.3073549260448221   T   T   T
  0.6131661518015500  0.6139614523258063  0.5756428567922386   T   T   T
  0.4397555706026885  0.6153854133400943  0.3239076957339918   T   T   T
  0.7265243582421063  0.4167376760515181  0.5077674419051714   T   T   T
 
  0.00000000E+00  0.00000000E+00  0.00000000E+00
  0.00000000E+00  0.00000000E+00  0.00000000E+00
  0.00000000E+00  0.00000000E+00  0.00000000E+00
  0.00000000E+00  0.00000000E+00  0.00000000E+00
  0.00000000E+00  0.00000000E+00  0.00000000E+00
  0.00000000E+00  0.00000000E+00  0.00000000E+00
  0.00000000E+00  0.00000000E+00  0.00000000E+00
  0.00000000E+00  0.00000000E+00  0.00000000E+00
  0.00000000E+00  0.00000000E+00  0.00000000E+00
  0.00000000E+00  0.00000000E+00  0.00000000E+00
  0.00000000E+00  0.00000000E+00  0.00000000E+00
  0.00000000E+00  0.00000000E+00  0.00000000E+00
  0.00000000E+00  0.00000000E+00  0.00000000E+00
  0.00000000E+00  0.00000000E+00  0.00000000E+00
  0.00000000E+00  0.00000000E+00  0.00000000E+00
  0.00000000E+00  0.00000000E+00  0.00000000E+00
  0.00000000E+00  0.00000000E+00  0.00000000E+00
  0.00000000E+00  0.00000000E+00  0.00000000E+00
  0.00000000E+00  0.00000000E+00  0.00000000E+00
  0.00000000E+00  0.00000000E+00  0.00000000E+00
  0.00000000E+00  0.00000000E+00  0.00000000E+00
  0.00000000E+00  0.00000000E+00  0.00000000E+00
  0.00000000E+00  0.00000000E+00  0.00000000E+00
  0.00000000E+00  0.00000000E+00  0.00000000E+00
  0.00000000E+00  0.00000000E+00  0.00000000E+00
  0.00000000E+00  0.00000000E+00  0.00000000E+00
  0.00000000E+00  0.00000000E+00  0.00000000E+00
  0.00000000E+00  0.00000000E+00  0.00000000E+00
  0.00000000E+00  0.00000000E+00  0.00000000E+00
  0.00000000E+00  0.00000000E+00  0.00000000E+00
  0.00000000E+00  0.00000000E+00  0.00000000E+00
  0.00000000E+00  0.00000000E+00  0.00000000E+00
  0.00000000E+00  0.00000000E+00  0.00000000E+00
  0.00000000E+00  0.00000000E+00  0.00000000E+00
  0.00000000E+00  0.00000000E+00  0.00000000E+00
  0.00000000E+00  0.00000000E+00  0.00000000E+00
  0.00000000E+00  0.00000000E+00  0.00000000E+00
  0.00000000E+00  0.00000000E+00  0.00000000E+00
  0.00000000E+00  0.00000000E+00  0.00000000E+00
  0.00000000E+00  0.00000000E+00  0.00000000E+00
  0.00000000E+00  0.00000000E+00  0.00000000E+00
  0.00000000E+00  0.00000000E+00  0.00000000E+00
  0.00000000E+00  0.00000000E+00  0.00000000E+00
  0.00000000E+00  0.00000000E+00  0.00000000E+00
  0.00000000E+00  0.00000000E+00  0.00000000E+00
  0.00000000E+00  0.00000000E+00  0.00000000E+00
  0.00000000E+00  0.00000000E+00  0.00000000E+00
  0.00000000E+00  0.00000000E+00  0.00000000E+00
  0.00000000E+00  0.00000000E+00  0.00000000E+00
  0.00000000E+00  0.00000000E+00  0.00000000E+00
  0.00000000E+00  0.00000000E+00  0.00000000E+00
  0.00000000E+00  0.00000000E+00  0.00000000E+00
  0.00000000E+00  0.00000000E+00  0.00000000E+00
  0.00000000E+00  0.00000000E+00  0.00000000E+00
  0.00000000E+00  0.00000000E+00  0.00000000E+00
  0.00000000E+00  0.00000000E+00  0.00000000E+00
  0.00000000E+00  0.00000000E+00  0.00000000E+00
  0.00000000E+00  0.00000000E+00  0.00000000E+00
  0.00000000E+00  0.00000000E+00  0.00000000E+00
  0.00000000E+00  0.00000000E+00  0.00000000E+00
  0.00000000E+00  0.00000000E+00  0.00000000E+00
  0.00000000E+00  0.00000000E+00  0.00000000E+00
  0.00000000E+00  0.00000000E+00  0.00000000E+00
  0.00000000E+00  0.00000000E+00  0.00000000E+00
  0.00000000E+00  0.00000000E+00  0.00000000E+00
  0.00000000E+00  0.00000000E+00  0.00000000E+00
  0.00000000E+00  0.00000000E+00  0.00000000E+00
  0.00000000E+00  0.00000000E+00  0.00000000E+00
  0.00000000E+00  0.00000000E+00  0.00000000E+00
