La Co Ni Sn Bi H                        
   1.00000000000000     
    29.1044006348000011    0.0000000000000000    0.0000000000000000
     0.4451680315000000   28.3694074727000007    0.0000000000000000
     0.0682082826000000    0.3036559964000000   28.5240018092999996
   La   Co   Ni   Sn   Bi   H 
    14    13    13    14    14     1
Selective dynamics
Direct
  0.5915520829818062  0.4220605892079229  0.4040066192173973   T   T   T
  0.6849232012794756  0.5715333588865461  0.3806334017519249   T   T   T
  0.4948445191163129  0.5289432927689334  0.2826590760982205   T   T   T
  0.5621983275879973  0.5223687457575756  0.6022515882939623   T   T   T
  0.5085831495635925  0.3875552131507359  0.3054042219042560   T   T   T
  0.5754145482041685  0.6551883218188688  0.4831528649712062   T   T   T
  0.5095900648637012  0.3382787732992718  0.5000323891440684   T   T   T
  0.5349856681497150  0.6377576589063717  0.3752275209614365   T   T   T
  0.4357242779873253  0.6432533305244219  0.5356394656313416   T   T   T
  0.4373551010143757  0.5015757590148624  0.3842817269995109   F   F   F
  0.4437846394494898  0.4460183835780285  0.5005161578087822   F   F   F
  0.3874206177872069  0.4666362565899366  0.6094253035047762   T   T   T
  0.3442281708994478  0.4444473762647151  0.3470731118470922   T   T   T
  0.3616960185667069  0.5854668341418007  0.3939741257473495   T   T   T
  0.4217425606853311  0.4061295180575186  0.3699802678458894   F   F   F
  0.5011311695957161  0.4887203336762909  0.4395023580252015   F   F   F
  0.4044148221271726  0.6101724300038001  0.4624736492929173   F   F   F
  0.4722931245665194  0.5596737886932672  0.5729988711091565   F   F   F
  0.6552684236953183  0.5165424048424470  0.4543399438695133   F   F   F
  0.5967309916701211  0.5535378348504167  0.5056109707055541   F   F   F
  0.5314074673932367  0.5941153005651714  0.5336729985293047   F   F   F
  0.5796732686089143  0.4997731718447866  0.4507473928409595   F   F   F
  0.4612493893087026  0.3318329471048768  0.3434803200374790   T   T   T
  0.3905180950192175  0.5252419063175111  0.4552418453041511   F   F   F
  0.4550568897373902  0.3247743185899659  0.4235344590969917   T   T   T
  0.5074804872141527  0.4592780196109629  0.3501259710292359   F   F   F
  0.6012877811302459  0.4669891268301640  0.5212355700313438   F   F   F
  0.5384608035519776  0.4312182275275163  0.4821288228790692   F   F   F
  0.4713083414346286  0.4805797151798927  0.5807598339419258   F   F   F
  0.3771163837573610  0.4514853175274567  0.4282230665427278   F   F   F
  0.4059018739390154  0.3822235888080883  0.4561785915149272   F   F   F
  0.5357818896390683  0.5680835373033233  0.4543473312664048   F   F   F
  0.4924712632432886  0.6367287407321953  0.4646113344718685   F   F   F
  0.4677327221812249  0.5829886973614862  0.4038343643763724   F   F   F
  0.5280944416629296  0.5063826634733033  0.5194466411805863   F   F   F
  0.6212454441397384  0.5105019604624417  0.3755946010283822   F   F   F
  0.6054499763524817  0.5821019035045651  0.4188664505762958   F   F   F
  0.4050790883739026  0.5245211222763402  0.5434909784116542   F   F   F
  0.3507524101414826  0.4698542720945643  0.5088808945357155   T   T   T
  0.4335837213083653  0.4578026886101046  0.3019842564820458   T   T   T
  0.5389082780056759  0.4230553191687161  0.5686767537824280   T   T   T
  0.3582428982031417  0.3864911666080494  0.5394098132433630   T   T   T
  0.4625951421883201  0.5516617238622956  0.4875128022361963   F   F   F
  0.6077721872498745  0.3773726696125221  0.4993315062290516   T   T   T
  0.4918787364176883  0.4385765945759995  0.6578339547888048   T   T   T
  0.5867820672097059  0.4695231449049205  0.3041113592747032   T   T   T
  0.4900497958562298  0.4037080615820798  0.4151644571778519   F   F   F
  0.4353930009293223  0.6747792522776398  0.4130306480843013   T   T   T
  0.4682379832990533  0.5366382930962853  0.6601492905337764   T   T   T
  0.5397532608265934  0.5319899791087650  0.3771480104995177   F   F   F
  0.6689415893988803  0.5999409700965762  0.4836718518112182   T   T   T
  0.6647073401013863  0.5196854669434448  0.5520014004441505   T   T   T
  0.3753629015037762  0.3345996614324421  0.3851219686731218   T   T   T
  0.6827571561136490  0.4386215375138349  0.4899302845881273   T   T   T
  0.5401220850672662  0.3192020697424747  0.3916415468090216   T   T   T
  0.3023271003429190  0.5028799530587470  0.4370780563474856   T   T   T
  0.3135686213689622  0.3953633212054365  0.4494562006121718   T   T   T
  0.5117176025191772  0.6254397607237514  0.6169781205039493   T   T   T
  0.4495640699153942  0.3745825836724383  0.5853552110308031   T   T   T
  0.3905274958341934  0.5801257379020499  0.6132251743765221   T   T   T
  0.4065010622551828  0.3054092538661448  0.5009358400816467   T   T   T
  0.4021347077505800  0.3723559762362210  0.2869700279756498   T   T   T
  0.3833848834303387  0.5340634800549832  0.2925343399036947   T   T   T
  0.6932960531468828  0.4609797843230937  0.3891249119192161   T   T   T
  0.3375441764907925  0.5721051362004407  0.5127731917187051   T   T   T
  0.5989785458050915  0.5734933961314019  0.3076809657812067   T   T   T
  0.6126254461259836  0.6148858335228943  0.5755213038414737   T   T   T
  0.4396025626409417  0.6160118467521633  0.3239748949898157   T   T   T
  0.5863083193589389  0.3359637055382253  0.5432532752491588   T   T   T
 
  0.00000000E+00  0.00000000E+00  0.00000000E+00
  0.00000000E+00  0.00000000E+00  0.00000000E+00
  0.00000000E+00  0.00000000E+00  0.00000000E+00
  0.00000000E+00  0.00000000E+00  0.00000000E+00
  0.00000000E+00  0.00000000E+00  0.00000000E+00
  0.00000000E+00  0.00000000E+00  0.00000000E+00
  0.00000000E+00  0.00000000E+00  0.00000000E+00
  0.00000000E+00  0.00000000E+00  0.00000000E+00
  0.00000000E+00  0.00000000E+00  0.00000000E+00
  0.00000000E+00  0.00000000E+00  0.00000000E+00
  0.00000000E+00  0.00000000E+00  0.00000000E+00
  0.00000000E+00  0.00000000E+00  0.00000000E+00
  0.00000000E+00  0.00000000E+00  0.00000000E+00
  0.00000000E+00  0.00000000E+00  0.00000000E+00
  0.00000000E+00  0.00000000E+00  0.00000000E+00
  0.00000000E+00  0.00000000E+00  0.00000000E+00
  0.00000000E+00  0.00000000E+00  0.00000000E+00
  0.00000000E+00  0.00000000E+00  0.00000000E+00
  0.00000000E+00  0.00000000E+00  0.00000000E+00
  0.00000000E+00  0.00000000E+00  0.00000000E+00
  0.00000000E+00  0.00000000E+00  0.00000000E+00
  0.00000000E+00  0.00000000E+00  0.00000000E+00
  0.00000000E+00  0.00000000E+00  0.00000000E+00
  0.00000000E+00  0.00000000E+00  0.00000000E+00
  0.00000000E+00  0.00000000E+00  0.00000000E+00
  0.00000000E+00  0.00000000E+00  0.00000000E+00
  0.00000000E+00  0.00000000E+00  0.00000000E+00
  0.00000000E+00  0.00000000E+00  0.00000000E+00
  0.00000000E+00  0.00000000E+00  0.00000000E+00
  0.00000000E+00  0.00000000E+00  0.00000000E+00
  0.00000000E+00  0.00000000E+00  0.00000000E+00
  0.00000000E+00  0.00000000E+00  0.00000000E+00
  0.00000000E+00  0.00000000E+00  0.00000000E+00
  0.00000000E+00  0.00000000E+00  0.00000000E+00
  0.00000000E+00  0.00000000E+00  0.00000000E+00
  0.00000000E+00  0.00000000E+00  0.00000000E+00
  0.00000000E+00  0.00000000E+00  0.00000000E+00
  0.00000000E+00  0.00000000E+00  0.00000000E+00
  0.00000000E+00  0.00000000E+00  0.00000000E+00
  0.00000000E+00  0.00000000E+00  0.00000000E+00
  0.00000000E+00  0.00000000E+00  0.00000000E+00
  0.00000000E+00  0.00000000E+00  0.00000000E+00
  0.00000000E+00  0.00000000E+00  0.00000000E+00
  0.00000000E+00  0.00000000E+00  0.00000000E+00
  0.00000000E+00  0.00000000E+00  0.00000000E+00
  0.00000000E+00  0.00000000E+00  0.00000000E+00
  0.00000000E+00  0.00000000E+00  0.00000000E+00
  0.00000000E+00  0.00000000E+00  0.00000000E+00
  0.00000000E+00  0.00000000E+00  0.00000000E+00
  0.00000000E+00  0.00000000E+00  0.00000000E+00
  0.00000000E+00  0.00000000E+00  0.00000000E+00
  0.00000000E+00  0.00000000E+00  0.00000000E+00
  0.00000000E+00  0.00000000E+00  0.00000000E+00
  0.00000000E+00  0.00000000E+00  0.00000000E+00
  0.00000000E+00  0.00000000E+00  0.00000000E+00
  0.00000000E+00  0.00000000E+00  0.00000000E+00
  0.00000000E+00  0.00000000E+00  0.00000000E+00
  0.00000000E+00  0.00000000E+00  0.00000000E+00
  0.00000000E+00  0.00000000E+00  0.00000000E+00
  0.00000000E+00  0.00000000E+00  0.00000000E+00
  0.00000000E+00  0.00000000E+00  0.00000000E+00
  0.00000000E+00  0.00000000E+00  0.00000000E+00
  0.00000000E+00  0.00000000E+00  0.00000000E+00
  0.00000000E+00  0.00000000E+00  0.00000000E+00
  0.00000000E+00  0.00000000E+00  0.00000000E+00
  0.00000000E+00  0.00000000E+00  0.00000000E+00
  0.00000000E+00  0.00000000E+00  0.00000000E+00
  0.00000000E+00  0.00000000E+00  0.00000000E+00
  0.00000000E+00  0.00000000E+00  0.00000000E+00
