La Co Ni Sn Bi H                        
   1.00000000000000     
    29.1044006348000011    0.0000000000000000    0.0000000000000000
     0.4451680315000000   28.3694074727000007    0.0000000000000000
     0.0682082826000000    0.3036559964000000   28.5240018092999996
   La   Co   Ni   Sn   Bi   H 
    14    13    13    14    14     1
Selective dynamics
Direct
  0.5926518529238121  0.4206628866715815  0.4077845264370853   T   T   T
  0.6849669835145391  0.5718761268522842  0.3810390418865555   T   T   T
  0.4958741865450689  0.5281175676541826  0.2820765590036993   T   T   T
  0.5626981796606082  0.5220101295827018  0.6019975846773052   T   T   T
  0.5080625184762435  0.3871762996332689  0.3057837114324602   T   T   T
  0.5752241593393120  0.6555252907776244  0.4836183317565727   T   T   T
  0.5090628310344164  0.3381414264381087  0.5002119420199919   T   T   T
  0.5355009443136111  0.6375976932514036  0.3754874789607380   T   T   T
  0.4359284322364492  0.6432506939912976  0.5356626929223209   T   T   T
  0.4373551010143757  0.5015757590148624  0.3842817269995109   F   F   F
  0.4437846394494898  0.4460183835780285  0.5005161578087822   F   F   F
  0.3872563236116267  0.4669245886400100  0.6093455314577882   T   T   T
  0.3449377445225651  0.4453511157976340  0.3468345335732485   T   T   T
  0.3622085001798356  0.5855144361739540  0.3935514787577724   T   T   T
  0.4217425606853311  0.4061295180575186  0.3699802678458894   F   F   F
  0.5011311695957161  0.4887203336762909  0.4395023580252015   F   F   F
  0.4044148221271726  0.6101724300038001  0.4624736492929173   F   F   F
  0.4722931245665194  0.5596737886932672  0.5729988711091565   F   F   F
  0.6552684236953183  0.5165424048424470  0.4543399438695133   F   F   F
  0.5967309916701211  0.5535378348504167  0.5056109707055541   F   F   F
  0.5314074673932367  0.5941153005651714  0.5336729985293047   F   F   F
  0.5796732686089143  0.4997731718447866  0.4507473928409595   F   F   F
  0.4622078461694653  0.3311310009618889  0.3432727113212737   T   T   T
  0.3905180950192175  0.5252419063175111  0.4552418453041511   F   F   F
  0.4566192815609951  0.3242622430818285  0.4248749655008967   T   T   T
  0.5074804872141527  0.4592780196109629  0.3501259710292359   F   F   F
  0.6012877811302459  0.4669891268301640  0.5212355700313438   F   F   F
  0.5384608035519776  0.4312182275275163  0.4821288228790692   F   F   F
  0.4713083414346286  0.4805797151798927  0.5807598339419258   F   F   F
  0.3771163837573610  0.4514853175274567  0.4282230665427278   F   F   F
  0.4059018739390154  0.3822235888080883  0.4561785915149272   F   F   F
  0.5357818896390683  0.5680835373033233  0.4543473312664048   F   F   F
  0.4924712632432886  0.6367287407321953  0.4646113344718685   F   F   F
  0.4677327221812249  0.5829886973614862  0.4038343643763724   F   F   F
  0.5280944416629296  0.5063826634733033  0.5194466411805863   F   F   F
  0.6212454441397384  0.5105019604624417  0.3755946010283822   F   F   F
  0.6054499763524817  0.5821019035045651  0.4188664505762958   F   F   F
  0.4050790883739026  0.5245211222763402  0.5434909784116542   F   F   F
  0.3502607632568069  0.4698114744936950  0.5083277885709437   T   T   T
  0.4337154492767345  0.4575748038657997  0.3021226924783467   T   T   T
  0.5384536661834938  0.4220216797758216  0.5690806192151916   T   T   T
  0.3575402879338540  0.3867627975953156  0.5400514648339800   T   T   T
  0.4625951421883201  0.5516617238622956  0.4875128022361963   F   F   F
  0.6066231418224806  0.3750400328546361  0.5102223938499398   T   T   T
  0.4914065980225212  0.4384401441289668  0.6579694744763881   T   T   T
  0.5871973384695227  0.4674456321226814  0.3062594213534142   T   T   T
  0.4900497958562298  0.4037080615820798  0.4151644571778519   F   F   F
  0.4355009882976456  0.6747133058480189  0.4128510809130050   T   T   T
  0.4686244647214046  0.5369500369362472  0.6596682896142657   T   T   T
  0.5397532608265934  0.5319899791087650  0.3771480104995177   F   F   F
  0.6685610261162953  0.6004221260756186  0.4837482015368505   T   T   T
  0.6658632129656292  0.5189745794199673  0.5503928696226542   T   T   T
  0.3804368319868756  0.3338538838175965  0.3855936356384626   T   T   T
  0.6787397802295874  0.4364530827859775  0.4868604696751938   T   T   T
  0.5406508370217851  0.3189559217128758  0.3920052806549510   T   T   T
  0.3023428816644740  0.5031716260548059  0.4363363781265289   T   T   T
  0.3141570183805926  0.3956201848214501  0.4497603006430723   T   T   T
  0.5124217716476216  0.6256184675089211  0.6165643368685000   T   T   T
  0.4488971196582912  0.3747271375628837  0.5853982188067199   T   T   T
  0.3905304392112065  0.5802602826108724  0.6133114649043919   T   T   T
  0.4047820452956158  0.3053623429644907  0.5003591132386896   T   T   T
  0.4019448911591848  0.3722717883112298  0.2865040088455235   T   T   T
  0.3844326734223798  0.5339168494446018  0.2914925357064586   T   T   T
  0.6930384964082418  0.4610582601373519  0.3875523553032243   T   T   T
  0.3375319146063471  0.5716611260719274  0.5126692008296649   T   T   T
  0.5994559293237183  0.5724345834021147  0.3077661978647718   T   T   T
  0.6127347352259402  0.6144777169623250  0.5754941510364122   T   T   T
  0.4405342163568425  0.6153059716463878  0.3238103809372962   T   T   T
  0.3361249312195507  0.2963931981107862  0.3712093941865727   T   T   T
 
  0.00000000E+00  0.00000000E+00  0.00000000E+00
  0.00000000E+00  0.00000000E+00  0.00000000E+00
  0.00000000E+00  0.00000000E+00  0.00000000E+00
  0.00000000E+00  0.00000000E+00  0.00000000E+00
  0.00000000E+00  0.00000000E+00  0.00000000E+00
  0.00000000E+00  0.00000000E+00  0.00000000E+00
  0.00000000E+00  0.00000000E+00  0.00000000E+00
  0.00000000E+00  0.00000000E+00  0.00000000E+00
  0.00000000E+00  0.00000000E+00  0.00000000E+00
  0.00000000E+00  0.00000000E+00  0.00000000E+00
  0.00000000E+00  0.00000000E+00  0.00000000E+00
  0.00000000E+00  0.00000000E+00  0.00000000E+00
  0.00000000E+00  0.00000000E+00  0.00000000E+00
  0.00000000E+00  0.00000000E+00  0.00000000E+00
  0.00000000E+00  0.00000000E+00  0.00000000E+00
  0.00000000E+00  0.00000000E+00  0.00000000E+00
  0.00000000E+00  0.00000000E+00  0.00000000E+00
  0.00000000E+00  0.00000000E+00  0.00000000E+00
  0.00000000E+00  0.00000000E+00  0.00000000E+00
  0.00000000E+00  0.00000000E+00  0.00000000E+00
  0.00000000E+00  0.00000000E+00  0.00000000E+00
  0.00000000E+00  0.00000000E+00  0.00000000E+00
  0.00000000E+00  0.00000000E+00  0.00000000E+00
  0.00000000E+00  0.00000000E+00  0.00000000E+00
  0.00000000E+00  0.00000000E+00  0.00000000E+00
  0.00000000E+00  0.00000000E+00  0.00000000E+00
  0.00000000E+00  0.00000000E+00  0.00000000E+00
  0.00000000E+00  0.00000000E+00  0.00000000E+00
  0.00000000E+00  0.00000000E+00  0.00000000E+00
  0.00000000E+00  0.00000000E+00  0.00000000E+00
  0.00000000E+00  0.00000000E+00  0.00000000E+00
  0.00000000E+00  0.00000000E+00  0.00000000E+00
  0.00000000E+00  0.00000000E+00  0.00000000E+00
  0.00000000E+00  0.00000000E+00  0.00000000E+00
  0.00000000E+00  0.00000000E+00  0.00000000E+00
  0.00000000E+00  0.00000000E+00  0.00000000E+00
  0.00000000E+00  0.00000000E+00  0.00000000E+00
  0.00000000E+00  0.00000000E+00  0.00000000E+00
  0.00000000E+00  0.00000000E+00  0.00000000E+00
  0.00000000E+00  0.00000000E+00  0.00000000E+00
  0.00000000E+00  0.00000000E+00  0.00000000E+00
  0.00000000E+00  0.00000000E+00  0.00000000E+00
  0.00000000E+00  0.00000000E+00  0.00000000E+00
  0.00000000E+00  0.00000000E+00  0.00000000E+00
  0.00000000E+00  0.00000000E+00  0.00000000E+00
  0.00000000E+00  0.00000000E+00  0.00000000E+00
  0.00000000E+00  0.00000000E+00  0.00000000E+00
  0.00000000E+00  0.00000000E+00  0.00000000E+00
  0.00000000E+00  0.00000000E+00  0.00000000E+00
  0.00000000E+00  0.00000000E+00  0.00000000E+00
  0.00000000E+00  0.00000000E+00  0.00000000E+00
  0.00000000E+00  0.00000000E+00  0.00000000E+00
  0.00000000E+00  0.00000000E+00  0.00000000E+00
  0.00000000E+00  0.00000000E+00  0.00000000E+00
  0.00000000E+00  0.00000000E+00  0.00000000E+00
  0.00000000E+00  0.00000000E+00  0.00000000E+00
  0.00000000E+00  0.00000000E+00  0.00000000E+00
  0.00000000E+00  0.00000000E+00  0.00000000E+00
  0.00000000E+00  0.00000000E+00  0.00000000E+00
  0.00000000E+00  0.00000000E+00  0.00000000E+00
  0.00000000E+00  0.00000000E+00  0.00000000E+00
  0.00000000E+00  0.00000000E+00  0.00000000E+00
  0.00000000E+00  0.00000000E+00  0.00000000E+00
  0.00000000E+00  0.00000000E+00  0.00000000E+00
  0.00000000E+00  0.00000000E+00  0.00000000E+00
  0.00000000E+00  0.00000000E+00  0.00000000E+00
  0.00000000E+00  0.00000000E+00  0.00000000E+00
  0.00000000E+00  0.00000000E+00  0.00000000E+00
  0.00000000E+00  0.00000000E+00  0.00000000E+00
