La Co Ni Sn Bi H                        
   1.00000000000000     
    29.1044006348000011    0.0000000000000000    0.0000000000000000
     0.4451680315000000   28.3694074727000007    0.0000000000000000
     0.0682082826000000    0.3036559964000000   28.5240018092999996
   La   Co   Ni   Sn   Bi   H 
    14    13    13    14    14     1
Selective dynamics
Direct
  0.5923824486086406  0.4205406232408766  0.4078057616867574   T   T   T
  0.6850455634386289  0.5714738267372879  0.3809489675600325   T   T   T
  0.4957249209559458  0.5269893729924412  0.2820123262148137   T   T   T
  0.5611807616129654  0.5226596580062235  0.6024412155799693   T   T   T
  0.5090549940789895  0.3869256815903072  0.3055807134345866   T   T   T
  0.5750003206517450  0.6556333535523876  0.4833761841943520   T   T   T
  0.5088618025973756  0.3382118497263062  0.4998998915508661   T   T   T
  0.5355561857216797  0.6375474015097916  0.3749867500791583   T   T   T
  0.4350475011005336  0.6435659053467249  0.5335027300856289   T   T   T
  0.4373551010143757  0.5015757590148624  0.3842817269995109   F   F   F
  0.4437846394494898  0.4460183835780285  0.5005161578087822   F   F   F
  0.3870199467440497  0.4677559226540642  0.6100935990544644   T   T   T
  0.3448254836174157  0.4438149407348087  0.3466470361031920   T   T   T
  0.3621626574742989  0.5852834907077883  0.3928234173730096   T   T   T
  0.4217425606853311  0.4061295180575186  0.3699802678458894   F   F   F
  0.5011311695957161  0.4887203336762909  0.4395023580252015   F   F   F
  0.4044148221271726  0.6101724300038001  0.4624736492929173   F   F   F
  0.4722931245665194  0.5596737886932672  0.5729988711091565   F   F   F
  0.6552684236953183  0.5165424048424470  0.4543399438695133   F   F   F
  0.5967309916701211  0.5535378348504167  0.5056109707055541   F   F   F
  0.5314074673932367  0.5941153005651714  0.5336729985293047   F   F   F
  0.5796732686089143  0.4997731718447866  0.4507473928409595   F   F   F
  0.4614870063768767  0.3313010920708034  0.3450359974241571   T   T   T
  0.3905180950192175  0.5252419063175111  0.4552418453041511   F   F   F
  0.4547085658020050  0.3246789128595420  0.4247262138160023   T   T   T
  0.5074804872141527  0.4592780196109629  0.3501259710292359   F   F   F
  0.6012877811302459  0.4669891268301640  0.5212355700313438   F   F   F
  0.5384608035519776  0.4312182275275163  0.4821288228790692   F   F   F
  0.4713083414346286  0.4805797151798927  0.5807598339419258   F   F   F
  0.3771163837573610  0.4514853175274567  0.4282230665427278   F   F   F
  0.4059018739390154  0.3822235888080883  0.4561785915149272   F   F   F
  0.5357818896390683  0.5680835373033233  0.4543473312664048   F   F   F
  0.4924712632432886  0.6367287407321953  0.4646113344718685   F   F   F
  0.4677327221812249  0.5829886973614862  0.4038343643763724   F   F   F
  0.5280944416629296  0.5063826634733033  0.5194466411805863   F   F   F
  0.6212454441397384  0.5105019604624417  0.3755946010283822   F   F   F
  0.6054499763524817  0.5821019035045651  0.4188664505762958   F   F   F
  0.4050790883739026  0.5245211222763402  0.5434909784116542   F   F   F
  0.3504026270057071  0.4706948354227267  0.5085137588227836   T   T   T
  0.4341145670071896  0.4569220069428443  0.3019486861477506   T   T   T
  0.5382671268176827  0.4222071725923788  0.5689048571725174   T   T   T
  0.3578060472288156  0.3879175552397002  0.5399312403796697   T   T   T
  0.4625951421883201  0.5516617238622956  0.4875128022361963   F   F   F
  0.6065229639412846  0.3749768331215527  0.5104431528731060   T   T   T
  0.4917735604753619  0.4388719685630886  0.6581604857513091   T   T   T
  0.5875008504188808  0.4674393612876344  0.3063929604889031   T   T   T
  0.4900497958562298  0.4037080615820798  0.4151644571778519   F   F   F
  0.4357576299798364  0.6744249064400987  0.4122767722554971   T   T   T
  0.4673520875406395  0.5369708545698655  0.6604838844565122   T   T   T
  0.5397532608265934  0.5319899791087650  0.3771480104995177   F   F   F
  0.6683710500616747  0.6004220238718939  0.4837549478101242   T   T   T
  0.6651835002102674  0.5188738997131352  0.5510057326507678   T   T   T
  0.3753506146610942  0.3342771061759847  0.3848795363722070   T   T   T
  0.6785266367524938  0.4366762557743906  0.4868383141663259   T   T   T
  0.5400496591330322  0.3187439692601327  0.3922949050910245   T   T   T
  0.3025455790140428  0.5028643597383409  0.4358640991236581   T   T   T
  0.3138161097055857  0.3951680224396361  0.4493696925775837   T   T   T
  0.5109805266967363  0.6265615969480007  0.6160411593344099   T   T   T
  0.4491103550673813  0.3749936596815734  0.5857882553371655   T   T   T
  0.3907441296116760  0.5821629512910692  0.6130629990627886   T   T   T
  0.4050777116487566  0.3060393847529052  0.5018781454198467   T   T   T
  0.4028157622155312  0.3711860072438727  0.2870727396949316   T   T   T
  0.3840209244427958  0.5331156464624091  0.2916648132010384   T   T   T
  0.6927722378242543  0.4605996577830004  0.3875063828677091   T   T   T
  0.3374540078701166  0.5717947534768115  0.5121069774112050   T   T   T
  0.5994134536016964  0.5722874224247447  0.3075817311434730   T   T   T
  0.6124132158515804  0.6144387869660300  0.5753997072800706   T   T   T
  0.4406864224724159  0.6144980206885338  0.3233232378847885   T   T   T
  0.3425407564968638  0.5358048477006766  0.6269400597407550   T   T   T
 
  0.00000000E+00  0.00000000E+00  0.00000000E+00
  0.00000000E+00  0.00000000E+00  0.00000000E+00
  0.00000000E+00  0.00000000E+00  0.00000000E+00
  0.00000000E+00  0.00000000E+00  0.00000000E+00
  0.00000000E+00  0.00000000E+00  0.00000000E+00
  0.00000000E+00  0.00000000E+00  0.00000000E+00
  0.00000000E+00  0.00000000E+00  0.00000000E+00
  0.00000000E+00  0.00000000E+00  0.00000000E+00
  0.00000000E+00  0.00000000E+00  0.00000000E+00
  0.00000000E+00  0.00000000E+00  0.00000000E+00
  0.00000000E+00  0.00000000E+00  0.00000000E+00
  0.00000000E+00  0.00000000E+00  0.00000000E+00
  0.00000000E+00  0.00000000E+00  0.00000000E+00
  0.00000000E+00  0.00000000E+00  0.00000000E+00
  0.00000000E+00  0.00000000E+00  0.00000000E+00
  0.00000000E+00  0.00000000E+00  0.00000000E+00
  0.00000000E+00  0.00000000E+00  0.00000000E+00
  0.00000000E+00  0.00000000E+00  0.00000000E+00
  0.00000000E+00  0.00000000E+00  0.00000000E+00
  0.00000000E+00  0.00000000E+00  0.00000000E+00
  0.00000000E+00  0.00000000E+00  0.00000000E+00
  0.00000000E+00  0.00000000E+00  0.00000000E+00
  0.00000000E+00  0.00000000E+00  0.00000000E+00
  0.00000000E+00  0.00000000E+00  0.00000000E+00
  0.00000000E+00  0.00000000E+00  0.00000000E+00
  0.00000000E+00  0.00000000E+00  0.00000000E+00
  0.00000000E+00  0.00000000E+00  0.00000000E+00
  0.00000000E+00  0.00000000E+00  0.00000000E+00
  0.00000000E+00  0.00000000E+00  0.00000000E+00
  0.00000000E+00  0.00000000E+00  0.00000000E+00
  0.00000000E+00  0.00000000E+00  0.00000000E+00
  0.00000000E+00  0.00000000E+00  0.00000000E+00
  0.00000000E+00  0.00000000E+00  0.00000000E+00
  0.00000000E+00  0.00000000E+00  0.00000000E+00
  0.00000000E+00  0.00000000E+00  0.00000000E+00
  0.00000000E+00  0.00000000E+00  0.00000000E+00
  0.00000000E+00  0.00000000E+00  0.00000000E+00
  0.00000000E+00  0.00000000E+00  0.00000000E+00
  0.00000000E+00  0.00000000E+00  0.00000000E+00
  0.00000000E+00  0.00000000E+00  0.00000000E+00
  0.00000000E+00  0.00000000E+00  0.00000000E+00
  0.00000000E+00  0.00000000E+00  0.00000000E+00
  0.00000000E+00  0.00000000E+00  0.00000000E+00
  0.00000000E+00  0.00000000E+00  0.00000000E+00
  0.00000000E+00  0.00000000E+00  0.00000000E+00
  0.00000000E+00  0.00000000E+00  0.00000000E+00
  0.00000000E+00  0.00000000E+00  0.00000000E+00
  0.00000000E+00  0.00000000E+00  0.00000000E+00
  0.00000000E+00  0.00000000E+00  0.00000000E+00
  0.00000000E+00  0.00000000E+00  0.00000000E+00
  0.00000000E+00  0.00000000E+00  0.00000000E+00
  0.00000000E+00  0.00000000E+00  0.00000000E+00
  0.00000000E+00  0.00000000E+00  0.00000000E+00
  0.00000000E+00  0.00000000E+00  0.00000000E+00
  0.00000000E+00  0.00000000E+00  0.00000000E+00
  0.00000000E+00  0.00000000E+00  0.00000000E+00
  0.00000000E+00  0.00000000E+00  0.00000000E+00
  0.00000000E+00  0.00000000E+00  0.00000000E+00
  0.00000000E+00  0.00000000E+00  0.00000000E+00
  0.00000000E+00  0.00000000E+00  0.00000000E+00
  0.00000000E+00  0.00000000E+00  0.00000000E+00
  0.00000000E+00  0.00000000E+00  0.00000000E+00
  0.00000000E+00  0.00000000E+00  0.00000000E+00
  0.00000000E+00  0.00000000E+00  0.00000000E+00
  0.00000000E+00  0.00000000E+00  0.00000000E+00
  0.00000000E+00  0.00000000E+00  0.00000000E+00
  0.00000000E+00  0.00000000E+00  0.00000000E+00
  0.00000000E+00  0.00000000E+00  0.00000000E+00
  0.00000000E+00  0.00000000E+00  0.00000000E+00
