La Co Ni Sn Bi H                        
   1.00000000000000     
    29.1044006348000011    0.0000000000000000    0.0000000000000000
     0.4451680315000000   28.3694074727000007    0.0000000000000000
     0.0682082826000000    0.3036559964000000   28.5240018092999996
   La   Co   Ni   Sn   Bi   H 
    14    13    13    14    14     1
Selective dynamics
Direct
  0.5922717494429955  0.4204441696539149  0.4076893155045986   T   T   T
  0.6854327125006983  0.5710045809146028  0.3813780602883697   T   T   T
  0.4953159723378601  0.5275364601184662  0.2824443989174202   T   T   T
  0.5624021923811812  0.5213330734407968  0.6026293276664825   T   T   T
  0.5087674610762341  0.3869471320911406  0.3054520255606628   T   T   T
  0.5752214783488879  0.6555756044601245  0.4837266292625660   T   T   T
  0.5100578381254006  0.3384042527594457  0.4990019652957923   T   T   T
  0.5353519813191469  0.6375969693287101  0.3753091318622916   T   T   T
  0.4358670789012855  0.6435555408129991  0.5352095472072744   T   T   T
  0.4373551010143757  0.5015757590148624  0.3842817269995109   F   F   F
  0.4437846394494898  0.4460183835780285  0.5005161578087822   F   F   F
  0.3894155194082687  0.4672002710984839  0.6107714640073614   T   T   T
  0.3446060638496676  0.4440780971984062  0.3467453365439542   T   T   T
  0.3619763959630672  0.5855128555884603  0.3934023380186121   T   T   T
  0.4217425606853311  0.4061295180575186  0.3699802678458894   F   F   F
  0.5011311695957161  0.4887203336762909  0.4395023580252015   F   F   F
  0.4044148221271726  0.6101724300038001  0.4624736492929173   F   F   F
  0.4722931245665194  0.5596737886932672  0.5729988711091565   F   F   F
  0.6552684236953183  0.5165424048424470  0.4543399438695133   F   F   F
  0.5967309916701211  0.5535378348504167  0.5056109707055541   F   F   F
  0.5314074673932367  0.5941153005651714  0.5336729985293047   F   F   F
  0.5796732686089143  0.4997731718447866  0.4507473928409595   F   F   F
  0.4612955147839045  0.3312593297472214  0.3447835032071400   T   T   T
  0.3905180950192175  0.5252419063175111  0.4552418453041511   F   F   F
  0.4539357157761428  0.3245131514703144  0.4243836350111498   T   T   T
  0.5074804872141527  0.4592780196109629  0.3501259710292359   F   F   F
  0.6012877811302459  0.4669891268301640  0.5212355700313438   F   F   F
  0.5384608035519776  0.4312182275275163  0.4821288228790692   F   F   F
  0.4713083414346286  0.4805797151798927  0.5807598339419258   F   F   F
  0.3771163837573610  0.4514853175274567  0.4282230665427278   F   F   F
  0.4059018739390154  0.3822235888080883  0.4561785915149272   F   F   F
  0.5357818896390683  0.5680835373033233  0.4543473312664048   F   F   F
  0.4924712632432886  0.6367287407321953  0.4646113344718685   F   F   F
  0.4677327221812249  0.5829886973614862  0.4038343643763724   F   F   F
  0.5280944416629296  0.5063826634733033  0.5194466411805863   F   F   F
  0.6212454441397384  0.5105019604624417  0.3755946010283822   F   F   F
  0.6054499763524817  0.5821019035045651  0.4188664505762958   F   F   F
  0.4050790883739026  0.5245211222763402  0.5434909784116542   F   F   F
  0.3502642584051825  0.4712012711694388  0.5084338736862996   T   T   T
  0.4341468725410138  0.4570088811776020  0.3018602990197953   T   T   T
  0.5381367848040984  0.4214964730921268  0.5688109850591841   T   T   T
  0.3575633415653995  0.3889649702075633  0.5404467653416111   T   T   T
  0.4625951421883201  0.5516617238622956  0.4875128022361963   F   F   F
  0.6071526374835478  0.3755415897100223  0.5103415894585609   T   T   T
  0.4922536474256943  0.4418201850769512  0.6595384717061241   T   T   T
  0.5873036821564592  0.4677413621233636  0.3061965572229076   T   T   T
  0.4900497958562298  0.4037080615820798  0.4151644571778519   F   F   F
  0.4355834411703056  0.6745426322938053  0.4126755082252486   T   T   T
  0.4670616893552629  0.5407775205775315  0.6600748140662018   T   T   T
  0.5397532608265934  0.5319899791087650  0.3771480104995177   F   F   F
  0.6684971849424053  0.6006749176318962  0.4838773990509163   T   T   T
  0.6660447539878934  0.5189502286182388  0.5503638346056436   T   T   T
  0.3747312824458088  0.3350842003564914  0.3844456902225119   T   T   T
  0.6791781828196555  0.4366049983167053  0.4868800115097685   T   T   T
  0.5397005668028175  0.3184356088698977  0.3918167014563496   T   T   T
  0.3023358948120484  0.5030043594313409  0.4359988550541403   T   T   T
  0.3135487298681495  0.3957697337017227  0.4497550273130635   T   T   T
  0.5123815100955126  0.6261150368688252  0.6163870868090265   T   T   T
  0.4495547103117922  0.3734658222970949  0.5852428631912867   T   T   T
  0.3891388740870829  0.5814433438991908  0.6120392727659358   T   T   T
  0.4067412900240701  0.3076900099438795  0.5039572542377929   T   T   T
  0.4025757109808849  0.3714621953147952  0.2869995139520617   T   T   T
  0.3839835260720875  0.5333875090188304  0.2922572732382627   T   T   T
  0.6925445859357102  0.4600977579839294  0.3874159055900304   T   T   T
  0.3373871780459555  0.5721040726205973  0.5123973611619340   T   T   T
  0.5996206887323521  0.5725134474783915  0.3079551324462661   T   T   T
  0.6125394272664202  0.6140437663457533  0.5758781113393274   T   T   T
  0.4402018944396915  0.6153910459093384  0.3236734605049694   T   T   T
  0.5467615321870511  0.4736707811404912  0.6708772393860963   T   T   T
 
  0.00000000E+00  0.00000000E+00  0.00000000E+00
  0.00000000E+00  0.00000000E+00  0.00000000E+00
  0.00000000E+00  0.00000000E+00  0.00000000E+00
  0.00000000E+00  0.00000000E+00  0.00000000E+00
  0.00000000E+00  0.00000000E+00  0.00000000E+00
  0.00000000E+00  0.00000000E+00  0.00000000E+00
  0.00000000E+00  0.00000000E+00  0.00000000E+00
  0.00000000E+00  0.00000000E+00  0.00000000E+00
  0.00000000E+00  0.00000000E+00  0.00000000E+00
  0.00000000E+00  0.00000000E+00  0.00000000E+00
  0.00000000E+00  0.00000000E+00  0.00000000E+00
  0.00000000E+00  0.00000000E+00  0.00000000E+00
  0.00000000E+00  0.00000000E+00  0.00000000E+00
  0.00000000E+00  0.00000000E+00  0.00000000E+00
  0.00000000E+00  0.00000000E+00  0.00000000E+00
  0.00000000E+00  0.00000000E+00  0.00000000E+00
  0.00000000E+00  0.00000000E+00  0.00000000E+00
  0.00000000E+00  0.00000000E+00  0.00000000E+00
  0.00000000E+00  0.00000000E+00  0.00000000E+00
  0.00000000E+00  0.00000000E+00  0.00000000E+00
  0.00000000E+00  0.00000000E+00  0.00000000E+00
  0.00000000E+00  0.00000000E+00  0.00000000E+00
  0.00000000E+00  0.00000000E+00  0.00000000E+00
  0.00000000E+00  0.00000000E+00  0.00000000E+00
  0.00000000E+00  0.00000000E+00  0.00000000E+00
  0.00000000E+00  0.00000000E+00  0.00000000E+00
  0.00000000E+00  0.00000000E+00  0.00000000E+00
  0.00000000E+00  0.00000000E+00  0.00000000E+00
  0.00000000E+00  0.00000000E+00  0.00000000E+00
  0.00000000E+00  0.00000000E+00  0.00000000E+00
  0.00000000E+00  0.00000000E+00  0.00000000E+00
  0.00000000E+00  0.00000000E+00  0.00000000E+00
  0.00000000E+00  0.00000000E+00  0.00000000E+00
  0.00000000E+00  0.00000000E+00  0.00000000E+00
  0.00000000E+00  0.00000000E+00  0.00000000E+00
  0.00000000E+00  0.00000000E+00  0.00000000E+00
  0.00000000E+00  0.00000000E+00  0.00000000E+00
  0.00000000E+00  0.00000000E+00  0.00000000E+00
  0.00000000E+00  0.00000000E+00  0.00000000E+00
  0.00000000E+00  0.00000000E+00  0.00000000E+00
  0.00000000E+00  0.00000000E+00  0.00000000E+00
  0.00000000E+00  0.00000000E+00  0.00000000E+00
  0.00000000E+00  0.00000000E+00  0.00000000E+00
  0.00000000E+00  0.00000000E+00  0.00000000E+00
  0.00000000E+00  0.00000000E+00  0.00000000E+00
  0.00000000E+00  0.00000000E+00  0.00000000E+00
  0.00000000E+00  0.00000000E+00  0.00000000E+00
  0.00000000E+00  0.00000000E+00  0.00000000E+00
  0.00000000E+00  0.00000000E+00  0.00000000E+00
  0.00000000E+00  0.00000000E+00  0.00000000E+00
  0.00000000E+00  0.00000000E+00  0.00000000E+00
  0.00000000E+00  0.00000000E+00  0.00000000E+00
  0.00000000E+00  0.00000000E+00  0.00000000E+00
  0.00000000E+00  0.00000000E+00  0.00000000E+00
  0.00000000E+00  0.00000000E+00  0.00000000E+00
  0.00000000E+00  0.00000000E+00  0.00000000E+00
  0.00000000E+00  0.00000000E+00  0.00000000E+00
  0.00000000E+00  0.00000000E+00  0.00000000E+00
  0.00000000E+00  0.00000000E+00  0.00000000E+00
  0.00000000E+00  0.00000000E+00  0.00000000E+00
  0.00000000E+00  0.00000000E+00  0.00000000E+00
  0.00000000E+00  0.00000000E+00  0.00000000E+00
  0.00000000E+00  0.00000000E+00  0.00000000E+00
  0.00000000E+00  0.00000000E+00  0.00000000E+00
  0.00000000E+00  0.00000000E+00  0.00000000E+00
  0.00000000E+00  0.00000000E+00  0.00000000E+00
  0.00000000E+00  0.00000000E+00  0.00000000E+00
  0.00000000E+00  0.00000000E+00  0.00000000E+00
  0.00000000E+00  0.00000000E+00  0.00000000E+00
