La O  C  H                              
   1.00000000000000     
    29.0000000000000000    0.0000000000000000    0.0000000000000000
     0.0000000000000000   29.0000000000000000    0.0000000000000000
     0.0000000000000000    0.0000000000000000   29.0000000000000000
   La   O    C    H 
    68     2     1     1
Selective dynamics
Direct
  0.5128239195089764  0.5105149722558000  0.6950914542869577   T   T   T
  0.3473846022703475  0.6277163600986104  0.3975400929539984   T   T   T
  0.3666917988934472  0.5704751293680030  0.4739592607756887   T   T   T
  0.5847735850602547  0.4395563749397482  0.4024863989397502   F   F   F
  0.4413263949397503  0.4395563749397482  0.5459335890602546   F   F   F
  0.6587112496380931  0.5709559404513025  0.4735738814659147   T   T   T
  0.4524840149894871  0.5108625558269219  0.3283149901205770   T   T   T
  0.4249859165965540  0.3627918668828819  0.4744782709040432   T   T   T
  0.5727412968470972  0.5111998449982456  0.6198791057625455   T   T   T
  0.3968895298442288  0.4330905180439119  0.6388422071515568   T   T   T
  0.5128733981746977  0.6569472983112434  0.5346879881077339   T   T   T
  0.5903358387367422  0.3458476717992037  0.3576445543557535   T   T   T
  0.4241353392874498  0.6582351002806699  0.4741954719890726   T   T   T
  0.4351121627144312  0.6764504360138256  0.3595429550139184   T   T   T
  0.6605752365895089  0.5112039280198275  0.5628589356051488   T   T   T
  0.6312436407268627  0.5810920550923390  0.3018671502780555   T   T   T
  0.6782424995303806  0.3958050831503836  0.5521374522640523   T   T   T
  0.5130500200000014  0.4385212377386409  0.4742099939999989   F   F   F
  0.3679644636082979  0.4506923907917144  0.4740807952400478   T   T   T
  0.5130500200000014  0.5840387622613576  0.4742099939999989   F   F   F
  0.5130500200000014  0.5112799999999993  0.5469687262613618   F   F   F
  0.4347353288412947  0.6762912754468160  0.5902513044084648   T   T   T
  0.5858087222613619  0.5112799999999993  0.4742099939999989   F   F   F
  0.5135808220732535  0.3654713283047547  0.5340195736525201   T   T   T
  0.2921780222079274  0.5096945986131978  0.4747287780211519   T   T   T
  0.3653350096413920  0.5109930917191153  0.5625831251536708   T   T   T
  0.5153202904259595  0.5086170384481434  0.2540689684759388   T   T   T
  0.3965419750063586  0.4328097237351173  0.3094059225371000   T   T   T
  0.6280770817312560  0.4338648684119218  0.3081031576659928   T   T   T
  0.6612484752256067  0.5100335370135262  0.3857829551803611   T   T   T
  0.4413263949397503  0.4395563749397482  0.4024863989397502   F   F   F
  0.4413263949397503  0.5830036250602504  0.4024863989397502   F   F   F
  0.5847735850602547  0.5830036250602504  0.4024863989397502   F   F   F
  0.5141695506643028  0.6563067536056704  0.4136371091468383   T   T   T
  0.5087703927299070  0.7310214759153610  0.4733450441371986   T   T   T
  0.3476140905734628  0.6271942346348384  0.5511752126981979   T   T   T
  0.6582570941926753  0.4510284178637176  0.4740070654524150   T   T   T
  0.3480932777102324  0.3943041755703073  0.3974415689770537   T   T   T
  0.3963028083883032  0.5893587206245616  0.3102367030399702   T   T   T
  0.4353922345444712  0.3460972571228215  0.5898874976885895   T   T   T
  0.6291925529655662  0.4342582763155102  0.6398451673075900   T   T   T
  0.5847735850602547  0.5830036250602504  0.5459335890602546   F   F   F
  0.5127925623882065  0.4223964727204771  0.3268834605572977   T   T   T
  0.5130500200000014  0.5112799999999993  0.4014512617386430   F   F   F
  0.6782991953287099  0.6258055505775011  0.5525893774633017   T   T   T
  0.5128845873775839  0.5991319330769387  0.6215139444598888   T   T   T
  0.4413263949397503  0.5830036250602504  0.5459335890602546   F   F   F
  0.4527390699664376  0.5112474597312953  0.6196890978169107   T   T   T
  0.5727643624312702  0.5105918660224653  0.3299869023093998   T   T   T
  0.6771922122350975  0.3948314014427158  0.3960708377191392   T   T   T
  0.5847735850602547  0.4395563749397482  0.5459335890602546   F   F   F
  0.3959617176426565  0.5883567770884451  0.6389324567575382   T   T   T
  0.5123307077513112  0.2897310499004999  0.4744176062210108   T   T   T
  0.6294389971152630  0.5874782613284428  0.6403421012577040   T   T   T
  0.3482345054015686  0.3946255460228345  0.5516456903595667   T   T   T
  0.5120972155971296  0.5984044537473373  0.3268042663149243   T   T   T
  0.6773414633478545  0.6305163249968374  0.3970041652469596   T   T   T
  0.5891110893761806  0.6790632612393467  0.3531406441462984   T   T   T
  0.6015239312086788  0.3632854381703694  0.4742814361125899   T   T   T
  0.4402912577386431  0.5112799999999993  0.4742099939999989   F   F   F
  0.6008619777549428  0.6586494729865735  0.4760357467663213   T   T   T
  0.5908965653085124  0.6746188107723692  0.5916647617546702   T   T   T
  0.5133253431156933  0.3653679069960265  0.4148930624877503   T   T   T
  0.4354862702109422  0.3457039573561638  0.3588667622344879   T   T   T
  0.5909753664873578  0.3465699530837351  0.5908953564945609   T   T   T
  0.5129961271273067  0.4229476531120351  0.6212989984748204   T   T   T
  0.7336498450922225  0.5098931569430254  0.4771231422125800   T   T   T
  0.3653100990693989  0.5111403481656164  0.3858323268057193   T   T   T
  0.6716229490179125  0.6476597045020058  0.3137246914997688   T   T   T
  0.6412856079848265  0.7220219967716288  0.3122037567457155   T   T   T
  0.6712722508229523  0.6931064455338802  0.3321290922427389   T   T   T
  0.7065101645718804  0.7064178130326598  0.3387476941765487   T   T   T
 
  0.00000000E+00  0.00000000E+00  0.00000000E+00
  0.00000000E+00  0.00000000E+00  0.00000000E+00
  0.00000000E+00  0.00000000E+00  0.00000000E+00
  0.00000000E+00  0.00000000E+00  0.00000000E+00
  0.00000000E+00  0.00000000E+00  0.00000000E+00
  0.00000000E+00  0.00000000E+00  0.00000000E+00
  0.00000000E+00  0.00000000E+00  0.00000000E+00
  0.00000000E+00  0.00000000E+00  0.00000000E+00
  0.00000000E+00  0.00000000E+00  0.00000000E+00
  0.00000000E+00  0.00000000E+00  0.00000000E+00
  0.00000000E+00  0.00000000E+00  0.00000000E+00
  0.00000000E+00  0.00000000E+00  0.00000000E+00
  0.00000000E+00  0.00000000E+00  0.00000000E+00
  0.00000000E+00  0.00000000E+00  0.00000000E+00
  0.00000000E+00  0.00000000E+00  0.00000000E+00
  0.00000000E+00  0.00000000E+00  0.00000000E+00
  0.00000000E+00  0.00000000E+00  0.00000000E+00
  0.00000000E+00  0.00000000E+00  0.00000000E+00
  0.00000000E+00  0.00000000E+00  0.00000000E+00
  0.00000000E+00  0.00000000E+00  0.00000000E+00
  0.00000000E+00  0.00000000E+00  0.00000000E+00
  0.00000000E+00  0.00000000E+00  0.00000000E+00
  0.00000000E+00  0.00000000E+00  0.00000000E+00
  0.00000000E+00  0.00000000E+00  0.00000000E+00
  0.00000000E+00  0.00000000E+00  0.00000000E+00
  0.00000000E+00  0.00000000E+00  0.00000000E+00
  0.00000000E+00  0.00000000E+00  0.00000000E+00
  0.00000000E+00  0.00000000E+00  0.00000000E+00
  0.00000000E+00  0.00000000E+00  0.00000000E+00
  0.00000000E+00  0.00000000E+00  0.00000000E+00
  0.00000000E+00  0.00000000E+00  0.00000000E+00
  0.00000000E+00  0.00000000E+00  0.00000000E+00
  0.00000000E+00  0.00000000E+00  0.00000000E+00
  0.00000000E+00  0.00000000E+00  0.00000000E+00
  0.00000000E+00  0.00000000E+00  0.00000000E+00
  0.00000000E+00  0.00000000E+00  0.00000000E+00
  0.00000000E+00  0.00000000E+00  0.00000000E+00
  0.00000000E+00  0.00000000E+00  0.00000000E+00
  0.00000000E+00  0.00000000E+00  0.00000000E+00
  0.00000000E+00  0.00000000E+00  0.00000000E+00
  0.00000000E+00  0.00000000E+00  0.00000000E+00
  0.00000000E+00  0.00000000E+00  0.00000000E+00
  0.00000000E+00  0.00000000E+00  0.00000000E+00
  0.00000000E+00  0.00000000E+00  0.00000000E+00
  0.00000000E+00  0.00000000E+00  0.00000000E+00
  0.00000000E+00  0.00000000E+00  0.00000000E+00
  0.00000000E+00  0.00000000E+00  0.00000000E+00
  0.00000000E+00  0.00000000E+00  0.00000000E+00
  0.00000000E+00  0.00000000E+00  0.00000000E+00
  0.00000000E+00  0.00000000E+00  0.00000000E+00
  0.00000000E+00  0.00000000E+00  0.00000000E+00
  0.00000000E+00  0.00000000E+00  0.00000000E+00
  0.00000000E+00  0.00000000E+00  0.00000000E+00
  0.00000000E+00  0.00000000E+00  0.00000000E+00
  0.00000000E+00  0.00000000E+00  0.00000000E+00
  0.00000000E+00  0.00000000E+00  0.00000000E+00
  0.00000000E+00  0.00000000E+00  0.00000000E+00
  0.00000000E+00  0.00000000E+00  0.00000000E+00
  0.00000000E+00  0.00000000E+00  0.00000000E+00
  0.00000000E+00  0.00000000E+00  0.00000000E+00
  0.00000000E+00  0.00000000E+00  0.00000000E+00
  0.00000000E+00  0.00000000E+00  0.00000000E+00
  0.00000000E+00  0.00000000E+00  0.00000000E+00
  0.00000000E+00  0.00000000E+00  0.00000000E+00
  0.00000000E+00  0.00000000E+00  0.00000000E+00
  0.00000000E+00  0.00000000E+00  0.00000000E+00
  0.00000000E+00  0.00000000E+00  0.00000000E+00
  0.00000000E+00  0.00000000E+00  0.00000000E+00
  0.00000000E+00  0.00000000E+00  0.00000000E+00
  0.00000000E+00  0.00000000E+00  0.00000000E+00
  0.00000000E+00  0.00000000E+00  0.00000000E+00
  0.00000000E+00  0.00000000E+00  0.00000000E+00
