La O  C  H                              
   1.00000000000000     
    29.0000000000000000    0.0000000000000000    0.0000000000000000
     0.0000000000000000   29.0000000000000000    0.0000000000000000
     0.0000000000000000    0.0000000000000000   29.0000000000000000
   La   O    C    H 
    68     2     1     1
Selective dynamics
Direct
  0.4944204936723825  0.4952788817723268  0.6929031391336217   T   T   T
  0.3692865156865302  0.6568785501844120  0.4068708738211569   T   T   T
  0.3682301139791365  0.5836332586400746  0.4775140418365603   T   T   T
  0.5847735850602547  0.4395563749397482  0.4024863989397502   F   F   F
  0.4413263949397503  0.4395563749397482  0.5459335890602546   F   F   F
  0.6615759655703559  0.5722428247121654  0.4737000188819097   T   T   T
  0.4528337876297119  0.5262198424078449  0.3230638319780135   T   T   T
  0.4323421703091047  0.3598597152380044  0.4601123184056662   T   T   T
  0.5866401939146482  0.5013936546584452  0.6304964126082394   T   T   T
  0.3775916308570584  0.4491685502169406  0.6365620520023321   T   T   T
  0.4952813381062589  0.6632439863495230  0.5593881264362642   T   T   T
  0.5802376295838911  0.3841194857428996  0.3120654475471681   T   T   T
  0.4447138948130279  0.6592344713745365  0.4727349334653331   T   T   T
  0.4429419979568441  0.6454697958938977  0.3216046868640474   T   T   T
  0.6524075541778055  0.5125668588190433  0.5520248548449167   T   T   T
  0.6385366526372400  0.5869396615935760  0.3134215285280552   T   T   T
  0.6703908511324770  0.3724491147983948  0.5406813733561472   T   T   T
  0.5130500200000014  0.4385212377386409  0.4742099939999989   F   F   F
  0.3632351676365722  0.4322627935140101  0.4787019933923695   T   T   T
  0.5130500200000014  0.5840387622613576  0.4742099939999989   F   F   F
  0.5130500200000014  0.5112799999999993  0.5469687262613618   F   F   F
  0.4328343511736322  0.6304523673320381  0.6374985189945476   T   T   T
  0.5858087222613619  0.5112799999999993  0.4742099939999989   F   F   F
  0.5006104171422826  0.3599053123625691  0.5455055108031882   T   T   T
  0.2991686094212345  0.5080482939267058  0.4646348886139552   T   T   T
  0.3642577187727467  0.5010853325304711  0.5465207515996090   T   T   T
  0.5199723933570036  0.5049858080105225  0.2532858644257214   T   T   T
  0.3918998407645192  0.4499571955967818  0.3080353531340226   T   T   T
  0.6662402243127807  0.4338243472520008  0.3452274429538615   T   T   T
  0.6642893162979037  0.5198666097789708  0.3922947316789337   T   T   T
  0.4413263949397503  0.4395563749397482  0.4024863989397502   F   F   F
  0.4413263949397503  0.5830036250602504  0.4024863989397502   F   F   F
  0.5847735850602547  0.5830036250602504  0.4024863989397502   F   F   F
  0.5112178682696252  0.6571425646422018  0.4009491756570278   T   T   T
  0.5247888347953868  0.7221655360385137  0.4869743717728885   T   T   T
  0.3821977430132526  0.6662110867118539  0.5492073739577831   T   T   T
  0.6594417437448307  0.4389469941521706  0.4632789171093583   T   T   T
  0.3509458838021055  0.3974079832725279  0.3887915266769964   T   T   T
  0.3631292093488525  0.5764064517361609  0.3333971161614049   T   T   T
  0.4486170698731807  0.3784792110979749  0.6391678191683655   T   T   T
  0.6717019979041887  0.4417754512721786  0.6176222605350310   T   T   T
  0.5847735850602547  0.5830036250602504  0.5459335890602546   F   F   F
  0.4983507006228035  0.4345835710409903  0.3221630011153681   T   T   T
  0.5130500200000014  0.5112799999999993  0.4014512617386430   F   F   F
  0.6757835058137552  0.6350614733320881  0.5425797696789906   T   T   T
  0.5223386728768711  0.5843726553638479  0.6211255959981754   T   T   T
  0.4413263949397503  0.5830036250602504  0.5459335890602546   F   F   F
  0.4389362402286090  0.5188833630907733  0.6180840409086843   T   T   T
  0.5818194263577943  0.5029553447391695  0.3280414836359560   T   T   T
  0.6311164792133268  0.3474126749559138  0.4000997101715767   T   T   T
  0.5847735850602547  0.4395563749397482  0.5459335890602546   F   F   F
  0.3494810804920522  0.5786980478221159  0.5990987292413650   T   T   T
  0.5176220029806354  0.2957202805086668  0.4657731588345498   T   T   T
  0.6394726768607749  0.5882499534686298  0.6310166576113913   T   T   T
  0.3805887636185376  0.3660491367934109  0.5551413154306460   T   T   T
  0.5301593693345449  0.5940778735235377  0.3202417604994401   T   T   T
  0.6767972353158181  0.6344327655939526  0.4020738522737146   T   T   T
  0.5952652842191856  0.6753124963409991  0.3552273979837875   T   T   T
  0.5855472538512254  0.3648988614107401  0.4859167891334620   T   T   T
  0.4402912577386431  0.5112799999999993  0.4742099939999989   F   F   F
  0.5911574060595284  0.6521444649490767  0.4743963084309699   T   T   T
  0.5891992767072775  0.6744661621136674  0.5884076206875183   T   T   T
  0.5200382654137805  0.3678090680457443  0.4014340531383684   T   T   T
  0.4374483560549265  0.3538779501967748  0.3442632751717170   T   T   T
  0.5806327260329155  0.3679823947033417  0.6152453555639471   T   T   T
  0.5122866259416223  0.4411510620291602  0.6150495981093153   T   T   T
  0.7348568481010769  0.5087373089915773  0.4849037988479527   T   T   T
  0.3701071790022020  0.5063092701316263  0.3985128886723259   T   T   T
  0.7309099075308588  0.4788659903219646  0.5671726584903158   T   T   T
  0.7307805238482544  0.4243001824672632  0.5075305390176433   T   T   T
  0.7359742327884986  0.4319823046758818  0.5554579423906981   T   T   T
  0.7700153959690901  0.4188158222436041  0.5670423107906533   T   T   T
 
  0.00000000E+00  0.00000000E+00  0.00000000E+00
  0.00000000E+00  0.00000000E+00  0.00000000E+00
  0.00000000E+00  0.00000000E+00  0.00000000E+00
  0.00000000E+00  0.00000000E+00  0.00000000E+00
  0.00000000E+00  0.00000000E+00  0.00000000E+00
  0.00000000E+00  0.00000000E+00  0.00000000E+00
  0.00000000E+00  0.00000000E+00  0.00000000E+00
  0.00000000E+00  0.00000000E+00  0.00000000E+00
  0.00000000E+00  0.00000000E+00  0.00000000E+00
  0.00000000E+00  0.00000000E+00  0.00000000E+00
  0.00000000E+00  0.00000000E+00  0.00000000E+00
  0.00000000E+00  0.00000000E+00  0.00000000E+00
  0.00000000E+00  0.00000000E+00  0.00000000E+00
  0.00000000E+00  0.00000000E+00  0.00000000E+00
  0.00000000E+00  0.00000000E+00  0.00000000E+00
  0.00000000E+00  0.00000000E+00  0.00000000E+00
  0.00000000E+00  0.00000000E+00  0.00000000E+00
  0.00000000E+00  0.00000000E+00  0.00000000E+00
  0.00000000E+00  0.00000000E+00  0.00000000E+00
  0.00000000E+00  0.00000000E+00  0.00000000E+00
  0.00000000E+00  0.00000000E+00  0.00000000E+00
  0.00000000E+00  0.00000000E+00  0.00000000E+00
  0.00000000E+00  0.00000000E+00  0.00000000E+00
  0.00000000E+00  0.00000000E+00  0.00000000E+00
  0.00000000E+00  0.00000000E+00  0.00000000E+00
  0.00000000E+00  0.00000000E+00  0.00000000E+00
  0.00000000E+00  0.00000000E+00  0.00000000E+00
  0.00000000E+00  0.00000000E+00  0.00000000E+00
  0.00000000E+00  0.00000000E+00  0.00000000E+00
  0.00000000E+00  0.00000000E+00  0.00000000E+00
  0.00000000E+00  0.00000000E+00  0.00000000E+00
  0.00000000E+00  0.00000000E+00  0.00000000E+00
  0.00000000E+00  0.00000000E+00  0.00000000E+00
  0.00000000E+00  0.00000000E+00  0.00000000E+00
  0.00000000E+00  0.00000000E+00  0.00000000E+00
  0.00000000E+00  0.00000000E+00  0.00000000E+00
  0.00000000E+00  0.00000000E+00  0.00000000E+00
  0.00000000E+00  0.00000000E+00  0.00000000E+00
  0.00000000E+00  0.00000000E+00  0.00000000E+00
  0.00000000E+00  0.00000000E+00  0.00000000E+00
  0.00000000E+00  0.00000000E+00  0.00000000E+00
  0.00000000E+00  0.00000000E+00  0.00000000E+00
  0.00000000E+00  0.00000000E+00  0.00000000E+00
  0.00000000E+00  0.00000000E+00  0.00000000E+00
  0.00000000E+00  0.00000000E+00  0.00000000E+00
  0.00000000E+00  0.00000000E+00  0.00000000E+00
  0.00000000E+00  0.00000000E+00  0.00000000E+00
  0.00000000E+00  0.00000000E+00  0.00000000E+00
  0.00000000E+00  0.00000000E+00  0.00000000E+00
  0.00000000E+00  0.00000000E+00  0.00000000E+00
  0.00000000E+00  0.00000000E+00  0.00000000E+00
  0.00000000E+00  0.00000000E+00  0.00000000E+00
  0.00000000E+00  0.00000000E+00  0.00000000E+00
  0.00000000E+00  0.00000000E+00  0.00000000E+00
  0.00000000E+00  0.00000000E+00  0.00000000E+00
  0.00000000E+00  0.00000000E+00  0.00000000E+00
  0.00000000E+00  0.00000000E+00  0.00000000E+00
  0.00000000E+00  0.00000000E+00  0.00000000E+00
  0.00000000E+00  0.00000000E+00  0.00000000E+00
  0.00000000E+00  0.00000000E+00  0.00000000E+00
  0.00000000E+00  0.00000000E+00  0.00000000E+00
  0.00000000E+00  0.00000000E+00  0.00000000E+00
  0.00000000E+00  0.00000000E+00  0.00000000E+00
  0.00000000E+00  0.00000000E+00  0.00000000E+00
  0.00000000E+00  0.00000000E+00  0.00000000E+00
  0.00000000E+00  0.00000000E+00  0.00000000E+00
  0.00000000E+00  0.00000000E+00  0.00000000E+00
  0.00000000E+00  0.00000000E+00  0.00000000E+00
  0.00000000E+00  0.00000000E+00  0.00000000E+00
  0.00000000E+00  0.00000000E+00  0.00000000E+00
  0.00000000E+00  0.00000000E+00  0.00000000E+00
  0.00000000E+00  0.00000000E+00  0.00000000E+00
