La O  C  H                              
   1.00000000000000     
    29.0000000000000000    0.0000000000000000    0.0000000000000000
     0.0000000000000000   29.0000000000000000    0.0000000000000000
     0.0000000000000000    0.0000000000000000   29.0000000000000000
   La   O    C    H 
    68     2     1     1
Selective dynamics
Direct
  0.5157127543458095  0.5111991101380303  0.6953001799405900   T   T   T
  0.3479335574404174  0.6278542454165680  0.3971593360586010   T   T   T
  0.3677072939674818  0.5713943058111008  0.4744341915274502   T   T   T
  0.5847735850602547  0.4395563749397482  0.4024863989397502   F   F   F
  0.4413263949397503  0.4395563749397482  0.5459335890602546   F   F   F
  0.6581118138630182  0.5724208792292754  0.4745565617276787   T   T   T
  0.4529746366381235  0.5118843443962884  0.3283712325434949   T   T   T
  0.4246953757620075  0.3646582193445457  0.4740772005731709   T   T   T
  0.5733570674545297  0.5114142087245286  0.6191538802722674   T   T   T
  0.3984250948303248  0.4325970762164232  0.6388027352500605   T   T   T
  0.5134183641608486  0.6567718415091243  0.5336815849338147   T   T   T
  0.5895540459942527  0.3472062860291991  0.3561267901404021   T   T   T
  0.4250087044184281  0.6592331516382706  0.4741258276247712   T   T   T
  0.4355754166156875  0.6767651098692964  0.3586132992724943   T   T   T
  0.6612782538682265  0.5113616815892743  0.5618501762315415   T   T   T
  0.6295785067701340  0.5887267237851719  0.3095149509656249   T   T   T
  0.6739088028793175  0.3876517856290714  0.5568086445145165   T   T   T
  0.5130500200000014  0.4385212377386409  0.4742099939999989   F   F   F
  0.3667879223624063  0.4511793262054808  0.4744905198432518   T   T   T
  0.5130500200000014  0.5840387622613576  0.4742099939999989   F   F   F
  0.5130500200000014  0.5112799999999993  0.5469687262613618   F   F   F
  0.4362957808039451  0.6772203506747193  0.5897304978087428   T   T   T
  0.5858087222613619  0.5112799999999993  0.4742099939999989   F   F   F
  0.5132302900731560  0.3664047134097400  0.5338734099124448   T   T   T
  0.2919971225205297  0.5127649549082929  0.4745174187653533   T   T   T
  0.3662453746022639  0.5109732095203213  0.5629856100778472   T   T   T
  0.5126260464984617  0.5101213901691179  0.2531019545552943   T   T   T
  0.3981060425198374  0.4334156065277134  0.3091716562887901   T   T   T
  0.6281829032377578  0.4352128897954040  0.3078996660742652   T   T   T
  0.6584584943715586  0.5117449335405794  0.3861118005362411   T   T   T
  0.4413263949397503  0.4395563749397482  0.4024863989397502   F   F   F
  0.4413263949397503  0.5830036250602504  0.4024863989397502   F   F   F
  0.5847735850602547  0.5830036250602504  0.4024863989397502   F   F   F
  0.5134184585006740  0.6567463889498992  0.4147517414196610   T   T   T
  0.5121434084584082  0.7322369774343118  0.4741214050882161   T   T   T
  0.3482907559517934  0.6282267068080782  0.5516420349074559   T   T   T
  0.6580456827046531  0.4515948619209265  0.4759449932220280   T   T   T
  0.3488254118864840  0.3943048334160621  0.3965636730961390   T   T   T
  0.3962046470754217  0.5892784578725435  0.3097880542149925   T   T   T
  0.4366534427151362  0.3444578253108603  0.5893334223794918   T   T   T
  0.6270918561714740  0.4335968834477712  0.6411865379620608   T   T   T
  0.5847735850602547  0.5830036250602504  0.5459335890602546   F   F   F
  0.5131686717666968  0.4228062331791421  0.3268427796490160   T   T   T
  0.5130500200000014  0.5112799999999993  0.4014512617386430   F   F   F
  0.6774631651407019  0.6288388867095858  0.5524375224276448   T   T   T
  0.5128900462234269  0.6000465583751042  0.6221303387919173   T   T   T
  0.4413263949397503  0.5830036250602504  0.5459335890602546   F   F   F
  0.4536491199934627  0.5117052831663153  0.6204644005983003   T   T   T
  0.5721134723928923  0.5120135215210920  0.3277903659414725   T   T   T
  0.6784401306254828  0.3948061995251436  0.3916016360237786   T   T   T
  0.5847735850602547  0.4395563749397482  0.5459335890602546   F   F   F
  0.3965985776685526  0.5895843556580718  0.6386086729921613   T   T   T
  0.5078039686089539  0.2907329606372489  0.4753747966720916   T   T   T
  0.6285938895058104  0.5894275720774506  0.6393308199107147   T   T   T
  0.3489276836956787  0.3939166002756324  0.5521576065459910   T   T   T
  0.5126743707613737  0.6004608221379254  0.3264396842179053   T   T   T
  0.6787918297438097  0.6269481334415856  0.3961947286100999   T   T   T
  0.5912205398562165  0.6765043899471693  0.3589055564105804   T   T   T
  0.6006273513503537  0.3629358924575876  0.4731070797380655   T   T   T
  0.4402912577386431  0.5112799999999993  0.4742099939999989   F   F   F
  0.6017817148776061  0.6611184371494291  0.4742140972165843   T   T   T
  0.5899460157637818  0.6771530502012680  0.5904472436621314   T   T   T
  0.5127194794241844  0.3656244548433804  0.4145102910252684   T   T   T
  0.4361439011279998  0.3454816068655939  0.3574201545679377   T   T   T
  0.5868035168573223  0.3453242336064525  0.5929992808143154   T   T   T
  0.5125556613863415  0.4224879555106268  0.6229594916831457   T   T   T
  0.7339880091877551  0.5107227163909219  0.4653061417588648   T   T   T
  0.3660416453365067  0.5108818875422612  0.3861319776999870   T   T   T
  0.7388755029547034  0.4257463990707528  0.4488791090035779   T   T   T
  0.6896254552000465  0.3657552622673126  0.4722106890266650   T   T   T
  0.7260390243590763  0.3975406079267291  0.4858308316658869   T   T   T
  0.7557353632473190  0.3777207358046071  0.4997197787258815   T   T   T
 
  0.00000000E+00  0.00000000E+00  0.00000000E+00
  0.00000000E+00  0.00000000E+00  0.00000000E+00
  0.00000000E+00  0.00000000E+00  0.00000000E+00
  0.00000000E+00  0.00000000E+00  0.00000000E+00
  0.00000000E+00  0.00000000E+00  0.00000000E+00
  0.00000000E+00  0.00000000E+00  0.00000000E+00
  0.00000000E+00  0.00000000E+00  0.00000000E+00
  0.00000000E+00  0.00000000E+00  0.00000000E+00
  0.00000000E+00  0.00000000E+00  0.00000000E+00
  0.00000000E+00  0.00000000E+00  0.00000000E+00
  0.00000000E+00  0.00000000E+00  0.00000000E+00
  0.00000000E+00  0.00000000E+00  0.00000000E+00
  0.00000000E+00  0.00000000E+00  0.00000000E+00
  0.00000000E+00  0.00000000E+00  0.00000000E+00
  0.00000000E+00  0.00000000E+00  0.00000000E+00
  0.00000000E+00  0.00000000E+00  0.00000000E+00
  0.00000000E+00  0.00000000E+00  0.00000000E+00
  0.00000000E+00  0.00000000E+00  0.00000000E+00
  0.00000000E+00  0.00000000E+00  0.00000000E+00
  0.00000000E+00  0.00000000E+00  0.00000000E+00
  0.00000000E+00  0.00000000E+00  0.00000000E+00
  0.00000000E+00  0.00000000E+00  0.00000000E+00
  0.00000000E+00  0.00000000E+00  0.00000000E+00
  0.00000000E+00  0.00000000E+00  0.00000000E+00
  0.00000000E+00  0.00000000E+00  0.00000000E+00
  0.00000000E+00  0.00000000E+00  0.00000000E+00
  0.00000000E+00  0.00000000E+00  0.00000000E+00
  0.00000000E+00  0.00000000E+00  0.00000000E+00
  0.00000000E+00  0.00000000E+00  0.00000000E+00
  0.00000000E+00  0.00000000E+00  0.00000000E+00
  0.00000000E+00  0.00000000E+00  0.00000000E+00
  0.00000000E+00  0.00000000E+00  0.00000000E+00
  0.00000000E+00  0.00000000E+00  0.00000000E+00
  0.00000000E+00  0.00000000E+00  0.00000000E+00
  0.00000000E+00  0.00000000E+00  0.00000000E+00
  0.00000000E+00  0.00000000E+00  0.00000000E+00
  0.00000000E+00  0.00000000E+00  0.00000000E+00
  0.00000000E+00  0.00000000E+00  0.00000000E+00
  0.00000000E+00  0.00000000E+00  0.00000000E+00
  0.00000000E+00  0.00000000E+00  0.00000000E+00
  0.00000000E+00  0.00000000E+00  0.00000000E+00
  0.00000000E+00  0.00000000E+00  0.00000000E+00
  0.00000000E+00  0.00000000E+00  0.00000000E+00
  0.00000000E+00  0.00000000E+00  0.00000000E+00
  0.00000000E+00  0.00000000E+00  0.00000000E+00
  0.00000000E+00  0.00000000E+00  0.00000000E+00
  0.00000000E+00  0.00000000E+00  0.00000000E+00
  0.00000000E+00  0.00000000E+00  0.00000000E+00
  0.00000000E+00  0.00000000E+00  0.00000000E+00
  0.00000000E+00  0.00000000E+00  0.00000000E+00
  0.00000000E+00  0.00000000E+00  0.00000000E+00
  0.00000000E+00  0.00000000E+00  0.00000000E+00
  0.00000000E+00  0.00000000E+00  0.00000000E+00
  0.00000000E+00  0.00000000E+00  0.00000000E+00
  0.00000000E+00  0.00000000E+00  0.00000000E+00
  0.00000000E+00  0.00000000E+00  0.00000000E+00
  0.00000000E+00  0.00000000E+00  0.00000000E+00
  0.00000000E+00  0.00000000E+00  0.00000000E+00
  0.00000000E+00  0.00000000E+00  0.00000000E+00
  0.00000000E+00  0.00000000E+00  0.00000000E+00
  0.00000000E+00  0.00000000E+00  0.00000000E+00
  0.00000000E+00  0.00000000E+00  0.00000000E+00
  0.00000000E+00  0.00000000E+00  0.00000000E+00
  0.00000000E+00  0.00000000E+00  0.00000000E+00
  0.00000000E+00  0.00000000E+00  0.00000000E+00
  0.00000000E+00  0.00000000E+00  0.00000000E+00
  0.00000000E+00  0.00000000E+00  0.00000000E+00
  0.00000000E+00  0.00000000E+00  0.00000000E+00
  0.00000000E+00  0.00000000E+00  0.00000000E+00
  0.00000000E+00  0.00000000E+00  0.00000000E+00
  0.00000000E+00  0.00000000E+00  0.00000000E+00
  0.00000000E+00  0.00000000E+00  0.00000000E+00
