La O  C  H                              
   1.00000000000000     
    29.0000000000000000    0.0000000000000000    0.0000000000000000
     0.0000000000000000   29.0000000000000000    0.0000000000000000
     0.0000000000000000    0.0000000000000000   29.0000000000000000
   La   O    C    H 
    68     2     1     1
Selective dynamics
Direct
  0.5156567541894999  0.5222306394361741  0.6897680328835549   T   T   T
  0.3524999350683644  0.6328654805944999  0.3944192971082903   T   T   T
  0.3690109651627788  0.5749694478806711  0.4717632687316506   T   T   T
  0.5847735850602547  0.4395563749397482  0.4024863989397502   F   F   F
  0.4413263949397503  0.4395563749397482  0.5459335890602546   F   F   F
  0.6589863348025309  0.5717146726658825  0.4721749416801337   T   T   T
  0.4540414069682803  0.5112421668351900  0.3277571686516137   T   T   T
  0.4353506518055330  0.3600917453391297  0.4620354617570528   T   T   T
  0.5752783154950856  0.5121794350039653  0.6181497513678901   T   T   T
  0.3561079430365974  0.4370310246839195  0.5999123653401104   T   T   T
  0.5146879424842035  0.6582197173847734  0.5322329704847397   T   T   T
  0.5838762722667795  0.3243331049927340  0.3621061417774191   T   T   T
  0.4273178585578850  0.6602266485700026  0.4743303653304068   T   T   T
  0.4409500936108425  0.6802149329632884  0.3575714634895426   T   T   T
  0.6605565682131280  0.5106797361586648  0.5589791658978296   T   T   T
  0.6218009885016701  0.5912452184063148  0.3061899459057476   T   T   T
  0.6808722330733373  0.3975882439920634  0.5484508884857441   T   T   T
  0.5130500200000014  0.4385212377386409  0.4742099939999989   F   F   F
  0.3691719080723570  0.4439753128994709  0.4812106469846819   T   T   T
  0.5130500200000014  0.5840387622613576  0.4742099939999989   F   F   F
  0.5130500200000014  0.5112799999999993  0.5469687262613618   F   F   F
  0.4381403872497560  0.6769805081686711  0.5888412971347861   T   T   T
  0.5858087222613619  0.5112799999999993  0.4742099939999989   F   F   F
  0.5065912998231359  0.3641331804040646  0.5384969617967107   T   T   T
  0.2984927935743313  0.5110619101596485  0.4745788163350820   T   T   T
  0.3637670962370186  0.5238216582417621  0.5582588763080046   T   T   T
  0.5099914552489839  0.5227986107836242  0.2511707470511191   T   T   T
  0.3963648445464656  0.4328868093625980  0.3107521971630187   T   T   T
  0.6197492491430683  0.4192452568572320  0.3179513807476524   T   T   T
  0.6593636354313426  0.5122168856767690  0.3826852124513910   T   T   T
  0.4413263949397503  0.4395563749397482  0.4024863989397502   F   F   F
  0.4413263949397503  0.5830036250602504  0.4024863989397502   F   F   F
  0.5847735850602547  0.5830036250602504  0.4024863989397502   F   F   F
  0.5139235567614850  0.6562453073665697  0.4142548053182220   T   T   T
  0.5134294860145974  0.7331725614818853  0.4706997328631293   T   T   T
  0.3498673645430849  0.6337394437779904  0.5493940414562448   T   T   T
  0.6582524937932551  0.4508345189456329  0.4703976307717668   T   T   T
  0.3515213001692974  0.3912344421448355  0.3981367417007925   T   T   T
  0.4003873496579063  0.5912717040228258  0.3091245806618649   T   T   T
  0.4385208405466204  0.3741402147003631  0.6255057067626538   T   T   T
  0.6356829581678225  0.4370597752482444  0.6369428622079345   T   T   T
  0.5847735850602547  0.5830036250602504  0.5459335890602546   F   F   F
  0.5084668121234807  0.4236908505627174  0.3185713009182711   T   T   T
  0.5130500200000014  0.5112799999999993  0.4014512617386430   F   F   F
  0.6794304494462645  0.6244624253448372  0.5521629910343044   T   T   T
  0.5104722253659716  0.5979444891409826  0.6197233835332148   T   T   T
  0.4413263949397503  0.5830036250602504  0.5459335890602546   F   F   F
  0.4464927165995858  0.5019827587358129  0.6207843830990634   T   T   T
  0.5714172597201547  0.5092011260256818  0.3265741944669810   T   T   T
  0.6762925248080167  0.3819158411650074  0.4030540928721383   T   T   T
  0.5847735850602547  0.4395563749397482  0.5459335890602546   F   F   F
  0.3982393831496624  0.5895986653233288  0.6366068189049692   T   T   T
  0.5208596751284702  0.2879428590150698  0.4586406936885855   T   T   T
  0.6306339860992265  0.5862364719256770  0.6415458860674319   T   T   T
  0.3804220899186314  0.3524975976343150  0.5399974070266929   T   T   T
  0.5133236544836406  0.6003064438035496  0.3263047128843550   T   T   T
  0.6746459602507482  0.6279801409754140  0.3924466271780377   T   T   T
  0.5875302248714075  0.6787028482366253  0.3573837424858545   T   T   T
  0.5972635370975053  0.3633684040061774  0.4795749441705707   T   T   T
  0.4402912577386431  0.5112799999999993  0.4742099939999989   F   F   F
  0.6021588093303213  0.6585873653648791  0.4734159841080265   T   T   T
  0.5909277687914352  0.6721326698636737  0.5922071786450592   T   T   T
  0.5175043631382154  0.3717611778666990  0.4071349959270820   T   T   T
  0.4392153865680969  0.3453299702406963  0.3543298655529051   T   T   T
  0.5932378402335002  0.3510324297936446  0.5898884676075563   T   T   T
  0.5224836678806584  0.4259337195800941  0.6241194348761613   T   T   T
  0.7333488688975824  0.5115459407708267  0.4776813152253302   T   T   T
  0.3679969145608977  0.5092349647187535  0.3881335044730887   T   T   T
  0.6414909944503124  0.3110981817123195  0.4208862110395079   T   T   T
  0.5957149384829624  0.2759060703486550  0.4776520636259838   T   T   T
  0.6092842883776177  0.2747639716119266  0.4313689045586244   T   T   T
  0.6257026517599382  0.2414707078884392  0.4224968051922380   T   T   T
 
  0.00000000E+00  0.00000000E+00  0.00000000E+00
  0.00000000E+00  0.00000000E+00  0.00000000E+00
  0.00000000E+00  0.00000000E+00  0.00000000E+00
  0.00000000E+00  0.00000000E+00  0.00000000E+00
  0.00000000E+00  0.00000000E+00  0.00000000E+00
  0.00000000E+00  0.00000000E+00  0.00000000E+00
  0.00000000E+00  0.00000000E+00  0.00000000E+00
  0.00000000E+00  0.00000000E+00  0.00000000E+00
  0.00000000E+00  0.00000000E+00  0.00000000E+00
  0.00000000E+00  0.00000000E+00  0.00000000E+00
  0.00000000E+00  0.00000000E+00  0.00000000E+00
  0.00000000E+00  0.00000000E+00  0.00000000E+00
  0.00000000E+00  0.00000000E+00  0.00000000E+00
  0.00000000E+00  0.00000000E+00  0.00000000E+00
  0.00000000E+00  0.00000000E+00  0.00000000E+00
  0.00000000E+00  0.00000000E+00  0.00000000E+00
  0.00000000E+00  0.00000000E+00  0.00000000E+00
  0.00000000E+00  0.00000000E+00  0.00000000E+00
  0.00000000E+00  0.00000000E+00  0.00000000E+00
  0.00000000E+00  0.00000000E+00  0.00000000E+00
  0.00000000E+00  0.00000000E+00  0.00000000E+00
  0.00000000E+00  0.00000000E+00  0.00000000E+00
  0.00000000E+00  0.00000000E+00  0.00000000E+00
  0.00000000E+00  0.00000000E+00  0.00000000E+00
  0.00000000E+00  0.00000000E+00  0.00000000E+00
  0.00000000E+00  0.00000000E+00  0.00000000E+00
  0.00000000E+00  0.00000000E+00  0.00000000E+00
  0.00000000E+00  0.00000000E+00  0.00000000E+00
  0.00000000E+00  0.00000000E+00  0.00000000E+00
  0.00000000E+00  0.00000000E+00  0.00000000E+00
  0.00000000E+00  0.00000000E+00  0.00000000E+00
  0.00000000E+00  0.00000000E+00  0.00000000E+00
  0.00000000E+00  0.00000000E+00  0.00000000E+00
  0.00000000E+00  0.00000000E+00  0.00000000E+00
  0.00000000E+00  0.00000000E+00  0.00000000E+00
  0.00000000E+00  0.00000000E+00  0.00000000E+00
  0.00000000E+00  0.00000000E+00  0.00000000E+00
  0.00000000E+00  0.00000000E+00  0.00000000E+00
  0.00000000E+00  0.00000000E+00  0.00000000E+00
  0.00000000E+00  0.00000000E+00  0.00000000E+00
  0.00000000E+00  0.00000000E+00  0.00000000E+00
  0.00000000E+00  0.00000000E+00  0.00000000E+00
  0.00000000E+00  0.00000000E+00  0.00000000E+00
  0.00000000E+00  0.00000000E+00  0.00000000E+00
  0.00000000E+00  0.00000000E+00  0.00000000E+00
  0.00000000E+00  0.00000000E+00  0.00000000E+00
  0.00000000E+00  0.00000000E+00  0.00000000E+00
  0.00000000E+00  0.00000000E+00  0.00000000E+00
  0.00000000E+00  0.00000000E+00  0.00000000E+00
  0.00000000E+00  0.00000000E+00  0.00000000E+00
  0.00000000E+00  0.00000000E+00  0.00000000E+00
  0.00000000E+00  0.00000000E+00  0.00000000E+00
  0.00000000E+00  0.00000000E+00  0.00000000E+00
  0.00000000E+00  0.00000000E+00  0.00000000E+00
  0.00000000E+00  0.00000000E+00  0.00000000E+00
  0.00000000E+00  0.00000000E+00  0.00000000E+00
  0.00000000E+00  0.00000000E+00  0.00000000E+00
  0.00000000E+00  0.00000000E+00  0.00000000E+00
  0.00000000E+00  0.00000000E+00  0.00000000E+00
  0.00000000E+00  0.00000000E+00  0.00000000E+00
  0.00000000E+00  0.00000000E+00  0.00000000E+00
  0.00000000E+00  0.00000000E+00  0.00000000E+00
  0.00000000E+00  0.00000000E+00  0.00000000E+00
  0.00000000E+00  0.00000000E+00  0.00000000E+00
  0.00000000E+00  0.00000000E+00  0.00000000E+00
  0.00000000E+00  0.00000000E+00  0.00000000E+00
  0.00000000E+00  0.00000000E+00  0.00000000E+00
  0.00000000E+00  0.00000000E+00  0.00000000E+00
  0.00000000E+00  0.00000000E+00  0.00000000E+00
  0.00000000E+00  0.00000000E+00  0.00000000E+00
  0.00000000E+00  0.00000000E+00  0.00000000E+00
  0.00000000E+00  0.00000000E+00  0.00000000E+00
