La O  C  H                              
   1.00000000000000     
    29.0000000000000000    0.0000000000000000    0.0000000000000000
     0.0000000000000000   29.0000000000000000    0.0000000000000000
     0.0000000000000000    0.0000000000000000   29.0000000000000000
   La   O    C    H 
    68     2     1     1
Selective dynamics
Direct
  0.5191186618369693  0.5036736008812182  0.6923083140958569   T   T   T
  0.3506298534651353  0.6234144193776515  0.3906482926453450   T   T   T
  0.3622322556120051  0.5835910301387454  0.4902219419855107   T   T   T
  0.5847735850602547  0.4395563749397482  0.4024863989397502   F   F   F
  0.4413263949397503  0.4395563749397482  0.5459335890602546   F   F   F
  0.6558047386923063  0.5741649028405410  0.4762651565155585   T   T   T
  0.4521498152291973  0.5106876912389927  0.3286016507946784   T   T   T
  0.4276957324202701  0.3660946022521371  0.4719657735898682   T   T   T
  0.5753590526044164  0.5088480032969487  0.6176181197568358   T   T   T
  0.3980859993675549  0.4327124137066484  0.6352399669450045   T   T   T
  0.5071363911818233  0.6554330617815057  0.5414692491650505   T   T   T
  0.5867108421953703  0.3753302819405250  0.3219427910949739   T   T   T
  0.4270780240911101  0.6606463030833006  0.4598675942796194   T   T   T
  0.4422523008901455  0.6747419274543072  0.3494408949483578   T   T   T
  0.6609233870033905  0.5082531957497942  0.5588948778139062   T   T   T
  0.6324102083017231  0.5866092302473151  0.3124912581215633   T   T   T
  0.6752472836682274  0.3953361781852962  0.5531523765727983   T   T   T
  0.5130500200000014  0.4385212377386409  0.4742099939999989   F   F   F
  0.3672387024462308  0.4511665009142166  0.4733127607014528   T   T   T
  0.5130500200000014  0.5840387622613576  0.4742099939999989   F   F   F
  0.5130500200000014  0.5112799999999993  0.5469687262613618   F   F   F
  0.4469092641244684  0.6470648740243820  0.6306427408415305   T   T   T
  0.5858087222613619  0.5112799999999993  0.4742099939999989   F   F   F
  0.5127406493962605  0.3667996535601103  0.5359451437483647   T   T   T
  0.2880989251517961  0.5118004745454997  0.4623473739277816   T   T   T
  0.3649254040403174  0.5030033130466961  0.5576858199758220   T   T   T
  0.5109492609808247  0.5186220612579376  0.2562044448469162   T   T   T
  0.3930903073353971  0.4331934518563854  0.3120585940564843   T   T   T
  0.6685322213462819  0.4414914868577358  0.3381938066340857   T   T   T
  0.6618306347655860  0.5207069979748180  0.3913849413655499   T   T   T
  0.4413263949397503  0.4395563749397482  0.4024863989397502   F   F   F
  0.4413263949397503  0.5830036250602504  0.4024863989397502   F   F   F
  0.5847735850602547  0.5830036250602504  0.4024863989397502   F   F   F
  0.5151347635314766  0.6572933698864724  0.4129184262058712   T   T   T
  0.5028056452741898  0.7277715610939187  0.4765757775995647   T   T   T
  0.3907139841264281  0.6743888286580412  0.5477090230421405   T   T   T
  0.6600356208040516  0.4459737668197184  0.4671355078959041   T   T   T
  0.3476867337386808  0.3930971297753226  0.3985778541437859   T   T   T
  0.4016213578920441  0.5887901349286511  0.3050628007258847   T   T   T
  0.4361104745771244  0.3442167621729034  0.5893218498513012   T   T   T
  0.6313486507864803  0.4351890157245253  0.6407466651958681   T   T   T
  0.5847735850602547  0.5830036250602504  0.5459335890602546   F   F   F
  0.5046033799699898  0.4256853625240580  0.3259270283795475   T   T   T
  0.5130500200000014  0.5112799999999993  0.4014512617386430   F   F   F
  0.6812401838759941  0.6272582168719031  0.5515686041974609   T   T   T
  0.5268530100710617  0.5944104936738547  0.6276586953357780   T   T   T
  0.4413263949397503  0.5830036250602504  0.5459335890602546   F   F   F
  0.4473307126567961  0.5204317808777954  0.6223478262565963   T   T   T
  0.5794721427264754  0.5016269927230660  0.3273137975008117   T   T   T
  0.6514097789425289  0.3601508489237112  0.4029158896650215   T   T   T
  0.5847735850602547  0.4395563749397482  0.5459335890602546   F   F   F
  0.3615728563069850  0.5884328025537268  0.6074135157660445   T   T   T
  0.5055326483946032  0.2935989788803377  0.4768760377336977   T   T   T
  0.6376213519502145  0.5823232232045927  0.6368226260088897   T   T   T
  0.3494441286811439  0.3893091532918874  0.5473934012781667   T   T   T
  0.5170581869040366  0.5950591739576003  0.3289072107374740   T   T   T
  0.6772697332053396  0.6312152038251478  0.3998533125387484   T   T   T
  0.5903543741233688  0.6739503626995715  0.3545811240753228   T   T   T
  0.5985757520544170  0.3605214211494628  0.4844752703463538   T   T   T
  0.4402912577386431  0.5112799999999993  0.4742099939999989   F   F   F
  0.5972773672363330  0.6596368412381316  0.4764401090370233   T   T   T
  0.5926409285286878  0.6714893546897812  0.5924335602446552   T   T   T
  0.5218830876689501  0.3641956333165599  0.4097546144313326   T   T   T
  0.4363686250800214  0.3470642961619950  0.3599193248220273   T   T   T
  0.5876477279559418  0.3490331497025202  0.5969737961120242   T   T   T
  0.5116370367805947  0.4259705449670067  0.6214062499753950   T   T   T
  0.7315292628023934  0.5181073231385719  0.4771826989245255   T   T   T
  0.3684169150655232  0.5108373515924951  0.3881804953835780   T   T   T
  0.2984809798722506  0.5548606595008856  0.3858592035879538   T   T   T
  0.2921663512785181  0.6000028233562389  0.4512195167602434   T   T   T
  0.2668260494041688  0.5765106936552546  0.4168078700948153   T   T   T
  0.2409398504658166  0.5979725694414938  0.3991919198726304   T   T   T
 
  0.00000000E+00  0.00000000E+00  0.00000000E+00
  0.00000000E+00  0.00000000E+00  0.00000000E+00
  0.00000000E+00  0.00000000E+00  0.00000000E+00
  0.00000000E+00  0.00000000E+00  0.00000000E+00
  0.00000000E+00  0.00000000E+00  0.00000000E+00
  0.00000000E+00  0.00000000E+00  0.00000000E+00
  0.00000000E+00  0.00000000E+00  0.00000000E+00
  0.00000000E+00  0.00000000E+00  0.00000000E+00
  0.00000000E+00  0.00000000E+00  0.00000000E+00
  0.00000000E+00  0.00000000E+00  0.00000000E+00
  0.00000000E+00  0.00000000E+00  0.00000000E+00
  0.00000000E+00  0.00000000E+00  0.00000000E+00
  0.00000000E+00  0.00000000E+00  0.00000000E+00
  0.00000000E+00  0.00000000E+00  0.00000000E+00
  0.00000000E+00  0.00000000E+00  0.00000000E+00
  0.00000000E+00  0.00000000E+00  0.00000000E+00
  0.00000000E+00  0.00000000E+00  0.00000000E+00
  0.00000000E+00  0.00000000E+00  0.00000000E+00
  0.00000000E+00  0.00000000E+00  0.00000000E+00
  0.00000000E+00  0.00000000E+00  0.00000000E+00
  0.00000000E+00  0.00000000E+00  0.00000000E+00
  0.00000000E+00  0.00000000E+00  0.00000000E+00
  0.00000000E+00  0.00000000E+00  0.00000000E+00
  0.00000000E+00  0.00000000E+00  0.00000000E+00
  0.00000000E+00  0.00000000E+00  0.00000000E+00
  0.00000000E+00  0.00000000E+00  0.00000000E+00
  0.00000000E+00  0.00000000E+00  0.00000000E+00
  0.00000000E+00  0.00000000E+00  0.00000000E+00
  0.00000000E+00  0.00000000E+00  0.00000000E+00
  0.00000000E+00  0.00000000E+00  0.00000000E+00
  0.00000000E+00  0.00000000E+00  0.00000000E+00
  0.00000000E+00  0.00000000E+00  0.00000000E+00
  0.00000000E+00  0.00000000E+00  0.00000000E+00
  0.00000000E+00  0.00000000E+00  0.00000000E+00
  0.00000000E+00  0.00000000E+00  0.00000000E+00
  0.00000000E+00  0.00000000E+00  0.00000000E+00
  0.00000000E+00  0.00000000E+00  0.00000000E+00
  0.00000000E+00  0.00000000E+00  0.00000000E+00
  0.00000000E+00  0.00000000E+00  0.00000000E+00
  0.00000000E+00  0.00000000E+00  0.00000000E+00
  0.00000000E+00  0.00000000E+00  0.00000000E+00
  0.00000000E+00  0.00000000E+00  0.00000000E+00
  0.00000000E+00  0.00000000E+00  0.00000000E+00
  0.00000000E+00  0.00000000E+00  0.00000000E+00
  0.00000000E+00  0.00000000E+00  0.00000000E+00
  0.00000000E+00  0.00000000E+00  0.00000000E+00
  0.00000000E+00  0.00000000E+00  0.00000000E+00
  0.00000000E+00  0.00000000E+00  0.00000000E+00
  0.00000000E+00  0.00000000E+00  0.00000000E+00
  0.00000000E+00  0.00000000E+00  0.00000000E+00
  0.00000000E+00  0.00000000E+00  0.00000000E+00
  0.00000000E+00  0.00000000E+00  0.00000000E+00
  0.00000000E+00  0.00000000E+00  0.00000000E+00
  0.00000000E+00  0.00000000E+00  0.00000000E+00
  0.00000000E+00  0.00000000E+00  0.00000000E+00
  0.00000000E+00  0.00000000E+00  0.00000000E+00
  0.00000000E+00  0.00000000E+00  0.00000000E+00
  0.00000000E+00  0.00000000E+00  0.00000000E+00
  0.00000000E+00  0.00000000E+00  0.00000000E+00
  0.00000000E+00  0.00000000E+00  0.00000000E+00
  0.00000000E+00  0.00000000E+00  0.00000000E+00
  0.00000000E+00  0.00000000E+00  0.00000000E+00
  0.00000000E+00  0.00000000E+00  0.00000000E+00
  0.00000000E+00  0.00000000E+00  0.00000000E+00
  0.00000000E+00  0.00000000E+00  0.00000000E+00
  0.00000000E+00  0.00000000E+00  0.00000000E+00
  0.00000000E+00  0.00000000E+00  0.00000000E+00
  0.00000000E+00  0.00000000E+00  0.00000000E+00
  0.00000000E+00  0.00000000E+00  0.00000000E+00
  0.00000000E+00  0.00000000E+00  0.00000000E+00
  0.00000000E+00  0.00000000E+00  0.00000000E+00
  0.00000000E+00  0.00000000E+00  0.00000000E+00
