La O  C  H                              
   1.00000000000000     
    29.0000000000000000    0.0000000000000000    0.0000000000000000
     0.0000000000000000   29.0000000000000000    0.0000000000000000
     0.0000000000000000    0.0000000000000000   29.0000000000000000
   La   O    C    H 
    68     2     1     1
Selective dynamics
Direct
  0.5252106551291993  0.5085451393907915  0.6984781861566165   T   T   T
  0.3488179950161957  0.6284149113623768  0.3970188843716593   T   T   T
  0.3674993120612534  0.5720432347907621  0.4745505620653483   T   T   T
  0.5847735850602547  0.4395563749397482  0.4024863989397502   F   F   F
  0.4413263949397503  0.4395563749397482  0.5459335890602546   F   F   F
  0.6587793216036307  0.5706557411532327  0.4753371462808124   T   T   T
  0.4525455796826619  0.5114723688290853  0.3286043717904591   T   T   T
  0.4249137364314208  0.3640422646171403  0.4739850054312226   T   T   T
  0.5739485353326709  0.5113522264932959  0.6170997027251375   T   T   T
  0.3960488793270946  0.4319699128828930  0.6370315265988212   T   T   T
  0.5136617804275438  0.6563967415291667  0.5347924690169460   T   T   T
  0.5907039038840737  0.3473495689935939  0.3568058650030983   T   T   T
  0.4256154263554311  0.6589331112359891  0.4746962383192615   T   T   T
  0.4359399875833038  0.6763098943366319  0.3574916647026108   T   T   T
  0.6620590635060112  0.5112868264278931  0.5631772955252682   T   T   T
  0.6306368432933502  0.5879533172434853  0.3098105505408487   T   T   T
  0.6701108778431332  0.3957908041262813  0.5585943574756642   T   T   T
  0.5130500200000014  0.4385212377386409  0.4742099939999989   F   F   F
  0.3672298750064507  0.4514945037590839  0.4742098459534207   T   T   T
  0.5130500200000014  0.5840387622613576  0.4742099939999989   F   F   F
  0.5130500200000014  0.5112799999999993  0.5469687262613618   F   F   F
  0.4366504220691235  0.6762793963827033  0.5909677421122387   T   T   T
  0.5858087222613619  0.5112799999999993  0.4742099939999989   F   F   F
  0.5130923878922582  0.3669703277185507  0.5340815320984317   T   T   T
  0.2929598282047620  0.5112518208580156  0.4774493763710163   T   T   T
  0.3671105320664963  0.5112550274141699  0.5639830325496378   T   T   T
  0.5128769466845378  0.5096876641014509  0.2535934859044657   T   T   T
  0.3966204066470758  0.4333919719373767  0.3097082200268210   T   T   T
  0.6292140581768902  0.4354536157470529  0.3078325654739589   T   T   T
  0.6605518868023890  0.5109559072688393  0.3854915438341563   T   T   T
  0.4413263949397503  0.4395563749397482  0.4024863989397502   F   F   F
  0.4413263949397503  0.5830036250602504  0.4024863989397502   F   F   F
  0.5847735850602547  0.5830036250602504  0.4024863989397502   F   F   F
  0.5133974465926159  0.6572864665376729  0.4144882816006473   T   T   T
  0.5142259332371635  0.7318560268299936  0.4762777663557409   T   T   T
  0.3493254568016931  0.6272187013074825  0.5534896724064500   T   T   T
  0.6594817171452296  0.4511618042578166  0.4750818681987145   T   T   T
  0.3483904814921001  0.3944619118766560  0.3973014428900636   T   T   T
  0.3970070878347796  0.5894291849702449  0.3093731918346632   T   T   T
  0.4341010279337213  0.3447795549472382  0.5872301935442580   T   T   T
  0.6234897905003035  0.4353140812583989  0.6516021261372106   T   T   T
  0.5847735850602547  0.5830036250602504  0.5459335890602546   F   F   F
  0.5129588252090358  0.4233789322446714  0.3284149116715928   T   T   T
  0.5130500200000014  0.5112799999999993  0.4014512617386430   F   F   F
  0.6771471006621175  0.6283527071184810  0.5527387933426043   T   T   T
  0.5136841376413370  0.5980985039913223  0.6232940619559292   T   T   T
  0.4413263949397503  0.5830036250602504  0.5459335890602546   F   F   F
  0.4550836781158933  0.5099146874885068  0.6218885662096342   T   T   T
  0.5729714061261351  0.5117052592674209  0.3281916065502610   T   T   T
  0.6782432782692978  0.3970558811485033  0.3947739991616339   T   T   T
  0.5847735850602547  0.4395563749397482  0.5459335890602546   F   F   F
  0.3981841164279302  0.5884865291336213  0.6405872196536896   T   T   T
  0.5093369503570305  0.2905956531152022  0.4769691428360122   T   T   T
  0.6278897143029950  0.5886802873932592  0.6398215849073207   T   T   T
  0.3467925726103685  0.3945531240344362  0.5501728620857343   T   T   T
  0.5132314951361681  0.5992970473004293  0.3275982927209897   T   T   T
  0.6797794153216424  0.6257856471179311  0.3972513986308951   T   T   T
  0.5923698305980044  0.6752970470527760  0.3583112969927222   T   T   T
  0.6015517469061115  0.3640461293561239  0.4737351966882322   T   T   T
  0.4402912577386431  0.5112799999999993  0.4742099939999989   F   F   F
  0.6013785441463105  0.6579442276901586  0.4736862762224968   T   T   T
  0.5897766799548536  0.6774279440929574  0.5912707664543672   T   T   T
  0.5133987934528987  0.3646804357553949  0.4146654693066562   T   T   T
  0.4361022540449692  0.3459710525730515  0.3578026220139611   T   T   T
  0.5860741143410564  0.3387073441250185  0.5918435834624323   T   T   T
  0.5100425632498948  0.4194696720845324  0.6252604191452236   T   T   T
  0.7342957634497340  0.5130337410330116  0.4677843002587717   T   T   T
  0.3654287173868944  0.5116980221198190  0.3864709066544507   T   T   T
  0.5743603266347064  0.3690659824510269  0.6658724332251640   T   T   T
  0.5567757367032239  0.4346053752487218  0.7066918574407985   T   T   T
  0.5424068977193764  0.3892915868995618  0.6967842795314579   T   T   T
  0.5368932497204428  0.3680851536991308  0.7276726882614255   T   T   T
 
  0.00000000E+00  0.00000000E+00  0.00000000E+00
  0.00000000E+00  0.00000000E+00  0.00000000E+00
  0.00000000E+00  0.00000000E+00  0.00000000E+00
  0.00000000E+00  0.00000000E+00  0.00000000E+00
  0.00000000E+00  0.00000000E+00  0.00000000E+00
  0.00000000E+00  0.00000000E+00  0.00000000E+00
  0.00000000E+00  0.00000000E+00  0.00000000E+00
  0.00000000E+00  0.00000000E+00  0.00000000E+00
  0.00000000E+00  0.00000000E+00  0.00000000E+00
  0.00000000E+00  0.00000000E+00  0.00000000E+00
  0.00000000E+00  0.00000000E+00  0.00000000E+00
  0.00000000E+00  0.00000000E+00  0.00000000E+00
  0.00000000E+00  0.00000000E+00  0.00000000E+00
  0.00000000E+00  0.00000000E+00  0.00000000E+00
  0.00000000E+00  0.00000000E+00  0.00000000E+00
  0.00000000E+00  0.00000000E+00  0.00000000E+00
  0.00000000E+00  0.00000000E+00  0.00000000E+00
  0.00000000E+00  0.00000000E+00  0.00000000E+00
  0.00000000E+00  0.00000000E+00  0.00000000E+00
  0.00000000E+00  0.00000000E+00  0.00000000E+00
  0.00000000E+00  0.00000000E+00  0.00000000E+00
  0.00000000E+00  0.00000000E+00  0.00000000E+00
  0.00000000E+00  0.00000000E+00  0.00000000E+00
  0.00000000E+00  0.00000000E+00  0.00000000E+00
  0.00000000E+00  0.00000000E+00  0.00000000E+00
  0.00000000E+00  0.00000000E+00  0.00000000E+00
  0.00000000E+00  0.00000000E+00  0.00000000E+00
  0.00000000E+00  0.00000000E+00  0.00000000E+00
  0.00000000E+00  0.00000000E+00  0.00000000E+00
  0.00000000E+00  0.00000000E+00  0.00000000E+00
  0.00000000E+00  0.00000000E+00  0.00000000E+00
  0.00000000E+00  0.00000000E+00  0.00000000E+00
  0.00000000E+00  0.00000000E+00  0.00000000E+00
  0.00000000E+00  0.00000000E+00  0.00000000E+00
  0.00000000E+00  0.00000000E+00  0.00000000E+00
  0.00000000E+00  0.00000000E+00  0.00000000E+00
  0.00000000E+00  0.00000000E+00  0.00000000E+00
  0.00000000E+00  0.00000000E+00  0.00000000E+00
  0.00000000E+00  0.00000000E+00  0.00000000E+00
  0.00000000E+00  0.00000000E+00  0.00000000E+00
  0.00000000E+00  0.00000000E+00  0.00000000E+00
  0.00000000E+00  0.00000000E+00  0.00000000E+00
  0.00000000E+00  0.00000000E+00  0.00000000E+00
  0.00000000E+00  0.00000000E+00  0.00000000E+00
  0.00000000E+00  0.00000000E+00  0.00000000E+00
  0.00000000E+00  0.00000000E+00  0.00000000E+00
  0.00000000E+00  0.00000000E+00  0.00000000E+00
  0.00000000E+00  0.00000000E+00  0.00000000E+00
  0.00000000E+00  0.00000000E+00  0.00000000E+00
  0.00000000E+00  0.00000000E+00  0.00000000E+00
  0.00000000E+00  0.00000000E+00  0.00000000E+00
  0.00000000E+00  0.00000000E+00  0.00000000E+00
  0.00000000E+00  0.00000000E+00  0.00000000E+00
  0.00000000E+00  0.00000000E+00  0.00000000E+00
  0.00000000E+00  0.00000000E+00  0.00000000E+00
  0.00000000E+00  0.00000000E+00  0.00000000E+00
  0.00000000E+00  0.00000000E+00  0.00000000E+00
  0.00000000E+00  0.00000000E+00  0.00000000E+00
  0.00000000E+00  0.00000000E+00  0.00000000E+00
  0.00000000E+00  0.00000000E+00  0.00000000E+00
  0.00000000E+00  0.00000000E+00  0.00000000E+00
  0.00000000E+00  0.00000000E+00  0.00000000E+00
  0.00000000E+00  0.00000000E+00  0.00000000E+00
  0.00000000E+00  0.00000000E+00  0.00000000E+00
  0.00000000E+00  0.00000000E+00  0.00000000E+00
  0.00000000E+00  0.00000000E+00  0.00000000E+00
  0.00000000E+00  0.00000000E+00  0.00000000E+00
  0.00000000E+00  0.00000000E+00  0.00000000E+00
  0.00000000E+00  0.00000000E+00  0.00000000E+00
  0.00000000E+00  0.00000000E+00  0.00000000E+00
  0.00000000E+00  0.00000000E+00  0.00000000E+00
  0.00000000E+00  0.00000000E+00  0.00000000E+00
