La O  C  H                              
   1.00000000000000     
    29.0000000000000000    0.0000000000000000    0.0000000000000000
     0.0000000000000000   29.0000000000000000    0.0000000000000000
     0.0000000000000000    0.0000000000000000   29.0000000000000000
   La   O    C    H 
    68     2     1     1
Selective dynamics
Direct
  0.5079009688126468  0.4975921410734768  0.6884155872637145   T   T   T
  0.3829544722768574  0.6696103167794454  0.3983055310113942   T   T   T
  0.3639614991017522  0.5867961364840932  0.4606474188621438   T   T   T
  0.5847735850602547  0.4395563749397482  0.4024863989397502   F   F   F
  0.4413263949397503  0.4395563749397482  0.5459335890602546   F   F   F
  0.6595124044916982  0.5678502973663150  0.4744851422271716   T   T   T
  0.4460389399814988  0.5237735307816717  0.3265904590423884   T   T   T
  0.4307233899652124  0.3630119764545219  0.4677882598351082   T   T   T
  0.5770766911468523  0.5119663791078496  0.6208007017041121   T   T   T
  0.3554808433741792  0.4485830056132235  0.6064535804422257   T   T   T
  0.5156054369165064  0.6546795057231952  0.5374842577535280   T   T   T
  0.5911463166196206  0.3481749675378021  0.3555497941074986   T   T   T
  0.4324144948909789  0.6618631823169233  0.4836890952145444   T   T   T
  0.4375054659952815  0.6356523649228047  0.3168908004347644   T   T   T
  0.6621625452554643  0.5110545281903662  0.5615486026492146   T   T   T
  0.6363506031880162  0.5906974798121696  0.3134824429280375   T   T   T
  0.6838879645090514  0.3981301227335638  0.5451013969612805   T   T   T
  0.5130500200000014  0.4385212377386409  0.4742099939999989   F   F   F
  0.3592607875558638  0.4308403963610136  0.4943715458552173   T   T   T
  0.5130500200000014  0.5840387622613576  0.4742099939999989   F   F   F
  0.5130500200000014  0.5112799999999993  0.5469687262613618   F   F   F
  0.4380382603571663  0.6750570867191922  0.5952907574236606   T   T   T
  0.5858087222613619  0.5112799999999993  0.4742099939999989   F   F   F
  0.4989633853831861  0.3617651958069440  0.5475731943908927   T   T   T
  0.2971265204962366  0.5026721344730235  0.4653676399239982   T   T   T
  0.3650267642538530  0.5220699515163835  0.5418256281035192   T   T   T
  0.5159815745127921  0.5098922184798307  0.2586354810688439   T   T   T
  0.3924878256720744  0.4423774438997773  0.3134520603630583   T   T   T
  0.6314097194687013  0.4325314263102876  0.3108701988184852   T   T   T
  0.6627352969021940  0.5121345364116102  0.3862950719939655   T   T   T
  0.4413263949397503  0.4395563749397482  0.4024863989397502   F   F   F
  0.4413263949397503  0.5830036250602504  0.4024863989397502   F   F   F
  0.5847735850602547  0.5830036250602504  0.4024863989397502   F   F   F
  0.5026928743310007  0.6593314882034564  0.4063782938034697   T   T   T
  0.5287484617923477  0.7266212060805632  0.4749215349428585   T   T   T
  0.3469013549329814  0.6349897023541415  0.5440178736227312   T   T   T
  0.6620283840670050  0.4563911086808131  0.4726459195037224   T   T   T
  0.3458807041292661  0.3975898609069944  0.4009338827936876   T   T   T
  0.3526017093213478  0.5792740057410910  0.3470060191524305   T   T   T
  0.4402383083089584  0.3985987314513653  0.6431151615778695   T   T   T
  0.6388757156122694  0.4319202174670183  0.6339949111532355   T   T   T
  0.5847735850602547  0.5830036250602504  0.5459335890602546   F   F   F
  0.5099465068697875  0.4285684358345775  0.3289236640717424   T   T   T
  0.5130500200000014  0.5112799999999993  0.4014512617386430   F   F   F
  0.6815535348744384  0.6293330821988651  0.5434911529330847   T   T   T
  0.5123955561408255  0.5925683738129457  0.6223191617954327   T   T   T
  0.4413263949397503  0.5830036250602504  0.5459335890602546   F   F   F
  0.4449257157854046  0.5049875059830254  0.6174124477513291   T   T   T
  0.5770985413751586  0.5115946873024426  0.3302322107449854   T   T   T
  0.6781165637500493  0.3944508645661354  0.3996256084284048   T   T   T
  0.5847735850602547  0.4395563749397482  0.5459335890602546   F   F   F
  0.3877504970169103  0.5823506745210305  0.6357805939300655   T   T   T
  0.5302123668556868  0.2992284317631074  0.4796552210316358   T   T   T
  0.6356760720497180  0.5905829012004216  0.6334441052219587   T   T   T
  0.3887189167225362  0.3562245422744927  0.5622664870377769   T   T   T
  0.5264496379869696  0.5981468132699596  0.3246627159857539   T   T   T
  0.6817245403365213  0.6263904473601422  0.4030121355073219   T   T   T
  0.5922893684353064  0.6749990709687776  0.3643707255939204   T   T   T
  0.6021947777687362  0.3691147828373643  0.4742934311074880   T   T   T
  0.4402912577386431  0.5112799999999993  0.4742099939999989   F   F   F
  0.6005572449920887  0.6559995483716989  0.4727555333647665   T   T   T
  0.5947796465629185  0.6751657207954938  0.5892461121456152   T   T   T
  0.5145875148795405  0.3648211011445873  0.4129793837274816   T   T   T
  0.4333462970952034  0.3521382469194853  0.3544469649480337   T   T   T
  0.5949270975641960  0.3486919775281617  0.5821888141349404   T   T   T
  0.5311854383443341  0.4223232787099264  0.6246554680637941   T   T   T
  0.7400881367836863  0.5158111653416878  0.4761173241467388   T   T   T
  0.3694220351194961  0.5019673612597739  0.4029269913124836   T   T   T
  0.3540480149333678  0.6332419887152057  0.6875610463004886   T   T   T
  0.3561403123524754  0.6693320149049986  0.6160482976350329   T   T   T
  0.3741606045610652  0.6649116952547925  0.6611458472401788   T   T   T
  0.3832307103495524  0.6983822736304939  0.6771039723128573   T   T   T
 
  0.00000000E+00  0.00000000E+00  0.00000000E+00
  0.00000000E+00  0.00000000E+00  0.00000000E+00
  0.00000000E+00  0.00000000E+00  0.00000000E+00
  0.00000000E+00  0.00000000E+00  0.00000000E+00
  0.00000000E+00  0.00000000E+00  0.00000000E+00
  0.00000000E+00  0.00000000E+00  0.00000000E+00
  0.00000000E+00  0.00000000E+00  0.00000000E+00
  0.00000000E+00  0.00000000E+00  0.00000000E+00
  0.00000000E+00  0.00000000E+00  0.00000000E+00
  0.00000000E+00  0.00000000E+00  0.00000000E+00
  0.00000000E+00  0.00000000E+00  0.00000000E+00
  0.00000000E+00  0.00000000E+00  0.00000000E+00
  0.00000000E+00  0.00000000E+00  0.00000000E+00
  0.00000000E+00  0.00000000E+00  0.00000000E+00
  0.00000000E+00  0.00000000E+00  0.00000000E+00
  0.00000000E+00  0.00000000E+00  0.00000000E+00
  0.00000000E+00  0.00000000E+00  0.00000000E+00
  0.00000000E+00  0.00000000E+00  0.00000000E+00
  0.00000000E+00  0.00000000E+00  0.00000000E+00
  0.00000000E+00  0.00000000E+00  0.00000000E+00
  0.00000000E+00  0.00000000E+00  0.00000000E+00
  0.00000000E+00  0.00000000E+00  0.00000000E+00
  0.00000000E+00  0.00000000E+00  0.00000000E+00
  0.00000000E+00  0.00000000E+00  0.00000000E+00
  0.00000000E+00  0.00000000E+00  0.00000000E+00
  0.00000000E+00  0.00000000E+00  0.00000000E+00
  0.00000000E+00  0.00000000E+00  0.00000000E+00
  0.00000000E+00  0.00000000E+00  0.00000000E+00
  0.00000000E+00  0.00000000E+00  0.00000000E+00
  0.00000000E+00  0.00000000E+00  0.00000000E+00
  0.00000000E+00  0.00000000E+00  0.00000000E+00
  0.00000000E+00  0.00000000E+00  0.00000000E+00
  0.00000000E+00  0.00000000E+00  0.00000000E+00
  0.00000000E+00  0.00000000E+00  0.00000000E+00
  0.00000000E+00  0.00000000E+00  0.00000000E+00
  0.00000000E+00  0.00000000E+00  0.00000000E+00
  0.00000000E+00  0.00000000E+00  0.00000000E+00
  0.00000000E+00  0.00000000E+00  0.00000000E+00
  0.00000000E+00  0.00000000E+00  0.00000000E+00
  0.00000000E+00  0.00000000E+00  0.00000000E+00
  0.00000000E+00  0.00000000E+00  0.00000000E+00
  0.00000000E+00  0.00000000E+00  0.00000000E+00
  0.00000000E+00  0.00000000E+00  0.00000000E+00
  0.00000000E+00  0.00000000E+00  0.00000000E+00
  0.00000000E+00  0.00000000E+00  0.00000000E+00
  0.00000000E+00  0.00000000E+00  0.00000000E+00
  0.00000000E+00  0.00000000E+00  0.00000000E+00
  0.00000000E+00  0.00000000E+00  0.00000000E+00
  0.00000000E+00  0.00000000E+00  0.00000000E+00
  0.00000000E+00  0.00000000E+00  0.00000000E+00
  0.00000000E+00  0.00000000E+00  0.00000000E+00
  0.00000000E+00  0.00000000E+00  0.00000000E+00
  0.00000000E+00  0.00000000E+00  0.00000000E+00
  0.00000000E+00  0.00000000E+00  0.00000000E+00
  0.00000000E+00  0.00000000E+00  0.00000000E+00
  0.00000000E+00  0.00000000E+00  0.00000000E+00
  0.00000000E+00  0.00000000E+00  0.00000000E+00
  0.00000000E+00  0.00000000E+00  0.00000000E+00
  0.00000000E+00  0.00000000E+00  0.00000000E+00
  0.00000000E+00  0.00000000E+00  0.00000000E+00
  0.00000000E+00  0.00000000E+00  0.00000000E+00
  0.00000000E+00  0.00000000E+00  0.00000000E+00
  0.00000000E+00  0.00000000E+00  0.00000000E+00
  0.00000000E+00  0.00000000E+00  0.00000000E+00
  0.00000000E+00  0.00000000E+00  0.00000000E+00
  0.00000000E+00  0.00000000E+00  0.00000000E+00
  0.00000000E+00  0.00000000E+00  0.00000000E+00
  0.00000000E+00  0.00000000E+00  0.00000000E+00
  0.00000000E+00  0.00000000E+00  0.00000000E+00
  0.00000000E+00  0.00000000E+00  0.00000000E+00
  0.00000000E+00  0.00000000E+00  0.00000000E+00
  0.00000000E+00  0.00000000E+00  0.00000000E+00
