La O  C  H                              
   1.00000000000000     
    29.0000000000000000    0.0000000000000000    0.0000000000000000
     0.0000000000000000   29.0000000000000000    0.0000000000000000
     0.0000000000000000    0.0000000000000000   29.0000000000000000
   La   O    C    H 
    68     2     1     1
Selective dynamics
Direct
  0.5125187152859702  0.5070619644740006  0.6952245156615438   T   T   T
  0.3469977224545812  0.6275069418779012  0.3983133212986644   T   T   T
  0.3690551357943900  0.5727680438494975  0.4750403517723455   T   T   T
  0.5847735850602547  0.4395563749397482  0.4024863989397502   F   F   F
  0.4413263949397503  0.4395563749397482  0.5459335890602546   F   F   F
  0.6581707905063443  0.5713701482153281  0.4758346425513457   T   T   T
  0.4523965844766928  0.5118857974543534  0.3285577745990758   T   T   T
  0.4251432887045333  0.3645036737547039  0.4742789414222009   T   T   T
  0.5732396704657153  0.5123806654401214  0.6202029071981067   T   T   T
  0.3981483788547408  0.4335403906031838  0.6406292204508339   T   T   T
  0.5134348220595933  0.6553172045730304  0.5332822081532317   T   T   T
  0.5920975177338667  0.3479992217382016  0.3575675931023266   T   T   T
  0.4263460888626338  0.6623917239567937  0.4756528762512161   T   T   T
  0.4346303222011741  0.6757636500425059  0.3594857850803838   T   T   T
  0.6602034844066336  0.5109335958016039  0.5625546418371261   T   T   T
  0.6304592860952968  0.5876774738915406  0.3090760839078575   T   T   T
  0.6771249039432038  0.3942617454773816  0.5520369667602553   T   T   T
  0.5130500200000014  0.4385212377386409  0.4742099939999989   F   F   F
  0.3670385910711740  0.4512072259130968  0.4747914692484340   T   T   T
  0.5130500200000014  0.5840387622613576  0.4742099939999989   F   F   F
  0.5130500200000014  0.5112799999999993  0.5469687262613618   F   F   F
  0.4366041993390239  0.6756058159222452  0.5903616316081918   T   T   T
  0.5858087222613619  0.5112799999999993  0.4742099939999989   F   F   F
  0.5129153088326605  0.3654538291168640  0.5344613455802765   T   T   T
  0.2934910685610866  0.5141876323553437  0.4732242034615844   T   T   T
  0.3659037754769791  0.5106179897924387  0.5624109511543709   T   T   T
  0.5131470013924334  0.5145269812493570  0.2542648715345524   T   T   T
  0.3958208388006166  0.4348645473434566  0.3093888628212265   T   T   T
  0.6309563662771337  0.4357229772208796  0.3094152009761392   T   T   T
  0.6597214835371599  0.5115630803742615  0.3866862216850820   T   T   T
  0.4413263949397503  0.4395563749397482  0.4024863989397502   F   F   F
  0.4413263949397503  0.5830036250602504  0.4024863989397502   F   F   F
  0.5847735850602547  0.5830036250602504  0.4024863989397502   F   F   F
  0.5134880884861343  0.6614098295276303  0.4186245645323229   T   T   T
  0.5285553302437821  0.7429379852368337  0.4994225503069169   T   T   T
  0.3472408347683532  0.6280951196630550  0.5517801159486161   T   T   T
  0.6591547734097714  0.4513986368074973  0.4747596863348836   T   T   T
  0.3476971554824976  0.3950507324227007  0.3971668699648843   T   T   T
  0.3957626802284360  0.5890983743702179  0.3097791041447698   T   T   T
  0.4362227874733676  0.3469193990010339  0.5915158303766955   T   T   T
  0.6277526183436261  0.4329405426593151  0.6397601381181293   T   T   T
  0.5847735850602547  0.5830036250602504  0.5459335890602546   F   F   F
  0.5129286809733328  0.4238646089840417  0.3269940022960551   T   T   T
  0.5130500200000014  0.5112799999999993  0.4014512617386430   F   F   F
  0.6806252390090803  0.6324358313854490  0.5499235293262502   T   T   T
  0.5129898838741310  0.5991415116621799  0.6204678095120142   T   T   T
  0.4413263949397503  0.5830036250602504  0.5459335890602546   F   F   F
  0.4531654481357722  0.5117098649293008  0.6200373155797018   T   T   T
  0.5731149949839082  0.5114343040705187  0.3283160588860525   T   T   T
  0.6793880453469172  0.3959864182964970  0.3973212898099889   T   T   T
  0.5847735850602547  0.4395563749397482  0.5459335890602546   F   F   F
  0.3959765538211246  0.5889309947040965  0.6388641304553928   T   T   T
  0.5138638143982843  0.2910556908875293  0.4745399844754892   T   T   T
  0.6292282624091916  0.5935067219896181  0.6355254710290517   T   T   T
  0.3489306690217624  0.3945723659159358  0.5528254478212986   T   T   T
  0.5132773677675954  0.6012952928536314  0.3306197177643570   T   T   T
  0.6798225918209482  0.6252740977148267  0.3974601572690600   T   T   T
  0.5924226398705783  0.6737337295340696  0.3588470968447529   T   T   T
  0.6013003193806508  0.3644893177540210  0.4742646007308588   T   T   T
  0.4402912577386431  0.5112799999999993  0.4742099939999989   F   F   F
  0.6029032441190421  0.6605303045328945  0.4723871038115173   T   T   T
  0.5863977637749145  0.6839656335983784  0.5907201950753349   T   T   T
  0.5129703723106807  0.3653959591391090  0.4134132234317900   T   T   T
  0.4343119317239322  0.3474626917242194  0.3575400236701710   T   T   T
  0.5895627417570232  0.3461138735774001  0.5908315970999946   T   T   T
  0.5133578911206889  0.4228444818219757  0.6217198580240967   T   T   T
  0.7336835658700021  0.5117565965049879  0.4694436223396383   T   T   T
  0.3662859188910975  0.5115755447364644  0.3871759267890355   T   T   T
  0.6459898620700573  0.7047928175292699  0.5375219494228756   T   T   T
  0.6046877720563768  0.7463447417567052  0.4818529627105241   T   T   T
  0.6153692566257312  0.7428284803310572  0.5290430875812281   T   T   T
  0.6321165233377111  0.7746329160944522  0.5418135480078846   T   T   T
 
  0.00000000E+00  0.00000000E+00  0.00000000E+00
  0.00000000E+00  0.00000000E+00  0.00000000E+00
  0.00000000E+00  0.00000000E+00  0.00000000E+00
  0.00000000E+00  0.00000000E+00  0.00000000E+00
  0.00000000E+00  0.00000000E+00  0.00000000E+00
  0.00000000E+00  0.00000000E+00  0.00000000E+00
  0.00000000E+00  0.00000000E+00  0.00000000E+00
  0.00000000E+00  0.00000000E+00  0.00000000E+00
  0.00000000E+00  0.00000000E+00  0.00000000E+00
  0.00000000E+00  0.00000000E+00  0.00000000E+00
  0.00000000E+00  0.00000000E+00  0.00000000E+00
  0.00000000E+00  0.00000000E+00  0.00000000E+00
  0.00000000E+00  0.00000000E+00  0.00000000E+00
  0.00000000E+00  0.00000000E+00  0.00000000E+00
  0.00000000E+00  0.00000000E+00  0.00000000E+00
  0.00000000E+00  0.00000000E+00  0.00000000E+00
  0.00000000E+00  0.00000000E+00  0.00000000E+00
  0.00000000E+00  0.00000000E+00  0.00000000E+00
  0.00000000E+00  0.00000000E+00  0.00000000E+00
  0.00000000E+00  0.00000000E+00  0.00000000E+00
  0.00000000E+00  0.00000000E+00  0.00000000E+00
  0.00000000E+00  0.00000000E+00  0.00000000E+00
  0.00000000E+00  0.00000000E+00  0.00000000E+00
  0.00000000E+00  0.00000000E+00  0.00000000E+00
  0.00000000E+00  0.00000000E+00  0.00000000E+00
  0.00000000E+00  0.00000000E+00  0.00000000E+00
  0.00000000E+00  0.00000000E+00  0.00000000E+00
  0.00000000E+00  0.00000000E+00  0.00000000E+00
  0.00000000E+00  0.00000000E+00  0.00000000E+00
  0.00000000E+00  0.00000000E+00  0.00000000E+00
  0.00000000E+00  0.00000000E+00  0.00000000E+00
  0.00000000E+00  0.00000000E+00  0.00000000E+00
  0.00000000E+00  0.00000000E+00  0.00000000E+00
  0.00000000E+00  0.00000000E+00  0.00000000E+00
  0.00000000E+00  0.00000000E+00  0.00000000E+00
  0.00000000E+00  0.00000000E+00  0.00000000E+00
  0.00000000E+00  0.00000000E+00  0.00000000E+00
  0.00000000E+00  0.00000000E+00  0.00000000E+00
  0.00000000E+00  0.00000000E+00  0.00000000E+00
  0.00000000E+00  0.00000000E+00  0.00000000E+00
  0.00000000E+00  0.00000000E+00  0.00000000E+00
  0.00000000E+00  0.00000000E+00  0.00000000E+00
  0.00000000E+00  0.00000000E+00  0.00000000E+00
  0.00000000E+00  0.00000000E+00  0.00000000E+00
  0.00000000E+00  0.00000000E+00  0.00000000E+00
  0.00000000E+00  0.00000000E+00  0.00000000E+00
  0.00000000E+00  0.00000000E+00  0.00000000E+00
  0.00000000E+00  0.00000000E+00  0.00000000E+00
  0.00000000E+00  0.00000000E+00  0.00000000E+00
  0.00000000E+00  0.00000000E+00  0.00000000E+00
  0.00000000E+00  0.00000000E+00  0.00000000E+00
  0.00000000E+00  0.00000000E+00  0.00000000E+00
  0.00000000E+00  0.00000000E+00  0.00000000E+00
  0.00000000E+00  0.00000000E+00  0.00000000E+00
  0.00000000E+00  0.00000000E+00  0.00000000E+00
  0.00000000E+00  0.00000000E+00  0.00000000E+00
  0.00000000E+00  0.00000000E+00  0.00000000E+00
  0.00000000E+00  0.00000000E+00  0.00000000E+00
  0.00000000E+00  0.00000000E+00  0.00000000E+00
  0.00000000E+00  0.00000000E+00  0.00000000E+00
  0.00000000E+00  0.00000000E+00  0.00000000E+00
  0.00000000E+00  0.00000000E+00  0.00000000E+00
  0.00000000E+00  0.00000000E+00  0.00000000E+00
  0.00000000E+00  0.00000000E+00  0.00000000E+00
  0.00000000E+00  0.00000000E+00  0.00000000E+00
  0.00000000E+00  0.00000000E+00  0.00000000E+00
  0.00000000E+00  0.00000000E+00  0.00000000E+00
  0.00000000E+00  0.00000000E+00  0.00000000E+00
  0.00000000E+00  0.00000000E+00  0.00000000E+00
  0.00000000E+00  0.00000000E+00  0.00000000E+00
  0.00000000E+00  0.00000000E+00  0.00000000E+00
  0.00000000E+00  0.00000000E+00  0.00000000E+00
