Co O  C  H                              
   1.00000000000000     
    29.0000000000000000    0.0000000000000000    0.0000000000000000
     0.0000000000000000   29.0000000000000000    0.0000000000000000
     0.0000000000000000    0.0000000000000000   29.0000000000000000
   Co   O    C    H 
    68     2     1     1
Selective dynamics
Direct
  0.5233077485775741  0.4837336016908578  0.6899414611918240   T   T   T
  0.3957409653102829  0.5796653698418383  0.4601569997460703   T   T   T
  0.4049745936940449  0.5454074185066727  0.5289347348490274   T   T   T
  0.5782761563691210  0.4268116521524590  0.4635435472142291   F   F   F
  0.4641638116308826  0.4268116521524590  0.5772364307857742   F   F   F
  0.6401983449894935  0.5430580432746535  0.5093062097939758   T   T   T
  0.4622928121923393  0.4737016123134919  0.4022832310148816   T   T   T
  0.4619010537307072  0.3651655560723650  0.5307674900435495   T   T   T
  0.5805650100051090  0.4744052229677667  0.6380267280524456   T   T   T
  0.4279884421521945  0.4262328308596656  0.6475955864877664   T   T   T
  0.5107530968840678  0.6031912192079386  0.5792711327577098   T   T   T
  0.5794859651726568  0.3575438642513690  0.4261859389833054   T   T   T
  0.4632435948635542  0.6042524039338791  0.5083738033648200   T   T   T
  0.4642761527591110  0.6099984702397921  0.4233885183541051   T   T   T
  0.6400217378519665  0.4950958001595583  0.5788723046338333   T   T   T
  0.6471047629990631  0.5418757424985462  0.4246469993827558   T   T   T
  0.6163235526468160  0.3579809341409284  0.5791408772780348   T   T   T
  0.5212200280000019  0.4252660896114264  0.5203899739999969   F   F   F
  0.4030908103124044  0.4251784616090997  0.5107841110001174   T   T   T
  0.5212200280000019  0.5427717147372562  0.5203899739999969   F   F   F
  0.5212200280000019  0.4841535664240482  0.5783626638499726   F   F   F
  0.4637236333063398  0.5781332545446243  0.6462489488759263   T   T   T
  0.5798513084913353  0.4841330892939268  0.5203899739999969   F   F   F
  0.5314584566846793  0.3653488062823939  0.5797318524244026   T   T   T
  0.3532229831367519  0.4867759283143097  0.5259866363181315   T   T   T
  0.4039958436729377  0.4750971434459367  0.5808217422471657   T   T   T
  0.5209893693174744  0.4839729356951912  0.3514106152759282   T   T   T
  0.3955608856971036  0.4260748353867907  0.4249849615493754   T   T   T
  0.6159747883833221  0.4256605396914626  0.3945207709637420   T   T   T
  0.6397404907190786  0.4735169366191833  0.4615680489156619   T   T   T
  0.4641638116308826  0.4268116521524590  0.4635435472142291   F   F   F
  0.4642268120283362  0.5414337674016210  0.4634884080096526   F   F   F
  0.5782131559716674  0.5414337674016210  0.4634884080096526   F   F   F
  0.5321220706955104  0.6034079291121920  0.4612994010253632   T   T   T
  0.5223162910655359  0.6544222694096653  0.5207318947835980   T   T   T
  0.4286095366088810  0.6105910828553877  0.5781253669416097   T   T   T
  0.6401742304639694  0.4249520367738239  0.5310207811757551   T   T   T
  0.4258129695153944  0.3580583342174010  0.4620892175625527   T   T   T
  0.4266808776741624  0.5417568728893374  0.3936173354341301   T   T   T
  0.4627276638816890  0.3576297916695270  0.6151901479510125   T   T   T
  0.6477956725951607  0.4266024802383103  0.6151030367698839   T   T   T
  0.5782131559716674  0.5414337674016210  0.5772915699903507   F   F   F
  0.5314483541916123  0.4250795678706383  0.4024566956732589   T   T   T
  0.5212200280000019  0.4841535664240482  0.4624173141500307   F   F   F
  0.6473491375804197  0.5796878510508464  0.5776677748109237   T   T   T
  0.5324406494194011  0.5437831024886502  0.6391563488558962   T   T   T
  0.4642268120283362  0.5414337674016210  0.5772915699903507   F   F   F
  0.4643756465743764  0.4946201916166496  0.6393747370337499   T   T   T
  0.5800715316004054  0.4943405495093867  0.4021774193230341   T   T   T
  0.6475303163922451  0.3888906345320556  0.4626168691869122   T   T   T
  0.5782761563691210  0.4268116521524590  0.5772364307857742   F   F   F
  0.3889250978150981  0.5395076194084529  0.6155484902183631   T   T   T
  0.5213023918731514  0.3143694112648674  0.5206314532161171   T   T   T
  0.6170878817957420  0.5426886701551407  0.6460677065557160   T   T   T
  0.3958924416093146  0.3884878879971255  0.5793381470522851   T   T   T
  0.5112763886240898  0.5430573265634332  0.4018936339720239   T   T   T
  0.6167830677516762  0.6102105305373527  0.4620450796787408   T   T   T
  0.5793921294256441  0.5793322212240296  0.3939885660249318   T   T   T
  0.5801521846621729  0.3652807903901708  0.5104382398066302   T   T   T
  0.4625886595086683  0.4841330892939268  0.5203899739999969   F   F   F
  0.5802848498007661  0.6027893957495650  0.5304565689928833   T   T   T
  0.5795060313538978  0.6107877510590916  0.6150674250686550   T   T   T
  0.5106365440823207  0.3649667390123574  0.4615267953476871   T   T   T
  0.4634988275826025  0.3888042127547854  0.3943740052082441   T   T   T
  0.5799567945858978  0.3902005717177364  0.6469853226222135   T   T   T
  0.5112557386238640  0.4251882959376107  0.6388247262344985   T   T   T
  0.6908820849253163  0.4836822689716683  0.5201578996867161   T   T   T
  0.4029825690845111  0.4941566175789158  0.4619781275426557   T   T   T
  0.2986526394928211  0.4947334069757121  0.5604411850959505   T   T   T
  0.3237894099680109  0.5318567770454361  0.6259693182369298   T   T   T
  0.2936918654563525  0.5123328689030264  0.6005745777229379   T   T   T
  0.2584827081953024  0.5100521818536564  0.6150918838943770   T   T   T
 
  0.00000000E+00  0.00000000E+00  0.00000000E+00
  0.00000000E+00  0.00000000E+00  0.00000000E+00
  0.00000000E+00  0.00000000E+00  0.00000000E+00
  0.00000000E+00  0.00000000E+00  0.00000000E+00
  0.00000000E+00  0.00000000E+00  0.00000000E+00
  0.00000000E+00  0.00000000E+00  0.00000000E+00
  0.00000000E+00  0.00000000E+00  0.00000000E+00
  0.00000000E+00  0.00000000E+00  0.00000000E+00
  0.00000000E+00  0.00000000E+00  0.00000000E+00
  0.00000000E+00  0.00000000E+00  0.00000000E+00
  0.00000000E+00  0.00000000E+00  0.00000000E+00
  0.00000000E+00  0.00000000E+00  0.00000000E+00
  0.00000000E+00  0.00000000E+00  0.00000000E+00
  0.00000000E+00  0.00000000E+00  0.00000000E+00
  0.00000000E+00  0.00000000E+00  0.00000000E+00
  0.00000000E+00  0.00000000E+00  0.00000000E+00
  0.00000000E+00  0.00000000E+00  0.00000000E+00
  0.00000000E+00  0.00000000E+00  0.00000000E+00
  0.00000000E+00  0.00000000E+00  0.00000000E+00
  0.00000000E+00  0.00000000E+00  0.00000000E+00
  0.00000000E+00  0.00000000E+00  0.00000000E+00
  0.00000000E+00  0.00000000E+00  0.00000000E+00
  0.00000000E+00  0.00000000E+00  0.00000000E+00
  0.00000000E+00  0.00000000E+00  0.00000000E+00
  0.00000000E+00  0.00000000E+00  0.00000000E+00
  0.00000000E+00  0.00000000E+00  0.00000000E+00
  0.00000000E+00  0.00000000E+00  0.00000000E+00
  0.00000000E+00  0.00000000E+00  0.00000000E+00
  0.00000000E+00  0.00000000E+00  0.00000000E+00
  0.00000000E+00  0.00000000E+00  0.00000000E+00
  0.00000000E+00  0.00000000E+00  0.00000000E+00
  0.00000000E+00  0.00000000E+00  0.00000000E+00
  0.00000000E+00  0.00000000E+00  0.00000000E+00
  0.00000000E+00  0.00000000E+00  0.00000000E+00
  0.00000000E+00  0.00000000E+00  0.00000000E+00
  0.00000000E+00  0.00000000E+00  0.00000000E+00
  0.00000000E+00  0.00000000E+00  0.00000000E+00
  0.00000000E+00  0.00000000E+00  0.00000000E+00
  0.00000000E+00  0.00000000E+00  0.00000000E+00
  0.00000000E+00  0.00000000E+00  0.00000000E+00
  0.00000000E+00  0.00000000E+00  0.00000000E+00
  0.00000000E+00  0.00000000E+00  0.00000000E+00
  0.00000000E+00  0.00000000E+00  0.00000000E+00
  0.00000000E+00  0.00000000E+00  0.00000000E+00
  0.00000000E+00  0.00000000E+00  0.00000000E+00
  0.00000000E+00  0.00000000E+00  0.00000000E+00
  0.00000000E+00  0.00000000E+00  0.00000000E+00
  0.00000000E+00  0.00000000E+00  0.00000000E+00
  0.00000000E+00  0.00000000E+00  0.00000000E+00
  0.00000000E+00  0.00000000E+00  0.00000000E+00
  0.00000000E+00  0.00000000E+00  0.00000000E+00
  0.00000000E+00  0.00000000E+00  0.00000000E+00
  0.00000000E+00  0.00000000E+00  0.00000000E+00
  0.00000000E+00  0.00000000E+00  0.00000000E+00
  0.00000000E+00  0.00000000E+00  0.00000000E+00
  0.00000000E+00  0.00000000E+00  0.00000000E+00
  0.00000000E+00  0.00000000E+00  0.00000000E+00
  0.00000000E+00  0.00000000E+00  0.00000000E+00
  0.00000000E+00  0.00000000E+00  0.00000000E+00
  0.00000000E+00  0.00000000E+00  0.00000000E+00
  0.00000000E+00  0.00000000E+00  0.00000000E+00
  0.00000000E+00  0.00000000E+00  0.00000000E+00
  0.00000000E+00  0.00000000E+00  0.00000000E+00
  0.00000000E+00  0.00000000E+00  0.00000000E+00
  0.00000000E+00  0.00000000E+00  0.00000000E+00
  0.00000000E+00  0.00000000E+00  0.00000000E+00
  0.00000000E+00  0.00000000E+00  0.00000000E+00
  0.00000000E+00  0.00000000E+00  0.00000000E+00
  0.00000000E+00  0.00000000E+00  0.00000000E+00
  0.00000000E+00  0.00000000E+00  0.00000000E+00
  0.00000000E+00  0.00000000E+00  0.00000000E+00
  0.00000000E+00  0.00000000E+00  0.00000000E+00
