Co O  C  H                              
   1.00000000000000     
    29.0000000000000000    0.0000000000000000    0.0000000000000000
     0.0000000000000000   29.0000000000000000    0.0000000000000000
     0.0000000000000000    0.0000000000000000   29.0000000000000000
   Co   O    C    H 
    68     2     1     1
Selective dynamics
Direct
  0.5217038454643504  0.4834851928586050  0.6897935499778990   T   T   T
  0.3956830645555678  0.5817368556488546  0.4640924101156477   T   T   T
  0.4022798792992564  0.5440189465931639  0.5318641620814540   T   T   T
  0.5782761563691210  0.4268116521524590  0.4635435472142291   F   F   F
  0.4641638116308826  0.4268116521524590  0.5772364307857742   F   F   F
  0.6403895936558082  0.5428769850686505  0.5091397002931408   T   T   T
  0.4608646498310770  0.4766961907777421  0.4051316664134963   T   T   T
  0.4616095844246572  0.3648781797963671  0.5315192618044269   T   T   T
  0.5805878971599768  0.4735297134397347  0.6385454317937322   T   T   T
  0.4264491059338795  0.4265366641377199  0.6465403686133598   T   T   T
  0.5119883544249689  0.6023540084518396  0.5799538036038785   T   T   T
  0.5785456189615017  0.3579685904938207  0.4252278428774589   T   T   T
  0.4626886660534136  0.6031969439541749  0.5109571370402662   T   T   T
  0.4633948370114783  0.6113592965207539  0.4263100758809672   T   T   T
  0.6397432611089132  0.4939498841782988  0.5785250235726529   T   T   T
  0.6469585296126745  0.5417018173094783  0.4243533713869498   T   T   T
  0.6157898228600137  0.3576237881695345  0.5789887337382180   T   T   T
  0.5212200280000019  0.4252660896114264  0.5203899739999969   F   F   F
  0.4026362423162649  0.4257149766387926  0.5104747613319109   T   T   T
  0.5212200280000019  0.5427717147372562  0.5203899739999969   F   F   F
  0.5212200280000019  0.4841535664240482  0.5783626638499726   F   F   F
  0.4644556612689781  0.5793249194662157  0.6471192189789168   T   T   T
  0.5798513084913353  0.4841330892939268  0.5203899739999969   F   F   F
  0.5314577554522666  0.3652775580639884  0.5795965316907049   T   T   T
  0.3516283474970283  0.4843944229240740  0.5220134074241691   T   T   T
  0.4032599560387110  0.4744846121607451  0.5799326223417854   T   T   T
  0.5181375364670422  0.4819900932183545  0.3512532635483070   T   T   T
  0.3940360411914094  0.4275491449645314  0.4276303007416869   T   T   T
  0.6142970896967349  0.4263290150064457  0.3935324908163533   T   T   T
  0.6393418555564389  0.4736564283789434  0.4607674162824784   T   T   T
  0.4641638116308826  0.4268116521524590  0.4635435472142291   F   F   F
  0.4642268120283362  0.5414337674016210  0.4634884080096526   F   F   F
  0.5782131559716674  0.5414337674016210  0.4634884080096526   F   F   F
  0.5318476690885205  0.6032306609342794  0.4615269232025906   T   T   T
  0.5218763067495531  0.6535536805552755  0.5207438184022841   T   T   T
  0.4270797745113196  0.6108283048457269  0.5797495933364377   T   T   T
  0.6395136666057879  0.4242700129233665  0.5298730803446059   T   T   T
  0.4249797732395286  0.3589494056875630  0.4632811815602135   T   T   T
  0.4250750306066557  0.5447919787144151  0.3952268721326178   T   T   T
  0.4625312915653704  0.3579396909597596  0.6155475249523832   T   T   T
  0.6474760350830507  0.4256817770573895  0.6150130230514333   T   T   T
  0.5782131559716674  0.5414337674016210  0.5772915699903507   F   F   F
  0.5296935788984698  0.4247147801252290  0.4039126452382085   T   T   T
  0.5212200280000019  0.4841535664240482  0.4624173141500307   F   F   F
  0.6481588662377508  0.5785574106682083  0.5776978914160402   T   T   T
  0.5328467973901814  0.5428500449573499  0.6394144537814730   T   T   T
  0.4642268120283362  0.5414337674016210  0.5772915699903507   F   F   F
  0.4628911134658085  0.4950014484323522  0.6390246625650211   T   T   T
  0.5787078470196098  0.4948602403741159  0.4012465097411629   T   T   T
  0.6470447553852372  0.3890044061622030  0.4608869363512476   T   T   T
  0.5782761563691210  0.4268116521524590  0.5772364307857742   F   F   F
  0.3959552055308627  0.5426952833159492  0.6169713175359798   T   T   T
  0.5209357472585211  0.3139788389028486  0.5216326958638540   T   T   T
  0.6184189271160279  0.5411814881881792  0.6454898223205873   T   T   T
  0.3946171630176646  0.3897376171859545  0.5788650565211511   T   T   T
  0.5106231605676325  0.5434900581433201  0.4017076069638382   T   T   T
  0.6169161907090331  0.6100357093123725  0.4618758769586406   T   T   T
  0.5793647413116552  0.5794244859786336  0.3942052587560311   T   T   T
  0.5799826264380556  0.3648783967203439  0.5099426066398520   T   T   T
  0.4625886595086683  0.4841330892939268  0.5203899739999969   F   F   F
  0.5807798275030283  0.6023965028944637  0.5304138041519131   T   T   T
  0.5809976210281553  0.6097834155462653  0.6157550252453362   T   T   T
  0.5100240625523222  0.3644644018935776  0.4626042613565723   T   T   T
  0.4609070031388928  0.3899838284801369  0.3883530653598213   T   T   T
  0.5793875781992186  0.3893290754690066  0.6468339980945613   T   T   T
  0.5110216496147255  0.4252332316360508  0.6386260765458702   T   T   T
  0.6904656327638042  0.4831407462678743  0.5197196018005109   T   T   T
  0.4010850460729221  0.4965996524968727  0.4626451331339273   T   T   T
  0.4580751621441316  0.3875070833575348  0.3209756430984747   T   T   T
  0.4973659735739589  0.4514676958923755  0.2954840076619332   T   T   T
  0.4731566665170142  0.4152227791555935  0.2903782905818976   T   T   T
  0.4639076499070076  0.4064641560454254  0.2544114519896751   T   T   T
 
  0.00000000E+00  0.00000000E+00  0.00000000E+00
  0.00000000E+00  0.00000000E+00  0.00000000E+00
  0.00000000E+00  0.00000000E+00  0.00000000E+00
  0.00000000E+00  0.00000000E+00  0.00000000E+00
  0.00000000E+00  0.00000000E+00  0.00000000E+00
  0.00000000E+00  0.00000000E+00  0.00000000E+00
  0.00000000E+00  0.00000000E+00  0.00000000E+00
  0.00000000E+00  0.00000000E+00  0.00000000E+00
  0.00000000E+00  0.00000000E+00  0.00000000E+00
  0.00000000E+00  0.00000000E+00  0.00000000E+00
  0.00000000E+00  0.00000000E+00  0.00000000E+00
  0.00000000E+00  0.00000000E+00  0.00000000E+00
  0.00000000E+00  0.00000000E+00  0.00000000E+00
  0.00000000E+00  0.00000000E+00  0.00000000E+00
  0.00000000E+00  0.00000000E+00  0.00000000E+00
  0.00000000E+00  0.00000000E+00  0.00000000E+00
  0.00000000E+00  0.00000000E+00  0.00000000E+00
  0.00000000E+00  0.00000000E+00  0.00000000E+00
  0.00000000E+00  0.00000000E+00  0.00000000E+00
  0.00000000E+00  0.00000000E+00  0.00000000E+00
  0.00000000E+00  0.00000000E+00  0.00000000E+00
  0.00000000E+00  0.00000000E+00  0.00000000E+00
  0.00000000E+00  0.00000000E+00  0.00000000E+00
  0.00000000E+00  0.00000000E+00  0.00000000E+00
  0.00000000E+00  0.00000000E+00  0.00000000E+00
  0.00000000E+00  0.00000000E+00  0.00000000E+00
  0.00000000E+00  0.00000000E+00  0.00000000E+00
  0.00000000E+00  0.00000000E+00  0.00000000E+00
  0.00000000E+00  0.00000000E+00  0.00000000E+00
  0.00000000E+00  0.00000000E+00  0.00000000E+00
  0.00000000E+00  0.00000000E+00  0.00000000E+00
  0.00000000E+00  0.00000000E+00  0.00000000E+00
  0.00000000E+00  0.00000000E+00  0.00000000E+00
  0.00000000E+00  0.00000000E+00  0.00000000E+00
  0.00000000E+00  0.00000000E+00  0.00000000E+00
  0.00000000E+00  0.00000000E+00  0.00000000E+00
  0.00000000E+00  0.00000000E+00  0.00000000E+00
  0.00000000E+00  0.00000000E+00  0.00000000E+00
  0.00000000E+00  0.00000000E+00  0.00000000E+00
  0.00000000E+00  0.00000000E+00  0.00000000E+00
  0.00000000E+00  0.00000000E+00  0.00000000E+00
  0.00000000E+00  0.00000000E+00  0.00000000E+00
  0.00000000E+00  0.00000000E+00  0.00000000E+00
  0.00000000E+00  0.00000000E+00  0.00000000E+00
  0.00000000E+00  0.00000000E+00  0.00000000E+00
  0.00000000E+00  0.00000000E+00  0.00000000E+00
  0.00000000E+00  0.00000000E+00  0.00000000E+00
  0.00000000E+00  0.00000000E+00  0.00000000E+00
  0.00000000E+00  0.00000000E+00  0.00000000E+00
  0.00000000E+00  0.00000000E+00  0.00000000E+00
  0.00000000E+00  0.00000000E+00  0.00000000E+00
  0.00000000E+00  0.00000000E+00  0.00000000E+00
  0.00000000E+00  0.00000000E+00  0.00000000E+00
  0.00000000E+00  0.00000000E+00  0.00000000E+00
  0.00000000E+00  0.00000000E+00  0.00000000E+00
  0.00000000E+00  0.00000000E+00  0.00000000E+00
  0.00000000E+00  0.00000000E+00  0.00000000E+00
  0.00000000E+00  0.00000000E+00  0.00000000E+00
  0.00000000E+00  0.00000000E+00  0.00000000E+00
  0.00000000E+00  0.00000000E+00  0.00000000E+00
  0.00000000E+00  0.00000000E+00  0.00000000E+00
  0.00000000E+00  0.00000000E+00  0.00000000E+00
  0.00000000E+00  0.00000000E+00  0.00000000E+00
  0.00000000E+00  0.00000000E+00  0.00000000E+00
  0.00000000E+00  0.00000000E+00  0.00000000E+00
  0.00000000E+00  0.00000000E+00  0.00000000E+00
  0.00000000E+00  0.00000000E+00  0.00000000E+00
  0.00000000E+00  0.00000000E+00  0.00000000E+00
  0.00000000E+00  0.00000000E+00  0.00000000E+00
  0.00000000E+00  0.00000000E+00  0.00000000E+00
  0.00000000E+00  0.00000000E+00  0.00000000E+00
  0.00000000E+00  0.00000000E+00  0.00000000E+00
