Co O  C  H                              
   1.00000000000000     
    29.0000000000000000    0.0000000000000000    0.0000000000000000
     0.0000000000000000   29.0000000000000000    0.0000000000000000
     0.0000000000000000    0.0000000000000000   29.0000000000000000
   Co   O    C    H 
    68     2     1     1
Selective dynamics
Direct
  0.5207267803313884  0.4842937067555478  0.6897541163754876   T   T   T
  0.3953193753584390  0.5797425077729278  0.4617052081770033   T   T   T
  0.4028636589040199  0.5439352574412841  0.5304327913069411   T   T   T
  0.5782761563691210  0.4268116521524590  0.4635435472142291   F   F   F
  0.4641638116308826  0.4268116521524590  0.5772364307857742   F   F   F
  0.6404056373621805  0.5404625582212186  0.5106479266857914   T   T   T
  0.4628050219931391  0.4738061530024833  0.4019238425454488   T   T   T
  0.4617461843310801  0.3652471470944528  0.5306880214233995   T   T   T
  0.5798081804871202  0.4737891184289856  0.6390273237747287   T   T   T
  0.4257289949238420  0.4264696100248846  0.6463632940907359   T   T   T
  0.5110413235414616  0.6027275815387279  0.5797988647267049   T   T   T
  0.5789409208697759  0.3570907337422100  0.4261121189294722   T   T   T
  0.4621047260287431  0.6033682264009498  0.5098711593476820   T   T   T
  0.4632836635221665  0.6098968763308599  0.4244947332733389   T   T   T
  0.6392488720372156  0.4936148259568755  0.5802934647146549   T   T   T
  0.6486009439867521  0.5380567141750486  0.4268151538887926   T   T   T
  0.6151644212671358  0.3570923210452877  0.5796152902554114   T   T   T
  0.5212200280000019  0.4252660896114264  0.5203899739999969   F   F   F
  0.4024699796030503  0.4253991418969734  0.5098674723046412   T   T   T
  0.5212200280000019  0.5427717147372562  0.5203899739999969   F   F   F
  0.5212200280000019  0.4841535664240482  0.5783626638499726   F   F   F
  0.4627803558551953  0.5794449882263712  0.6465854662955902   T   T   T
  0.5798513084913353  0.4841330892939268  0.5203899739999969   F   F   F
  0.5309400395606813  0.3653817920333454  0.5797914695746166   T   T   T
  0.3522913286906884  0.4849546468889038  0.5205572895436233   T   T   T
  0.4029273328053680  0.4741410728290101  0.5795247695527004   T   T   T
  0.5225192035456847  0.4839429007623376  0.3520002933345253   T   T   T
  0.3952495047004558  0.4264606018201193  0.4249499662348198   T   T   T
  0.6174637144400879  0.4239894383631287  0.3951236212460987   T   T   T
  0.6413748469414138  0.4708574326028883  0.4625888721083615   T   T   T
  0.4641638116308826  0.4268116521524590  0.4635435472142291   F   F   F
  0.4642268120283362  0.5414337674016210  0.4634884080096526   F   F   F
  0.5782131559716674  0.5414337674016210  0.4634884080096526   F   F   F
  0.5308882355385726  0.6022707723409728  0.4622140559726661   T   T   T
  0.5218075961208317  0.6532317101870846  0.5217808411149141   T   T   T
  0.4263181667733573  0.6107295297261216  0.5786397262017674   T   T   T
  0.6401824262460327  0.4236916453494358  0.5318884045928771   T   T   T
  0.4250429185984163  0.3580788281964657  0.4623031682637320   T   T   T
  0.4267983377145544  0.5419085036519173  0.3941380849626517   T   T   T
  0.4623066694146027  0.3579921453428001  0.6156104251363884   T   T   T
  0.6465147424575246  0.4250633489161090  0.6168810236424653   T   T   T
  0.5782131559716674  0.5414337674016210  0.5772915699903507   F   F   F
  0.5314443776871396  0.4243272617932985  0.4023741802095362   T   T   T
  0.5212200280000019  0.4841535664240482  0.4624173141500307   F   F   F
  0.6478495726054884  0.5785482183750830  0.5780003482637414   T   T   T
  0.5315808535510985  0.5434431817256635  0.6389114996962127   T   T   T
  0.4642268120283362  0.5414337674016210  0.5772915699903507   F   F   F
  0.4620209960164323  0.4950294344005796  0.6388219799937360   T   T   T
  0.5812102148718218  0.4922056643396328  0.4036786983328499   T   T   T
  0.6468681326703450  0.3863556424364922  0.4638329947958219   T   T   T
  0.5782761563691210  0.4268116521524590  0.5772364307857742   F   F   F
  0.3947492945751302  0.5427560122009074  0.6150589469229848   T   T   T
  0.5207257760790081  0.3140992356364649  0.5209892758749619   T   T   T
  0.6165388393734265  0.5423928257459623  0.6462058930094458   T   T   T
  0.3946889750239961  0.3893644706506293  0.5782855154101596   T   T   T
  0.5129509593660125  0.5429968562959723  0.4027974377573700   T   T   T
  0.6236832049347202  0.6109232762721237  0.4646413256819272   T   T   T
  0.5826433279683124  0.5793164604867413  0.3908252395720078   T   T   T
  0.5796255179946997  0.3648929646116629  0.5106871973596955   T   T   T
  0.4625886595086683  0.4841330892939268  0.5203899739999969   F   F   F
  0.5811567649256082  0.6018894415553802  0.5298068261839730   T   T   T
  0.5799472187200433  0.6105298154699803  0.6147108479921374   T   T   T
  0.5101066868431614  0.3647567626818837  0.4615274824312926   T   T   T
  0.4626922804460370  0.3886460974178134  0.3944482653938466   T   T   T
  0.5779531707430363  0.3887334079222702  0.6468798452278398   T   T   T
  0.5101782773633420  0.4253940208437312  0.6390777141309791   T   T   T
  0.6913356829557699  0.4823314532085085  0.5224803525991708   T   T   T
  0.4026223151561621  0.4948958599535961  0.4610527725106479   T   T   T
  0.6534132588329838  0.6572675857233770  0.4228943096661503   T   T   T
  0.6171159373544113  0.6297618079788809  0.3582561826439783   T   T   T
  0.6451284680463798  0.6561017681938262  0.3796928231324589   T   T   T
  0.6647904959621913  0.6808615791084043  0.3581748213923598   T   T   T
 
  0.00000000E+00  0.00000000E+00  0.00000000E+00
  0.00000000E+00  0.00000000E+00  0.00000000E+00
  0.00000000E+00  0.00000000E+00  0.00000000E+00
  0.00000000E+00  0.00000000E+00  0.00000000E+00
  0.00000000E+00  0.00000000E+00  0.00000000E+00
  0.00000000E+00  0.00000000E+00  0.00000000E+00
  0.00000000E+00  0.00000000E+00  0.00000000E+00
  0.00000000E+00  0.00000000E+00  0.00000000E+00
  0.00000000E+00  0.00000000E+00  0.00000000E+00
  0.00000000E+00  0.00000000E+00  0.00000000E+00
  0.00000000E+00  0.00000000E+00  0.00000000E+00
  0.00000000E+00  0.00000000E+00  0.00000000E+00
  0.00000000E+00  0.00000000E+00  0.00000000E+00
  0.00000000E+00  0.00000000E+00  0.00000000E+00
  0.00000000E+00  0.00000000E+00  0.00000000E+00
  0.00000000E+00  0.00000000E+00  0.00000000E+00
  0.00000000E+00  0.00000000E+00  0.00000000E+00
  0.00000000E+00  0.00000000E+00  0.00000000E+00
  0.00000000E+00  0.00000000E+00  0.00000000E+00
  0.00000000E+00  0.00000000E+00  0.00000000E+00
  0.00000000E+00  0.00000000E+00  0.00000000E+00
  0.00000000E+00  0.00000000E+00  0.00000000E+00
  0.00000000E+00  0.00000000E+00  0.00000000E+00
  0.00000000E+00  0.00000000E+00  0.00000000E+00
  0.00000000E+00  0.00000000E+00  0.00000000E+00
  0.00000000E+00  0.00000000E+00  0.00000000E+00
  0.00000000E+00  0.00000000E+00  0.00000000E+00
  0.00000000E+00  0.00000000E+00  0.00000000E+00
  0.00000000E+00  0.00000000E+00  0.00000000E+00
  0.00000000E+00  0.00000000E+00  0.00000000E+00
  0.00000000E+00  0.00000000E+00  0.00000000E+00
  0.00000000E+00  0.00000000E+00  0.00000000E+00
  0.00000000E+00  0.00000000E+00  0.00000000E+00
  0.00000000E+00  0.00000000E+00  0.00000000E+00
  0.00000000E+00  0.00000000E+00  0.00000000E+00
  0.00000000E+00  0.00000000E+00  0.00000000E+00
  0.00000000E+00  0.00000000E+00  0.00000000E+00
  0.00000000E+00  0.00000000E+00  0.00000000E+00
  0.00000000E+00  0.00000000E+00  0.00000000E+00
  0.00000000E+00  0.00000000E+00  0.00000000E+00
  0.00000000E+00  0.00000000E+00  0.00000000E+00
  0.00000000E+00  0.00000000E+00  0.00000000E+00
  0.00000000E+00  0.00000000E+00  0.00000000E+00
  0.00000000E+00  0.00000000E+00  0.00000000E+00
  0.00000000E+00  0.00000000E+00  0.00000000E+00
  0.00000000E+00  0.00000000E+00  0.00000000E+00
  0.00000000E+00  0.00000000E+00  0.00000000E+00
  0.00000000E+00  0.00000000E+00  0.00000000E+00
  0.00000000E+00  0.00000000E+00  0.00000000E+00
  0.00000000E+00  0.00000000E+00  0.00000000E+00
  0.00000000E+00  0.00000000E+00  0.00000000E+00
  0.00000000E+00  0.00000000E+00  0.00000000E+00
  0.00000000E+00  0.00000000E+00  0.00000000E+00
  0.00000000E+00  0.00000000E+00  0.00000000E+00
  0.00000000E+00  0.00000000E+00  0.00000000E+00
  0.00000000E+00  0.00000000E+00  0.00000000E+00
  0.00000000E+00  0.00000000E+00  0.00000000E+00
  0.00000000E+00  0.00000000E+00  0.00000000E+00
  0.00000000E+00  0.00000000E+00  0.00000000E+00
  0.00000000E+00  0.00000000E+00  0.00000000E+00
  0.00000000E+00  0.00000000E+00  0.00000000E+00
  0.00000000E+00  0.00000000E+00  0.00000000E+00
  0.00000000E+00  0.00000000E+00  0.00000000E+00
  0.00000000E+00  0.00000000E+00  0.00000000E+00
  0.00000000E+00  0.00000000E+00  0.00000000E+00
  0.00000000E+00  0.00000000E+00  0.00000000E+00
  0.00000000E+00  0.00000000E+00  0.00000000E+00
  0.00000000E+00  0.00000000E+00  0.00000000E+00
  0.00000000E+00  0.00000000E+00  0.00000000E+00
  0.00000000E+00  0.00000000E+00  0.00000000E+00
  0.00000000E+00  0.00000000E+00  0.00000000E+00
  0.00000000E+00  0.00000000E+00  0.00000000E+00
