Co O  C  H                              
   1.00000000000000     
    29.0000000000000000    0.0000000000000000    0.0000000000000000
     0.0000000000000000   29.0000000000000000    0.0000000000000000
     0.0000000000000000    0.0000000000000000   29.0000000000000000
   Co   O    C    H 
    68     2     1     1
Selective dynamics
Direct
  0.5209254628831413  0.4831248972699324  0.6888383208200034   T   T   T
  0.4256388730468635  0.6101917620674493  0.4613602040303753   T   T   T
  0.4017056380990086  0.5427611191367736  0.5077417351921412   T   T   T
  0.5782761563691210  0.4268116521524590  0.4635435472142291   F   F   F
  0.4641638116308826  0.4268116521524590  0.5772364307857742   F   F   F
  0.6401561959007145  0.5425471858999028  0.5306553362088146   T   T   T
  0.4632851078627904  0.4947042697600567  0.4016409744099402   T   T   T
  0.4618464328302910  0.3649131507991905  0.5098365918316954   T   T   T
  0.5802199052551917  0.4948151261068105  0.6388917917825189   T   T   T
  0.3946609153454496  0.4267606947707475  0.6146461300145032   T   T   T
  0.5301693615795579  0.6024050585749517  0.5793695803373383   T   T   T
  0.5785590424923465  0.3889378236006349  0.3944790459681240   T   T   T
  0.4617468828083280  0.6022834853877739  0.5301558138197215   T   T   T
  0.4643333307913690  0.5796113242704730  0.3939547919673548   T   T   T
  0.6395497718144338  0.4735764883616364  0.5796639825879532   T   T   T
  0.6171483754904659  0.5420043105165291  0.3946331376414930   T   T   T
  0.6473837050695731  0.3888733078792564  0.5797159284711135   T   T   T
  0.5212200280000019  0.4252660896114264  0.5203899739999969   F   F   F
  0.4029975036849032  0.4244458410057150  0.5295159662055525   T   T   T
  0.5212200280000019  0.5427717147372562  0.5203899739999969   F   F   F
  0.5212200280000019  0.4841535664240482  0.5783626638499726   F   F   F
  0.4598131705028199  0.6107889210655952  0.6165480087873059   T   T   T
  0.5798513084913353  0.4841330892939268  0.5203899739999969   F   F   F
  0.5103521884265571  0.3649933606486478  0.5792943309976573   T   T   T
  0.3513751956446357  0.4828520460966408  0.5176551040123182   T   T   T
  0.4018758074967329  0.4941601347163805  0.5764542280118703   T   T   T
  0.5220172434456457  0.4838270672400132  0.3508806384773647   T   T   T
  0.4268487428099861  0.4263358667323833  0.3932227821396957   T   T   T
  0.6482639334448045  0.4249314235122540  0.4263353337324696   T   T   T
  0.6394460889071603  0.4949536997410527  0.4617785485615635   T   T   T
  0.4641638116308826  0.4268116521524590  0.4635435472142291   F   F   F
  0.4642268120283362  0.5414337674016210  0.4634884080096526   F   F   F
  0.5782131559716674  0.5414337674016210  0.4634884080096526   F   F   F
  0.5107581326172120  0.6026987093545813  0.4612023951562922   T   T   T
  0.5205660910613606  0.6534169859880130  0.5198567598718714   T   T   T
  0.3943519425952425  0.5787674395700372  0.5750399505320919   T   T   T
  0.6389135324793219  0.4236869125799581  0.5108347189651956   T   T   T
  0.3951472248490147  0.3887491014107002  0.4607986126589041   T   T   T
  0.3961649783122835  0.5418470887457840  0.4228068401944453   T   T   T
  0.4622371058678293  0.3905222283999981  0.6469320367665885   T   T   T
  0.6153432316669354  0.4259864386903824  0.6470397189209732   T   T   T
  0.5782131559716674  0.5414337674016210  0.5772915699903507   F   F   F
  0.5108341287831806  0.4251430533233722  0.4017971143434171   T   T   T
  0.5212200280000019  0.4841535664240482  0.4624173141500307   F   F   F
  0.6167134943805826  0.6102169187791706  0.5777856661558060   T   T   T
  0.5119628072761683  0.5431481553194896  0.6379363099170392   T   T   T
  0.4642268120283362  0.5414337674016210  0.5772915699903507   F   F   F
  0.4615805016475705  0.4753028594809313  0.6370676294435751   T   T   T
  0.5805128771941489  0.4734606559847170  0.4021392546666320   T   T   T
  0.6147940471953044  0.3569925052714775  0.4624699128368053   T   T   T
  0.5782761563691210  0.4268116521524590  0.5772364307857742   F   F   F
  0.4193660865332772  0.5406817605227687  0.6482283981935737   T   T   T
  0.5214850661854763  0.3141495859741162  0.5202304689236542   T   T   T
  0.6474917690354834  0.5423495197126613  0.6152414400091604   T   T   T
  0.4258373812065484  0.3582928374830363  0.5790322417982374   T   T   T
  0.5324866853704868  0.5429726581065403  0.4016133011895489   T   T   T
  0.6468276368473198  0.5800997159906550  0.4625782054260569   T   T   T
  0.5790299418807037  0.6102746461712564  0.4249274251427296   T   T   T
  0.5802066520110828  0.3645552237664780  0.5318723184600190   T   T   T
  0.4625886595086683  0.4841330892939268  0.5203899739999969   F   F   F
  0.5797870824342973  0.6028748293932807  0.5102053966276057   T   T   T
  0.5801420067199999  0.5800045146924385  0.6458848342421378   T   T   T
  0.5313999814228361  0.3651954779692431  0.4617342353486484   T   T   T
  0.4635594751921931  0.3580705808450201  0.4243670356191085   T   T   T
  0.5789018505603072  0.3577838776153149  0.6160248770271650   T   T   T
  0.5310408791502781  0.4250705374748716  0.6383667828569820   T   T   T
  0.6901004944649014  0.4818630836408636  0.5200588795146749   T   T   T
  0.4030982037108327  0.4735121924735266  0.4598620764867309   T   T   T
  0.4316252053612912  0.6446322788389789  0.6679795839149801   T   T   T
  0.3949000926702782  0.5819340248286519  0.6989334069747958   T   T   T
  0.4056467213467578  0.6245235278031656  0.6973867907183434   T   T   T
  0.3906831993069767  0.6467126866737000  0.7247067780493265   T   T   T
 
  0.00000000E+00  0.00000000E+00  0.00000000E+00
  0.00000000E+00  0.00000000E+00  0.00000000E+00
  0.00000000E+00  0.00000000E+00  0.00000000E+00
  0.00000000E+00  0.00000000E+00  0.00000000E+00
  0.00000000E+00  0.00000000E+00  0.00000000E+00
  0.00000000E+00  0.00000000E+00  0.00000000E+00
  0.00000000E+00  0.00000000E+00  0.00000000E+00
  0.00000000E+00  0.00000000E+00  0.00000000E+00
  0.00000000E+00  0.00000000E+00  0.00000000E+00
  0.00000000E+00  0.00000000E+00  0.00000000E+00
  0.00000000E+00  0.00000000E+00  0.00000000E+00
  0.00000000E+00  0.00000000E+00  0.00000000E+00
  0.00000000E+00  0.00000000E+00  0.00000000E+00
  0.00000000E+00  0.00000000E+00  0.00000000E+00
  0.00000000E+00  0.00000000E+00  0.00000000E+00
  0.00000000E+00  0.00000000E+00  0.00000000E+00
  0.00000000E+00  0.00000000E+00  0.00000000E+00
  0.00000000E+00  0.00000000E+00  0.00000000E+00
  0.00000000E+00  0.00000000E+00  0.00000000E+00
  0.00000000E+00  0.00000000E+00  0.00000000E+00
  0.00000000E+00  0.00000000E+00  0.00000000E+00
  0.00000000E+00  0.00000000E+00  0.00000000E+00
  0.00000000E+00  0.00000000E+00  0.00000000E+00
  0.00000000E+00  0.00000000E+00  0.00000000E+00
  0.00000000E+00  0.00000000E+00  0.00000000E+00
  0.00000000E+00  0.00000000E+00  0.00000000E+00
  0.00000000E+00  0.00000000E+00  0.00000000E+00
  0.00000000E+00  0.00000000E+00  0.00000000E+00
  0.00000000E+00  0.00000000E+00  0.00000000E+00
  0.00000000E+00  0.00000000E+00  0.00000000E+00
  0.00000000E+00  0.00000000E+00  0.00000000E+00
  0.00000000E+00  0.00000000E+00  0.00000000E+00
  0.00000000E+00  0.00000000E+00  0.00000000E+00
  0.00000000E+00  0.00000000E+00  0.00000000E+00
  0.00000000E+00  0.00000000E+00  0.00000000E+00
  0.00000000E+00  0.00000000E+00  0.00000000E+00
  0.00000000E+00  0.00000000E+00  0.00000000E+00
  0.00000000E+00  0.00000000E+00  0.00000000E+00
  0.00000000E+00  0.00000000E+00  0.00000000E+00
  0.00000000E+00  0.00000000E+00  0.00000000E+00
  0.00000000E+00  0.00000000E+00  0.00000000E+00
  0.00000000E+00  0.00000000E+00  0.00000000E+00
  0.00000000E+00  0.00000000E+00  0.00000000E+00
  0.00000000E+00  0.00000000E+00  0.00000000E+00
  0.00000000E+00  0.00000000E+00  0.00000000E+00
  0.00000000E+00  0.00000000E+00  0.00000000E+00
  0.00000000E+00  0.00000000E+00  0.00000000E+00
  0.00000000E+00  0.00000000E+00  0.00000000E+00
  0.00000000E+00  0.00000000E+00  0.00000000E+00
  0.00000000E+00  0.00000000E+00  0.00000000E+00
  0.00000000E+00  0.00000000E+00  0.00000000E+00
  0.00000000E+00  0.00000000E+00  0.00000000E+00
  0.00000000E+00  0.00000000E+00  0.00000000E+00
  0.00000000E+00  0.00000000E+00  0.00000000E+00
  0.00000000E+00  0.00000000E+00  0.00000000E+00
  0.00000000E+00  0.00000000E+00  0.00000000E+00
  0.00000000E+00  0.00000000E+00  0.00000000E+00
  0.00000000E+00  0.00000000E+00  0.00000000E+00
  0.00000000E+00  0.00000000E+00  0.00000000E+00
  0.00000000E+00  0.00000000E+00  0.00000000E+00
  0.00000000E+00  0.00000000E+00  0.00000000E+00
  0.00000000E+00  0.00000000E+00  0.00000000E+00
  0.00000000E+00  0.00000000E+00  0.00000000E+00
  0.00000000E+00  0.00000000E+00  0.00000000E+00
  0.00000000E+00  0.00000000E+00  0.00000000E+00
  0.00000000E+00  0.00000000E+00  0.00000000E+00
  0.00000000E+00  0.00000000E+00  0.00000000E+00
  0.00000000E+00  0.00000000E+00  0.00000000E+00
  0.00000000E+00  0.00000000E+00  0.00000000E+00
  0.00000000E+00  0.00000000E+00  0.00000000E+00
  0.00000000E+00  0.00000000E+00  0.00000000E+00
  0.00000000E+00  0.00000000E+00  0.00000000E+00
