Co O  C  H                              
   1.00000000000000     
    29.0000000000000000    0.0000000000000000    0.0000000000000000
     0.0000000000000000   29.0000000000000000    0.0000000000000000
     0.0000000000000000    0.0000000000000000   29.0000000000000000
   Co   O    C    H 
    68     2     1     1
Selective dynamics
Direct
  0.5210780105312454  0.4830117329440549  0.6899033345199534   T   T   T
  0.3936882740760042  0.5780039645181801  0.4623845920005996   T   T   T
  0.4026110333899455  0.5436698137021245  0.5312360544434899   T   T   T
  0.5782761563691210  0.4268116521524590  0.4635435472142291   F   F   F
  0.4641638116308826  0.4268116521524590  0.5772364307857742   F   F   F
  0.6395011060416447  0.5436685911175659  0.5110639067062047   T   T   T
  0.4616349033581978  0.4756847176577769  0.4027283223900746   T   T   T
  0.4618068278628031  0.3655078680263256  0.5304448181485864   T   T   T
  0.5799218499063971  0.4732168413036181  0.6384670776731587   T   T   T
  0.4259070553601882  0.4260367528139249  0.6463041883106379   T   T   T
  0.5110309630541520  0.6020297658445105  0.5792184802915452   T   T   T
  0.5797238885306701  0.3571841715298415  0.4262055874266679   T   T   T
  0.4606110523217531  0.6032026858616107  0.5083590168922001   T   T   T
  0.4601197336322462  0.6084151918640200  0.4205423698263960   T   T   T
  0.6396967886822567  0.4945695305139834  0.5787433801936817   T   T   T
  0.6469915161977891  0.5414342953574566  0.4248611696857031   T   T   T
  0.6154980298006506  0.3574925670255696  0.5793462377568360   T   T   T
  0.5212200280000019  0.4252660896114264  0.5203899739999969   F   F   F
  0.4022091889491578  0.4256966009304524  0.5100465914053827   T   T   T
  0.5212200280000019  0.5427717147372562  0.5203899739999969   F   F   F
  0.5212200280000019  0.4841535664240482  0.5783626638499726   F   F   F
  0.4640880483600869  0.5798352888316161  0.6463502136408472   T   T   T
  0.5798513084913353  0.4841330892939268  0.5203899739999969   F   F   F
  0.5310122197479559  0.3654179387561859  0.5794407999372941   T   T   T
  0.3514765529248161  0.4845361042075269  0.5217105654266346   T   T   T
  0.4031498188037926  0.4743059922504886  0.5793163981382269   T   T   T
  0.5153792038927923  0.4816682984490860  0.3505615457113717   T   T   T
  0.3941225137968990  0.4272677614886539  0.4264959580219220   T   T   T
  0.6150372547581203  0.4255756845742945  0.3940948841354508   T   T   T
  0.6389382047596709  0.4739867802315365  0.4613746320159356   T   T   T
  0.4641638116308826  0.4268116521524590  0.4635435472142291   F   F   F
  0.4642268120283362  0.5414337674016210  0.4634884080096526   F   F   F
  0.5782131559716674  0.5414337674016210  0.4634884080096526   F   F   F
  0.5307665449214527  0.6016299120073895  0.4606935000352870   T   T   T
  0.5170852434311468  0.6536184404310011  0.5193386356374007   T   T   T
  0.4276570850887881  0.6112790176685834  0.5783161542402613   T   T   T
  0.6393871551133463  0.4249654684612544  0.5306869298290169   T   T   T
  0.4250857755434072  0.3586302131609164  0.4623373576414542   T   T   T
  0.4269204026717011  0.5432127627911627  0.3920734217378002   T   T   T
  0.4622307609231405  0.3575924031226690  0.6151745639015177   T   T   T
  0.6469776503914638  0.4257444252987636  0.6154362127804767   T   T   T
  0.5782131559716674  0.5414337674016210  0.5772915699903507   F   F   F
  0.5304441905908194  0.4235137228158440  0.4040218441159852   T   T   T
  0.5212200280000019  0.4841535664240482  0.4624173141500307   F   F   F
  0.6458679782219858  0.5846031256551997  0.5787204166978730   T   T   T
  0.5318266624358625  0.5420735069294006  0.6394289964070450   T   T   T
  0.4642268120283362  0.5414337674016210  0.5772915699903507   F   F   F
  0.4623724444897511  0.4947495240336990  0.6386902833996198   T   T   T
  0.5784748222462374  0.4938326216138154  0.4021312565268618   T   T   T
  0.6474963659846806  0.3893879087329262  0.4620451813691788   T   T   T
  0.5782761563691210  0.4268116521524590  0.5772364307857742   F   F   F
  0.3956120162989932  0.5430348670823196  0.6157855019797125   T   T   T
  0.5212302334002133  0.3144267013334343  0.5206092927044029   T   T   T
  0.6169847754857245  0.5405172101454814  0.6460549427763379   T   T   T
  0.3948642938620803  0.3892817875003399  0.5782052938420100   T   T   T
  0.5119780503915691  0.5432770828892375  0.4026304617243461   T   T   T
  0.6180395929055640  0.6092861356189638  0.4610279506751832   T   T   T
  0.5801566540676064  0.5793115856113857  0.3943533705805572   T   T   T
  0.5801725216028382  0.3652012454438248  0.5104089588990197   T   T   T
  0.4625886595086683  0.4841330892939268  0.5203899739999969   F   F   F
  0.5784882886155699  0.6032476809124387  0.5291499188107885   T   T   T
  0.5766179398156568  0.6090708968901547  0.6198316129705345   T   T   T
  0.5104002327257547  0.3648435316555668  0.4612308890570642   T   T   T
  0.4614349315058145  0.3899817642077071  0.3942138430910029   T   T   T
  0.5784312526024893  0.3889417875207832  0.6466540192692877   T   T   T
  0.5100633603602897  0.4249689161810449  0.6388267501870265   T   T   T
  0.6902862424239619  0.4836468034313045  0.5193959097431673   T   T   T
  0.4017425460505764  0.4956707448261213  0.4621943117620244   T   T   T
  0.5951200204426584  0.6750449650951897  0.5329305933452283   T   T   T
  0.6381294570505190  0.6592043583513285  0.5971374340574273   T   T   T
  0.6166758140208135  0.6863285260861270  0.5696995955583802   T   T   T
  0.6164459210086711  0.7234228963302521  0.5788858248742033   T   T   T
 
  0.00000000E+00  0.00000000E+00  0.00000000E+00
  0.00000000E+00  0.00000000E+00  0.00000000E+00
  0.00000000E+00  0.00000000E+00  0.00000000E+00
  0.00000000E+00  0.00000000E+00  0.00000000E+00
  0.00000000E+00  0.00000000E+00  0.00000000E+00
  0.00000000E+00  0.00000000E+00  0.00000000E+00
  0.00000000E+00  0.00000000E+00  0.00000000E+00
  0.00000000E+00  0.00000000E+00  0.00000000E+00
  0.00000000E+00  0.00000000E+00  0.00000000E+00
  0.00000000E+00  0.00000000E+00  0.00000000E+00
  0.00000000E+00  0.00000000E+00  0.00000000E+00
  0.00000000E+00  0.00000000E+00  0.00000000E+00
  0.00000000E+00  0.00000000E+00  0.00000000E+00
  0.00000000E+00  0.00000000E+00  0.00000000E+00
  0.00000000E+00  0.00000000E+00  0.00000000E+00
  0.00000000E+00  0.00000000E+00  0.00000000E+00
  0.00000000E+00  0.00000000E+00  0.00000000E+00
  0.00000000E+00  0.00000000E+00  0.00000000E+00
  0.00000000E+00  0.00000000E+00  0.00000000E+00
  0.00000000E+00  0.00000000E+00  0.00000000E+00
  0.00000000E+00  0.00000000E+00  0.00000000E+00
  0.00000000E+00  0.00000000E+00  0.00000000E+00
  0.00000000E+00  0.00000000E+00  0.00000000E+00
  0.00000000E+00  0.00000000E+00  0.00000000E+00
  0.00000000E+00  0.00000000E+00  0.00000000E+00
  0.00000000E+00  0.00000000E+00  0.00000000E+00
  0.00000000E+00  0.00000000E+00  0.00000000E+00
  0.00000000E+00  0.00000000E+00  0.00000000E+00
  0.00000000E+00  0.00000000E+00  0.00000000E+00
  0.00000000E+00  0.00000000E+00  0.00000000E+00
  0.00000000E+00  0.00000000E+00  0.00000000E+00
  0.00000000E+00  0.00000000E+00  0.00000000E+00
  0.00000000E+00  0.00000000E+00  0.00000000E+00
  0.00000000E+00  0.00000000E+00  0.00000000E+00
  0.00000000E+00  0.00000000E+00  0.00000000E+00
  0.00000000E+00  0.00000000E+00  0.00000000E+00
  0.00000000E+00  0.00000000E+00  0.00000000E+00
  0.00000000E+00  0.00000000E+00  0.00000000E+00
  0.00000000E+00  0.00000000E+00  0.00000000E+00
  0.00000000E+00  0.00000000E+00  0.00000000E+00
  0.00000000E+00  0.00000000E+00  0.00000000E+00
  0.00000000E+00  0.00000000E+00  0.00000000E+00
  0.00000000E+00  0.00000000E+00  0.00000000E+00
  0.00000000E+00  0.00000000E+00  0.00000000E+00
  0.00000000E+00  0.00000000E+00  0.00000000E+00
  0.00000000E+00  0.00000000E+00  0.00000000E+00
  0.00000000E+00  0.00000000E+00  0.00000000E+00
  0.00000000E+00  0.00000000E+00  0.00000000E+00
  0.00000000E+00  0.00000000E+00  0.00000000E+00
  0.00000000E+00  0.00000000E+00  0.00000000E+00
  0.00000000E+00  0.00000000E+00  0.00000000E+00
  0.00000000E+00  0.00000000E+00  0.00000000E+00
  0.00000000E+00  0.00000000E+00  0.00000000E+00
  0.00000000E+00  0.00000000E+00  0.00000000E+00
  0.00000000E+00  0.00000000E+00  0.00000000E+00
  0.00000000E+00  0.00000000E+00  0.00000000E+00
  0.00000000E+00  0.00000000E+00  0.00000000E+00
  0.00000000E+00  0.00000000E+00  0.00000000E+00
  0.00000000E+00  0.00000000E+00  0.00000000E+00
  0.00000000E+00  0.00000000E+00  0.00000000E+00
  0.00000000E+00  0.00000000E+00  0.00000000E+00
  0.00000000E+00  0.00000000E+00  0.00000000E+00
  0.00000000E+00  0.00000000E+00  0.00000000E+00
  0.00000000E+00  0.00000000E+00  0.00000000E+00
  0.00000000E+00  0.00000000E+00  0.00000000E+00
  0.00000000E+00  0.00000000E+00  0.00000000E+00
  0.00000000E+00  0.00000000E+00  0.00000000E+00
  0.00000000E+00  0.00000000E+00  0.00000000E+00
  0.00000000E+00  0.00000000E+00  0.00000000E+00
  0.00000000E+00  0.00000000E+00  0.00000000E+00
  0.00000000E+00  0.00000000E+00  0.00000000E+00
  0.00000000E+00  0.00000000E+00  0.00000000E+00
