Co O  C  H                              
   1.00000000000000     
    29.0000000000000000    0.0000000000000000    0.0000000000000000
     0.0000000000000000   29.0000000000000000    0.0000000000000000
     0.0000000000000000    0.0000000000000000   29.0000000000000000
   Co   O    C    H 
    68     2     1     1
Selective dynamics
Direct
  0.5247535472400531  0.4811718792671042  0.6895301842771880   T   T   T
  0.3946816769055541  0.5791662248632974  0.4631437082535894   T   T   T
  0.4020974844926981  0.5433412045959202  0.5318366160266556   T   T   T
  0.5782761563691210  0.4268116521524590  0.4635435472142291   F   F   F
  0.4641638116308826  0.4268116521524590  0.5772364307857742   F   F   F
  0.6406574475816434  0.5436456240843703  0.5084678986786921   T   T   T
  0.4616737291097767  0.4739050262275568  0.4024699382103440   T   T   T
  0.4620701425209434  0.3650423738710536  0.5307858034106541   T   T   T
  0.5822047309530261  0.4763482691317624  0.6355914170529494   T   T   T
  0.4283195408671222  0.4259928180997676  0.6471210898571853   T   T   T
  0.5111853157715496  0.6027561338986647  0.5795604672295582   T   T   T
  0.5787800271298723  0.3581914522501947  0.4240551664319366   T   T   T
  0.4619750956741193  0.6023936615251904  0.5107188991366175   T   T   T
  0.4619753080491526  0.6102211308129633  0.4255793993813451   T   T   T
  0.6414319183303809  0.4961254526950745  0.5771991257395210   T   T   T
  0.6466077165974558  0.5427568376158891  0.4236928695705858   T   T   T
  0.6170842940967763  0.3587417049933129  0.5767365066354466   T   T   T
  0.5212200280000019  0.4252660896114264  0.5203899739999969   F   F   F
  0.4028888349792097  0.4247844198707234  0.5107881589177915   T   T   T
  0.5212200280000019  0.5427717147372562  0.5203899739999969   F   F   F
  0.5212200280000019  0.4841535664240482  0.5783626638499726   F   F   F
  0.4640919293331063  0.5790351600457210  0.6467964152864955   T   T   T
  0.5798513084913353  0.4841330892939268  0.5203899739999969   F   F   F
  0.5324391202807865  0.3643617642533243  0.5775745365854379   T   T   T
  0.3520717079034952  0.4835445975066602  0.5212463506665611   T   T   T
  0.4033063956093851  0.4741115591788246  0.5801478927383250   T   T   T
  0.5202979333146421  0.4836152203590554  0.3509657338030603   T   T   T
  0.3948298168378805  0.4261371282959935  0.4259535528828601   T   T   T
  0.6149763517472762  0.4267095147227815  0.3932855272156903   T   T   T
  0.6389508952295064  0.4743073638394974  0.4602258523534862   T   T   T
  0.4641638116308826  0.4268116521524590  0.4635435472142291   F   F   F
  0.4642268120283362  0.5414337674016210  0.4634884080096526   F   F   F
  0.5782131559716674  0.5414337674016210  0.4634884080096526   F   F   F
  0.5308410265600310  0.6024824122710782  0.4611825405490245   T   T   T
  0.5211581156160833  0.6534722429066945  0.5204886575361825   T   T   T
  0.4262751992305425  0.6103903499403290  0.5794836923577877   T   T   T
  0.6392862022731892  0.4249736446181289  0.5291906298802367   T   T   T
  0.4262765226994828  0.3577856050843282  0.4619217056579478   T   T   T
  0.4247074384761773  0.5420140511367253  0.3950184274115395   T   T   T
  0.4638567729886261  0.3577318117968310  0.6150296034512239   T   T   T
  0.6491113302248429  0.4270937232175416  0.6116870687889153   T   T   T
  0.5782131559716674  0.5414337674016210  0.5772915699903507   F   F   F
  0.5309550700968254  0.4255067320894679  0.4022490753495883   T   T   T
  0.5212200280000019  0.4841535664240482  0.4624173141500307   F   F   F
  0.6473603233252641  0.5812377713574752  0.5762228473804589   T   T   T
  0.5327115892383214  0.5430202880288324  0.6394720928296019   T   T   T
  0.4642268120283362  0.5414337674016210  0.5772915699903507   F   F   F
  0.4642401813679282  0.4945094928470968  0.6393726002634628   T   T   T
  0.5793764195914157  0.4953298096470740  0.4013950255970656   T   T   T
  0.6473271406964149  0.3892619413307397  0.4605359556988277   T   T   T
  0.5782761563691210  0.4268116521524590  0.5772364307857742   F   F   F
  0.3959770013550081  0.5421234742830888  0.6168541683971555   T   T   T
  0.5207936900915454  0.3137515620644738  0.5189382162926089   T   T   T
  0.6187494217088211  0.5441356412335023  0.6448594009032964   T   T   T
  0.3952173227489068  0.3894415270246658  0.5796939178428968   T   T   T
  0.5099207234552813  0.5431153932077356  0.4014927802191351   T   T   T
  0.6158515780924630  0.6107518111737902  0.4614003988777476   T   T   T
  0.5781721562510339  0.5797244145554895  0.3939044205116017   T   T   T
  0.5803707336648081  0.3643692237456796  0.5084945283287362   T   T   T
  0.4625886595086683  0.4841330892939268  0.5203899739999969   F   F   F
  0.5801940305325494  0.6030422027241443  0.5299266469109806   T   T   T
  0.5798414954744630  0.6110475562707640  0.6145630999080813   T   T   T
  0.5104845605414640  0.3651733716168608  0.4611631026601222   T   T   T
  0.4627028597315564  0.3894345731536101  0.3939015392411798   T   T   T
  0.5822278945907623  0.3893565685902695  0.6517203325372134   T   T   T
  0.5131498716979479  0.4243225387671184  0.6367073543404188   T   T   T
  0.6908624328293558  0.4832265783508871  0.5178996356635704   T   T   T
  0.4024670956615092  0.4946742381105911  0.4621382269340241   T   T   T
  0.5485851019351241  0.4518149474770758  0.7447528657491731   T   T   T
  0.5870647409700507  0.3874807125503494  0.7189269013536439   T   T   T
  0.5732803076370824  0.4158432159287438  0.7495512642422713   T   T   T
  0.5844202753553395  0.4080056870887177  0.7852619485308467   T   T   T
 
  0.00000000E+00  0.00000000E+00  0.00000000E+00
  0.00000000E+00  0.00000000E+00  0.00000000E+00
  0.00000000E+00  0.00000000E+00  0.00000000E+00
  0.00000000E+00  0.00000000E+00  0.00000000E+00
  0.00000000E+00  0.00000000E+00  0.00000000E+00
  0.00000000E+00  0.00000000E+00  0.00000000E+00
  0.00000000E+00  0.00000000E+00  0.00000000E+00
  0.00000000E+00  0.00000000E+00  0.00000000E+00
  0.00000000E+00  0.00000000E+00  0.00000000E+00
  0.00000000E+00  0.00000000E+00  0.00000000E+00
  0.00000000E+00  0.00000000E+00  0.00000000E+00
  0.00000000E+00  0.00000000E+00  0.00000000E+00
  0.00000000E+00  0.00000000E+00  0.00000000E+00
  0.00000000E+00  0.00000000E+00  0.00000000E+00
  0.00000000E+00  0.00000000E+00  0.00000000E+00
  0.00000000E+00  0.00000000E+00  0.00000000E+00
  0.00000000E+00  0.00000000E+00  0.00000000E+00
  0.00000000E+00  0.00000000E+00  0.00000000E+00
  0.00000000E+00  0.00000000E+00  0.00000000E+00
  0.00000000E+00  0.00000000E+00  0.00000000E+00
  0.00000000E+00  0.00000000E+00  0.00000000E+00
  0.00000000E+00  0.00000000E+00  0.00000000E+00
  0.00000000E+00  0.00000000E+00  0.00000000E+00
  0.00000000E+00  0.00000000E+00  0.00000000E+00
  0.00000000E+00  0.00000000E+00  0.00000000E+00
  0.00000000E+00  0.00000000E+00  0.00000000E+00
  0.00000000E+00  0.00000000E+00  0.00000000E+00
  0.00000000E+00  0.00000000E+00  0.00000000E+00
  0.00000000E+00  0.00000000E+00  0.00000000E+00
  0.00000000E+00  0.00000000E+00  0.00000000E+00
  0.00000000E+00  0.00000000E+00  0.00000000E+00
  0.00000000E+00  0.00000000E+00  0.00000000E+00
  0.00000000E+00  0.00000000E+00  0.00000000E+00
  0.00000000E+00  0.00000000E+00  0.00000000E+00
  0.00000000E+00  0.00000000E+00  0.00000000E+00
  0.00000000E+00  0.00000000E+00  0.00000000E+00
  0.00000000E+00  0.00000000E+00  0.00000000E+00
  0.00000000E+00  0.00000000E+00  0.00000000E+00
  0.00000000E+00  0.00000000E+00  0.00000000E+00
  0.00000000E+00  0.00000000E+00  0.00000000E+00
  0.00000000E+00  0.00000000E+00  0.00000000E+00
  0.00000000E+00  0.00000000E+00  0.00000000E+00
  0.00000000E+00  0.00000000E+00  0.00000000E+00
  0.00000000E+00  0.00000000E+00  0.00000000E+00
  0.00000000E+00  0.00000000E+00  0.00000000E+00
  0.00000000E+00  0.00000000E+00  0.00000000E+00
  0.00000000E+00  0.00000000E+00  0.00000000E+00
  0.00000000E+00  0.00000000E+00  0.00000000E+00
  0.00000000E+00  0.00000000E+00  0.00000000E+00
  0.00000000E+00  0.00000000E+00  0.00000000E+00
  0.00000000E+00  0.00000000E+00  0.00000000E+00
  0.00000000E+00  0.00000000E+00  0.00000000E+00
  0.00000000E+00  0.00000000E+00  0.00000000E+00
  0.00000000E+00  0.00000000E+00  0.00000000E+00
  0.00000000E+00  0.00000000E+00  0.00000000E+00
  0.00000000E+00  0.00000000E+00  0.00000000E+00
  0.00000000E+00  0.00000000E+00  0.00000000E+00
  0.00000000E+00  0.00000000E+00  0.00000000E+00
  0.00000000E+00  0.00000000E+00  0.00000000E+00
  0.00000000E+00  0.00000000E+00  0.00000000E+00
  0.00000000E+00  0.00000000E+00  0.00000000E+00
  0.00000000E+00  0.00000000E+00  0.00000000E+00
  0.00000000E+00  0.00000000E+00  0.00000000E+00
  0.00000000E+00  0.00000000E+00  0.00000000E+00
  0.00000000E+00  0.00000000E+00  0.00000000E+00
  0.00000000E+00  0.00000000E+00  0.00000000E+00
  0.00000000E+00  0.00000000E+00  0.00000000E+00
  0.00000000E+00  0.00000000E+00  0.00000000E+00
  0.00000000E+00  0.00000000E+00  0.00000000E+00
  0.00000000E+00  0.00000000E+00  0.00000000E+00
  0.00000000E+00  0.00000000E+00  0.00000000E+00
  0.00000000E+00  0.00000000E+00  0.00000000E+00
