Co O  C  H                              
   1.00000000000000     
    29.0000000000000000    0.0000000000000000    0.0000000000000000
     0.0000000000000000   29.0000000000000000    0.0000000000000000
     0.0000000000000000    0.0000000000000000   29.0000000000000000
   Co   O    C    H 
    68     2     1     1
Selective dynamics
Direct
  0.5215372239592573  0.4851336238306046  0.6897444090404700   T   T   T
  0.3935500015943383  0.5800046100743637  0.4625261075620596   T   T   T
  0.4032022697466325  0.5430254205634263  0.5308569269187330   T   T   T
  0.5782761563691210  0.4268116521524590  0.4635435472142291   F   F   F
  0.4641638116308826  0.4268116521524590  0.5772364307857742   F   F   F
  0.6396929429042624  0.5432136917902459  0.5106031937367558   T   T   T
  0.4624112066428059  0.4749684054737149  0.4029769303288974   T   T   T
  0.4621975189986091  0.3657772868823975  0.5300330014457755   T   T   T
  0.5802018067534228  0.4739453369592459  0.6389479507179877   T   T   T
  0.4280286773498607  0.4266930217670803  0.6483576463006222   T   T   T
  0.5106421342458034  0.6030150644657489  0.5792623390860520   T   T   T
  0.5799755054003055  0.3574796569439183  0.4264356706677814   T   T   T
  0.4622802597128116  0.6028792170787235  0.5099956275367292   T   T   T
  0.4632199931356794  0.6104140049351379  0.4263319064450515   T   T   T
  0.6395708989500037  0.4945498536405138  0.5795808647651811   T   T   T
  0.6481332712537734  0.5425975229640420  0.4264382262008637   T   T   T
  0.6152638791613234  0.3576798301471623  0.5800352508568235   T   T   T
  0.5212200280000019  0.4252660896114264  0.5203899739999969   F   F   F
  0.4033788786122413  0.4242418826564139  0.5111754171563115   T   T   T
  0.5212200280000019  0.5427717147372562  0.5203899739999969   F   F   F
  0.5212200280000019  0.4841535664240482  0.5783626638499726   F   F   F
  0.4629310919430535  0.5799673177668754  0.6463154840574484   T   T   T
  0.5798513084913353  0.4841330892939268  0.5203899739999969   F   F   F
  0.5299463592071011  0.3660140431898765  0.5802546742043864   T   T   T
  0.3519484416343042  0.4831931070615651  0.5234689153797321   T   T   T
  0.4026090122416817  0.4723627106865738  0.5812542473803449   T   T   T
  0.5215027623879632  0.4836173779984783  0.3518731488581433   T   T   T
  0.3955983307291908  0.4259850128289772  0.4252043215865030   T   T   T
  0.6160075820929366  0.4256833838789151  0.3942600936647663   T   T   T
  0.6398058543911456  0.4737226972892934  0.4614198700100947   T   T   T
  0.4641638116308826  0.4268116521524590  0.4635435472142291   F   F   F
  0.4642268120283362  0.5414337674016210  0.4634884080096526   F   F   F
  0.5782131559716674  0.5414337674016210  0.4634884080096526   F   F   F
  0.5317748045438169  0.6029163913372142  0.4616211625016651   T   T   T
  0.5211894370347092  0.6539714762739123  0.5203428448505969   T   T   T
  0.4261012709127696  0.6105730205252372  0.5784597813588888   T   T   T
  0.6402424374001621  0.4248578933403853  0.5310126100847142   T   T   T
  0.4263082197667365  0.3579056579922272  0.4615342007727347   T   T   T
  0.4223980421166708  0.5414911018299357  0.3910714902075297   T   T   T
  0.4624439766021233  0.3561937620125408  0.6153629836675472   T   T   T
  0.6468695555977195  0.4263501242596906  0.6158667108414895   T   T   T
  0.5782131559716674  0.5414337674016210  0.5772915699903507   F   F   F
  0.5315336235645219  0.4248002534221230  0.4025189847990274   T   T   T
  0.5212200280000019  0.4841535664240482  0.4624173141500307   F   F   F
  0.6472717741726197  0.5797509410625985  0.5789305137754543   T   T   T
  0.5311902033644056  0.5431426392538564  0.6383708726559273   T   T   T
  0.4642268120283362  0.5414337674016210  0.5772915699903507   F   F   F
  0.4619752590020842  0.4953870785224449  0.6388782187290053   T   T   T
  0.5805790512896034  0.4943935801795603  0.4025118695713508   T   T   T
  0.6481676210340354  0.3893059734606754  0.4618947585688732   T   T   T
  0.5782761563691210  0.4268116521524590  0.5772364307857742   F   F   F
  0.3947896825554637  0.5422832415591522  0.6147032342780175   T   T   T
  0.5243250900931615  0.3141103658048148  0.5254145619335839   T   T   T
  0.6161336258439607  0.5425125773168864  0.6465541872010422   T   T   T
  0.3970135420481552  0.3845551467949046  0.5824537394336136   T   T   T
  0.5120496978322028  0.5431963350251553  0.4026374021669038   T   T   T
  0.6168434978106753  0.6103825219178930  0.4631174940514309   T   T   T
  0.5807607834293325  0.5795519420598680  0.3947706945900074   T   T   T
  0.5817648703713826  0.3670602988304803  0.5108651025095023   T   T   T
  0.4625886595086683  0.4841330892939268  0.5203899739999969   F   F   F
  0.5802595470086757  0.6031663218632616  0.5312512443153680   T   T   T
  0.5790455776883983  0.6104217802513885  0.6159111087356788   T   T   T
  0.5109604933317278  0.3652004557845632  0.4621079552301099   T   T   T
  0.4635577317607562  0.3891723043662410  0.3943458419717617   T   T   T
  0.5783931917162628  0.3900034455954260  0.6474041614147251   T   T   T
  0.5103791757702032  0.4261014190010792  0.6394879798138478   T   T   T
  0.6906113610355175  0.4841737963633126  0.5201067737425868   T   T   T
  0.4033152308868296  0.4927820436248882  0.4643226823624104   T   T   T
  0.3365413231787233  0.5924619984924518  0.4290070391926549   T   T   T
  0.3604267388737650  0.5566030807894524  0.3628960324598434   T   T   T
  0.3311244161505152  0.5778307604293506  0.3877634396815706   T   T   T
  0.2969330465168680  0.5843720297466307  0.3720504850596850   T   T   T
 
  0.00000000E+00  0.00000000E+00  0.00000000E+00
  0.00000000E+00  0.00000000E+00  0.00000000E+00
  0.00000000E+00  0.00000000E+00  0.00000000E+00
  0.00000000E+00  0.00000000E+00  0.00000000E+00
  0.00000000E+00  0.00000000E+00  0.00000000E+00
  0.00000000E+00  0.00000000E+00  0.00000000E+00
  0.00000000E+00  0.00000000E+00  0.00000000E+00
  0.00000000E+00  0.00000000E+00  0.00000000E+00
  0.00000000E+00  0.00000000E+00  0.00000000E+00
  0.00000000E+00  0.00000000E+00  0.00000000E+00
  0.00000000E+00  0.00000000E+00  0.00000000E+00
  0.00000000E+00  0.00000000E+00  0.00000000E+00
  0.00000000E+00  0.00000000E+00  0.00000000E+00
  0.00000000E+00  0.00000000E+00  0.00000000E+00
  0.00000000E+00  0.00000000E+00  0.00000000E+00
  0.00000000E+00  0.00000000E+00  0.00000000E+00
  0.00000000E+00  0.00000000E+00  0.00000000E+00
  0.00000000E+00  0.00000000E+00  0.00000000E+00
  0.00000000E+00  0.00000000E+00  0.00000000E+00
  0.00000000E+00  0.00000000E+00  0.00000000E+00
  0.00000000E+00  0.00000000E+00  0.00000000E+00
  0.00000000E+00  0.00000000E+00  0.00000000E+00
  0.00000000E+00  0.00000000E+00  0.00000000E+00
  0.00000000E+00  0.00000000E+00  0.00000000E+00
  0.00000000E+00  0.00000000E+00  0.00000000E+00
  0.00000000E+00  0.00000000E+00  0.00000000E+00
  0.00000000E+00  0.00000000E+00  0.00000000E+00
  0.00000000E+00  0.00000000E+00  0.00000000E+00
  0.00000000E+00  0.00000000E+00  0.00000000E+00
  0.00000000E+00  0.00000000E+00  0.00000000E+00
  0.00000000E+00  0.00000000E+00  0.00000000E+00
  0.00000000E+00  0.00000000E+00  0.00000000E+00
  0.00000000E+00  0.00000000E+00  0.00000000E+00
  0.00000000E+00  0.00000000E+00  0.00000000E+00
  0.00000000E+00  0.00000000E+00  0.00000000E+00
  0.00000000E+00  0.00000000E+00  0.00000000E+00
  0.00000000E+00  0.00000000E+00  0.00000000E+00
  0.00000000E+00  0.00000000E+00  0.00000000E+00
  0.00000000E+00  0.00000000E+00  0.00000000E+00
  0.00000000E+00  0.00000000E+00  0.00000000E+00
  0.00000000E+00  0.00000000E+00  0.00000000E+00
  0.00000000E+00  0.00000000E+00  0.00000000E+00
  0.00000000E+00  0.00000000E+00  0.00000000E+00
  0.00000000E+00  0.00000000E+00  0.00000000E+00
  0.00000000E+00  0.00000000E+00  0.00000000E+00
  0.00000000E+00  0.00000000E+00  0.00000000E+00
  0.00000000E+00  0.00000000E+00  0.00000000E+00
  0.00000000E+00  0.00000000E+00  0.00000000E+00
  0.00000000E+00  0.00000000E+00  0.00000000E+00
  0.00000000E+00  0.00000000E+00  0.00000000E+00
  0.00000000E+00  0.00000000E+00  0.00000000E+00
  0.00000000E+00  0.00000000E+00  0.00000000E+00
  0.00000000E+00  0.00000000E+00  0.00000000E+00
  0.00000000E+00  0.00000000E+00  0.00000000E+00
  0.00000000E+00  0.00000000E+00  0.00000000E+00
  0.00000000E+00  0.00000000E+00  0.00000000E+00
  0.00000000E+00  0.00000000E+00  0.00000000E+00
  0.00000000E+00  0.00000000E+00  0.00000000E+00
  0.00000000E+00  0.00000000E+00  0.00000000E+00
  0.00000000E+00  0.00000000E+00  0.00000000E+00
  0.00000000E+00  0.00000000E+00  0.00000000E+00
  0.00000000E+00  0.00000000E+00  0.00000000E+00
  0.00000000E+00  0.00000000E+00  0.00000000E+00
  0.00000000E+00  0.00000000E+00  0.00000000E+00
  0.00000000E+00  0.00000000E+00  0.00000000E+00
  0.00000000E+00  0.00000000E+00  0.00000000E+00
  0.00000000E+00  0.00000000E+00  0.00000000E+00
  0.00000000E+00  0.00000000E+00  0.00000000E+00
  0.00000000E+00  0.00000000E+00  0.00000000E+00
  0.00000000E+00  0.00000000E+00  0.00000000E+00
  0.00000000E+00  0.00000000E+00  0.00000000E+00
  0.00000000E+00  0.00000000E+00  0.00000000E+00
