Co O  C  H                              
   1.00000000000000     
    29.0000000000000000    0.0000000000000000    0.0000000000000000
     0.0000000000000000   29.0000000000000000    0.0000000000000000
     0.0000000000000000    0.0000000000000000   29.0000000000000000
   Co   O    C    H 
    68     2     1     1
Selective dynamics
Direct
  0.5230825618362771  0.4848009353507833  0.6888736013068818   T   T   T
  0.4237615316041409  0.6117381138786899  0.4600028433343811   T   T   T
  0.4030044526738391  0.5452039866249998  0.5138819111204662   T   T   T
  0.5782761563691210  0.4268116521524590  0.4635435472142291   F   F   F
  0.4641638116308826  0.4268116521524590  0.5772364307857742   F   F   F
  0.6410021053415229  0.5399884211253412  0.5315337662342593   T   T   T
  0.4632888299214384  0.4952409310250014  0.4015842785721555   T   T   T
  0.4622891567682447  0.3645098419786625  0.5087112756015562   T   T   T
  0.5806527560606244  0.4938569765733071  0.6379396150694895   T   T   T
  0.3940805255091582  0.4208813668732960  0.6138285166688565   T   T   T
  0.5301231844499239  0.6016541358603575  0.5805405383260246   T   T   T
  0.5790998982679839  0.3882004595353314  0.3945435487256508   T   T   T
  0.4684609840042077  0.6037968191815661  0.5255291896092827   T   T   T
  0.4650717088171462  0.5773117701964807  0.3929366085753143   T   T   T
  0.6407366579506292  0.4719196078130361  0.5789278228136426   T   T   T
  0.6169567605522841  0.5402442477831533  0.3935224264275425   T   T   T
  0.6468337000855624  0.3877524976856686  0.5788010650435477   T   T   T
  0.5212200280000019  0.4252660896114264  0.5203899739999969   F   F   F
  0.4029590425952883  0.4219349891786983  0.5286019098308928   T   T   T
  0.5212200280000019  0.5427717147372562  0.5203899739999969   F   F   F
  0.5212200280000019  0.4841535664240482  0.5783626638499726   F   F   F
  0.4552445848339968  0.6131205696086264  0.6037404713818537   T   T   T
  0.5798513084913353  0.4841330892939268  0.5203899739999969   F   F   F
  0.5106388786113643  0.3648027052309620  0.5790889898374413   T   T   T
  0.3529610750495850  0.4830934719316581  0.5192687293288905   T   T   T
  0.4050040768244641  0.4873786557766734  0.5769289204270807   T   T   T
  0.5214597229120965  0.4832329593494767  0.3508666005784477   T   T   T
  0.4274120935540963  0.4274255538207013  0.3930628557637151   T   T   T
  0.6476694646873111  0.4245550980202930  0.4265217946199856   T   T   T
  0.6396373215093240  0.4942346020703033  0.4608843571495579   T   T   T
  0.4641638116308826  0.4268116521524590  0.4635435472142291   F   F   F
  0.4642268120283362  0.5414337674016210  0.4634884080096526   F   F   F
  0.5782131559716674  0.5414337674016210  0.4634884080096526   F   F   F
  0.5146086885760530  0.6005606854773540  0.4597674598641108   T   T   T
  0.5302739813045918  0.6537168566459991  0.5180494461310589   T   T   T
  0.3954909091828021  0.6195293128250261  0.5447499955506611   T   T   T
  0.6392276460014136  0.4238152762789546  0.5100130272391838   T   T   T
  0.3949121469890221  0.3899443618183238  0.4586590728483458   T   T   T
  0.3960206071654109  0.5421103251158332  0.4244287484496239   T   T   T
  0.4623711303365157  0.3886310729740098  0.6462429798527878   T   T   T
  0.6151483321063639  0.4254826720099936  0.6467169615693842   T   T   T
  0.5782131559716674  0.5414337674016210  0.5772915699903507   F   F   F
  0.5112140408774805  0.4254267292482971  0.4024825852280355   T   T   T
  0.5212200280000019  0.4841535664240482  0.4624173141500307   F   F   F
  0.6205534950524403  0.6139486464638612  0.5798405646592941   T   T   T
  0.5103365057665713  0.5439507619336300  0.6378406247483016   T   T   T
  0.4642268120283362  0.5414337674016210  0.5772915699903507   F   F   F
  0.4617287742385567  0.4775922194059779  0.6364690988240354   T   T   T
  0.5806556715720113  0.4727406373169003  0.4019365639322705   T   T   T
  0.6152849800089649  0.3565551033979342  0.4624767891009305   T   T   T
  0.5782761563691210  0.4268116521524590  0.5772364307857742   F   F   F
  0.3903483731289507  0.5613847439788031  0.5938852400898372   T   T   T
  0.5213221862783930  0.3139015564171673  0.5201522061046342   T   T   T
  0.6471096338142053  0.5398415912966426  0.6158745088054934   T   T   T
  0.4276390850983719  0.3555387970195504  0.5776531672805800   T   T   T
  0.5344267967163914  0.5431112988334209  0.4004499255135379   T   T   T
  0.6486147570086711  0.5798205282706040  0.4613081158503797   T   T   T
  0.5873156242922711  0.6122692568011283  0.4269369429562483   T   T   T
  0.5796672262072375  0.3648636791088544  0.5311329763342689   T   T   T
  0.4625886595086683  0.4841330892939268  0.5203899739999969   F   F   F
  0.5825376160652080  0.5986857924791232  0.5136611194235245   T   T   T
  0.5803505671359194  0.5763776251999694  0.6475040629816355   T   T   T
  0.5315643561075009  0.3652516505581359  0.4615109466457776   T   T   T
  0.4634912039682967  0.3585343388341420  0.4236566171838602   T   T   T
  0.5783346710976054  0.3582405370262486  0.6159975305542453   T   T   T
  0.5292786635281361  0.4263054878219080  0.6373648086043261   T   T   T
  0.6912788173389903  0.4808147281659554  0.5193355734319153   T   T   T
  0.4040559808305394  0.4753484280640394  0.4618342575655612   T   T   T
  0.5684088964629141  0.7075398160229610  0.5293083712943579   T   T   T
  0.6303088456438687  0.6800477146743330  0.5705874710767879   T   T   T
  0.6073021049400908  0.7109082755960798  0.5494134739543830   T   T   T
  0.6234808069998138  0.7454745102865967  0.5482663064105430   T   T   T
 
  0.00000000E+00  0.00000000E+00  0.00000000E+00
  0.00000000E+00  0.00000000E+00  0.00000000E+00
  0.00000000E+00  0.00000000E+00  0.00000000E+00
  0.00000000E+00  0.00000000E+00  0.00000000E+00
  0.00000000E+00  0.00000000E+00  0.00000000E+00
  0.00000000E+00  0.00000000E+00  0.00000000E+00
  0.00000000E+00  0.00000000E+00  0.00000000E+00
  0.00000000E+00  0.00000000E+00  0.00000000E+00
  0.00000000E+00  0.00000000E+00  0.00000000E+00
  0.00000000E+00  0.00000000E+00  0.00000000E+00
  0.00000000E+00  0.00000000E+00  0.00000000E+00
  0.00000000E+00  0.00000000E+00  0.00000000E+00
  0.00000000E+00  0.00000000E+00  0.00000000E+00
  0.00000000E+00  0.00000000E+00  0.00000000E+00
  0.00000000E+00  0.00000000E+00  0.00000000E+00
  0.00000000E+00  0.00000000E+00  0.00000000E+00
  0.00000000E+00  0.00000000E+00  0.00000000E+00
  0.00000000E+00  0.00000000E+00  0.00000000E+00
  0.00000000E+00  0.00000000E+00  0.00000000E+00
  0.00000000E+00  0.00000000E+00  0.00000000E+00
  0.00000000E+00  0.00000000E+00  0.00000000E+00
  0.00000000E+00  0.00000000E+00  0.00000000E+00
  0.00000000E+00  0.00000000E+00  0.00000000E+00
  0.00000000E+00  0.00000000E+00  0.00000000E+00
  0.00000000E+00  0.00000000E+00  0.00000000E+00
  0.00000000E+00  0.00000000E+00  0.00000000E+00
  0.00000000E+00  0.00000000E+00  0.00000000E+00
  0.00000000E+00  0.00000000E+00  0.00000000E+00
  0.00000000E+00  0.00000000E+00  0.00000000E+00
  0.00000000E+00  0.00000000E+00  0.00000000E+00
  0.00000000E+00  0.00000000E+00  0.00000000E+00
  0.00000000E+00  0.00000000E+00  0.00000000E+00
  0.00000000E+00  0.00000000E+00  0.00000000E+00
  0.00000000E+00  0.00000000E+00  0.00000000E+00
  0.00000000E+00  0.00000000E+00  0.00000000E+00
  0.00000000E+00  0.00000000E+00  0.00000000E+00
  0.00000000E+00  0.00000000E+00  0.00000000E+00
  0.00000000E+00  0.00000000E+00  0.00000000E+00
  0.00000000E+00  0.00000000E+00  0.00000000E+00
  0.00000000E+00  0.00000000E+00  0.00000000E+00
  0.00000000E+00  0.00000000E+00  0.00000000E+00
  0.00000000E+00  0.00000000E+00  0.00000000E+00
  0.00000000E+00  0.00000000E+00  0.00000000E+00
  0.00000000E+00  0.00000000E+00  0.00000000E+00
  0.00000000E+00  0.00000000E+00  0.00000000E+00
  0.00000000E+00  0.00000000E+00  0.00000000E+00
  0.00000000E+00  0.00000000E+00  0.00000000E+00
  0.00000000E+00  0.00000000E+00  0.00000000E+00
  0.00000000E+00  0.00000000E+00  0.00000000E+00
  0.00000000E+00  0.00000000E+00  0.00000000E+00
  0.00000000E+00  0.00000000E+00  0.00000000E+00
  0.00000000E+00  0.00000000E+00  0.00000000E+00
  0.00000000E+00  0.00000000E+00  0.00000000E+00
  0.00000000E+00  0.00000000E+00  0.00000000E+00
  0.00000000E+00  0.00000000E+00  0.00000000E+00
  0.00000000E+00  0.00000000E+00  0.00000000E+00
  0.00000000E+00  0.00000000E+00  0.00000000E+00
  0.00000000E+00  0.00000000E+00  0.00000000E+00
  0.00000000E+00  0.00000000E+00  0.00000000E+00
  0.00000000E+00  0.00000000E+00  0.00000000E+00
  0.00000000E+00  0.00000000E+00  0.00000000E+00
  0.00000000E+00  0.00000000E+00  0.00000000E+00
  0.00000000E+00  0.00000000E+00  0.00000000E+00
  0.00000000E+00  0.00000000E+00  0.00000000E+00
  0.00000000E+00  0.00000000E+00  0.00000000E+00
  0.00000000E+00  0.00000000E+00  0.00000000E+00
  0.00000000E+00  0.00000000E+00  0.00000000E+00
  0.00000000E+00  0.00000000E+00  0.00000000E+00
  0.00000000E+00  0.00000000E+00  0.00000000E+00
  0.00000000E+00  0.00000000E+00  0.00000000E+00
  0.00000000E+00  0.00000000E+00  0.00000000E+00
  0.00000000E+00  0.00000000E+00  0.00000000E+00
