Co O  C  H                              
   1.00000000000000     
    29.0000000000000000    0.0000000000000000    0.0000000000000000
     0.0000000000000000   29.0000000000000000    0.0000000000000000
     0.0000000000000000    0.0000000000000000   29.0000000000000000
   Co   O    C    H 
    68     2     1     1
Selective dynamics
Direct
  0.5210712388281886  0.4844373411941688  0.6893701269868795   T   T   T
  0.4257694516341786  0.6104953175717105  0.4624720728788957   T   T   T
  0.4028753692590317  0.5436404969886481  0.5100658715668436   T   T   T
  0.5782761563691210  0.4268116521524590  0.4635435472142291   F   F   F
  0.4641638116308826  0.4268116521524590  0.5772364307857742   F   F   F
  0.6401116964101883  0.5433933960276734  0.5311995972682064   T   T   T
  0.4625872955968323  0.4960663963509575  0.4010615210805038   T   T   T
  0.4613286855346270  0.3652633426472376  0.5104482101315011   T   T   T
  0.5802211111269753  0.4946498266575502  0.6387018573506730   T   T   T
  0.3949560997863744  0.4261622916993079  0.6151300803483993   T   T   T
  0.5315553472123425  0.6028483166162489  0.5797174756390649   T   T   T
  0.5766620717452955  0.3840697205885117  0.3907415097618653   T   T   T
  0.4621257476420129  0.6030921589106443  0.5310087534533307   T   T   T
  0.4630820893997238  0.5802989325732490  0.3944509268702808   T   T   T
  0.6396481331741058  0.4736965096631218  0.5795341006190452   T   T   T
  0.6165167661017495  0.5445716263728859  0.3946669946534671   T   T   T
  0.6475944610160899  0.3889447910337926  0.5782927497141912   T   T   T
  0.5212200280000019  0.4252660896114264  0.5203899739999969   F   F   F
  0.4028073860465646  0.4246560940956219  0.5300452319024227   T   T   T
  0.5212200280000019  0.5427717147372562  0.5203899739999969   F   F   F
  0.5212200280000019  0.4841535664240482  0.5783626638499726   F   F   F
  0.4629526323737294  0.6107166909062636  0.6156478329595203   T   T   T
  0.5798513084913353  0.4841330892939268  0.5203899739999969   F   F   F
  0.5107201309930488  0.3653793464896050  0.5800322419155017   T   T   T
  0.3526944689705817  0.4844337744913141  0.5203843190121802   T   T   T
  0.4027496274397905  0.4946203271757725  0.5794555836932337   T   T   T
  0.5227837420260654  0.4863403780817843  0.3515183427123175   T   T   T
  0.4275904604915259  0.4278448502207147  0.3935888481542749   T   T   T
  0.6468066780162079  0.4261127076795768  0.4261887327256379   T   T   T
  0.6404908024629240  0.4954578034236977  0.4617124983045816   T   T   T
  0.4641638116308826  0.4268116521524590  0.4635435472142291   F   F   F
  0.4642268120283362  0.5414337674016210  0.4634884080096526   F   F   F
  0.5782131559716674  0.5414337674016210  0.4634884080096526   F   F   F
  0.5105909028109494  0.6034281474119892  0.4618216280050134   T   T   T
  0.5216213678599093  0.6537583441595031  0.5207486973364407   T   T   T
  0.3950869334715006  0.5795276479376874  0.5786556179645784   T   T   T
  0.6399440570150058  0.4251516895062988  0.5099167026826299   T   T   T
  0.3965309945786196  0.3890537667701088  0.4602232934830253   T   T   T
  0.3952520591343511  0.5425131039344813  0.4249731354943299   T   T   T
  0.4628030731611893  0.3900684105220578  0.6471239191367282   T   T   T
  0.6164051800212046  0.4259790562065791  0.6462208559006719   T   T   T
  0.5782131559716674  0.5414337674016210  0.5772915699903507   F   F   F
  0.5126764122065202  0.4277619534421275  0.4027443988460075   T   T   T
  0.5212200280000019  0.4841535664240482  0.4624173141500307   F   F   F
  0.6165797729814020  0.6102138872028458  0.5792916714193879   T   T   T
  0.5108783660017824  0.5434365467672118  0.6388050012151775   T   T   T
  0.4642268120283362  0.5414337674016210  0.5772915699903507   F   F   F
  0.4621225165413261  0.4740965680563008  0.6385500700387058   T   T   T
  0.5816361779892243  0.4756748977858221  0.4033984184627393   T   T   T
  0.6156054481060999  0.3579512755455114  0.4628321392648781   T   T   T
  0.5782761563691210  0.4268116521524590  0.5772364307857742   F   F   F
  0.4261072772986297  0.5426974743023693  0.6464713951338406   T   T   T
  0.5210353655438059  0.3144911665214729  0.5221850970242045   T   T   T
  0.6473804308337117  0.5419231596034719  0.6159085740472302   T   T   T
  0.4263957180083628  0.3577628640438904  0.5795784573000707   T   T   T
  0.5317841484501957  0.5444291463513860  0.4023832781520630   T   T   T
  0.6476178322107627  0.5802478007673042  0.4631727826997940   T   T   T
  0.5796881162976594  0.6117340334811874  0.4270335181345706   T   T   T
  0.5804031782571190  0.3648967992721503  0.5312256184546444   T   T   T
  0.4625886595086683  0.4841330892939268  0.5203899739999969   F   F   F
  0.5803570154483730  0.6027358644738953  0.5107721753026266   T   T   T
  0.5795594171028983  0.5791903734875946  0.6469208821068978   T   T   T
  0.5301046098661958  0.3659118285219796  0.4631762903353063   T   T   T
  0.4677643390586990  0.3563686469674119  0.4166675509042726   T   T   T
  0.5796978803792212  0.3577681169513408  0.6153026814194509   T   T   T
  0.5315847449101376  0.4254005643558496  0.6387913258860948   T   T   T
  0.6906265395609922  0.4842401422249908  0.5209517526414594   T   T   T
  0.4030584584193525  0.4739836738055205  0.4608736930376405   T   T   T
  0.5588825411948923  0.3387868502350986  0.3444776486536382   T   T   T
  0.4844683031029288  0.3185206150572177  0.3631563614771150   T   T   T
  0.5210525173581533  0.3170633269886311  0.3388498911494797   T   T   T
  0.5199218918836720  0.2937583456762423  0.3085669024204653   T   T   T
 
  0.00000000E+00  0.00000000E+00  0.00000000E+00
  0.00000000E+00  0.00000000E+00  0.00000000E+00
  0.00000000E+00  0.00000000E+00  0.00000000E+00
  0.00000000E+00  0.00000000E+00  0.00000000E+00
  0.00000000E+00  0.00000000E+00  0.00000000E+00
  0.00000000E+00  0.00000000E+00  0.00000000E+00
  0.00000000E+00  0.00000000E+00  0.00000000E+00
  0.00000000E+00  0.00000000E+00  0.00000000E+00
  0.00000000E+00  0.00000000E+00  0.00000000E+00
  0.00000000E+00  0.00000000E+00  0.00000000E+00
  0.00000000E+00  0.00000000E+00  0.00000000E+00
  0.00000000E+00  0.00000000E+00  0.00000000E+00
  0.00000000E+00  0.00000000E+00  0.00000000E+00
  0.00000000E+00  0.00000000E+00  0.00000000E+00
  0.00000000E+00  0.00000000E+00  0.00000000E+00
  0.00000000E+00  0.00000000E+00  0.00000000E+00
  0.00000000E+00  0.00000000E+00  0.00000000E+00
  0.00000000E+00  0.00000000E+00  0.00000000E+00
  0.00000000E+00  0.00000000E+00  0.00000000E+00
  0.00000000E+00  0.00000000E+00  0.00000000E+00
  0.00000000E+00  0.00000000E+00  0.00000000E+00
  0.00000000E+00  0.00000000E+00  0.00000000E+00
  0.00000000E+00  0.00000000E+00  0.00000000E+00
  0.00000000E+00  0.00000000E+00  0.00000000E+00
  0.00000000E+00  0.00000000E+00  0.00000000E+00
  0.00000000E+00  0.00000000E+00  0.00000000E+00
  0.00000000E+00  0.00000000E+00  0.00000000E+00
  0.00000000E+00  0.00000000E+00  0.00000000E+00
  0.00000000E+00  0.00000000E+00  0.00000000E+00
  0.00000000E+00  0.00000000E+00  0.00000000E+00
  0.00000000E+00  0.00000000E+00  0.00000000E+00
  0.00000000E+00  0.00000000E+00  0.00000000E+00
  0.00000000E+00  0.00000000E+00  0.00000000E+00
  0.00000000E+00  0.00000000E+00  0.00000000E+00
  0.00000000E+00  0.00000000E+00  0.00000000E+00
  0.00000000E+00  0.00000000E+00  0.00000000E+00
  0.00000000E+00  0.00000000E+00  0.00000000E+00
  0.00000000E+00  0.00000000E+00  0.00000000E+00
  0.00000000E+00  0.00000000E+00  0.00000000E+00
  0.00000000E+00  0.00000000E+00  0.00000000E+00
  0.00000000E+00  0.00000000E+00  0.00000000E+00
  0.00000000E+00  0.00000000E+00  0.00000000E+00
  0.00000000E+00  0.00000000E+00  0.00000000E+00
  0.00000000E+00  0.00000000E+00  0.00000000E+00
  0.00000000E+00  0.00000000E+00  0.00000000E+00
  0.00000000E+00  0.00000000E+00  0.00000000E+00
  0.00000000E+00  0.00000000E+00  0.00000000E+00
  0.00000000E+00  0.00000000E+00  0.00000000E+00
  0.00000000E+00  0.00000000E+00  0.00000000E+00
  0.00000000E+00  0.00000000E+00  0.00000000E+00
  0.00000000E+00  0.00000000E+00  0.00000000E+00
  0.00000000E+00  0.00000000E+00  0.00000000E+00
  0.00000000E+00  0.00000000E+00  0.00000000E+00
  0.00000000E+00  0.00000000E+00  0.00000000E+00
  0.00000000E+00  0.00000000E+00  0.00000000E+00
  0.00000000E+00  0.00000000E+00  0.00000000E+00
  0.00000000E+00  0.00000000E+00  0.00000000E+00
  0.00000000E+00  0.00000000E+00  0.00000000E+00
  0.00000000E+00  0.00000000E+00  0.00000000E+00
  0.00000000E+00  0.00000000E+00  0.00000000E+00
  0.00000000E+00  0.00000000E+00  0.00000000E+00
  0.00000000E+00  0.00000000E+00  0.00000000E+00
  0.00000000E+00  0.00000000E+00  0.00000000E+00
  0.00000000E+00  0.00000000E+00  0.00000000E+00
  0.00000000E+00  0.00000000E+00  0.00000000E+00
  0.00000000E+00  0.00000000E+00  0.00000000E+00
  0.00000000E+00  0.00000000E+00  0.00000000E+00
  0.00000000E+00  0.00000000E+00  0.00000000E+00
  0.00000000E+00  0.00000000E+00  0.00000000E+00
  0.00000000E+00  0.00000000E+00  0.00000000E+00
  0.00000000E+00  0.00000000E+00  0.00000000E+00
  0.00000000E+00  0.00000000E+00  0.00000000E+00
