Co O  C  H                              
   1.00000000000000     
    29.0000000000000000    0.0000000000000000    0.0000000000000000
     0.0000000000000000   29.0000000000000000    0.0000000000000000
     0.0000000000000000    0.0000000000000000   29.0000000000000000
   Co   O    C    H 
    68     2     1     1
Selective dynamics
Direct
  0.5215319423917695  0.4838385236416552  0.6899071151314546   T   T   T
  0.3963679565861289  0.5821018913588354  0.4654150341177745   T   T   T
  0.4025840363222190  0.5432419058173033  0.5314733156403785   T   T   T
  0.5782761563691210  0.4268116521524590  0.4635435472142291   F   F   F
  0.4641638116308826  0.4268116521524590  0.5772364307857742   F   F   F
  0.6402430786591700  0.5429415070980329  0.5101087339800967   T   T   T
  0.4639880155036506  0.4760265565756426  0.4032041493963531   T   T   T
  0.4619739179119315  0.3646342315327089  0.5317605616154095   T   T   T
  0.5803850468425702  0.4737525279082525  0.6386404153063154   T   T   T
  0.4279039790272853  0.4265146000391307  0.6482273460892315   T   T   T
  0.5115278964603062  0.6023622972109318  0.5798737975950934   T   T   T
  0.5785179617916161  0.3579752703056940  0.4246569732823098   T   T   T
  0.4630574689519321  0.6031520828037390  0.5105016805178962   T   T   T
  0.4639665113214946  0.6108834063487413  0.4268831310765300   T   T   T
  0.6395379193923189  0.4940688462814118  0.5793350231502183   T   T   T
  0.6486135650713526  0.5417463328636029  0.4261115632011404   T   T   T
  0.6160128685160825  0.3573678332771939  0.5786189780785331   T   T   T
  0.5212200280000019  0.4252660896114264  0.5203899739999969   F   F   F
  0.4040307020159479  0.4241417156862952  0.5125934157345545   T   T   T
  0.5212200280000019  0.5427717147372562  0.5203899739999969   F   F   F
  0.5212200280000019  0.4841535664240482  0.5783626638499726   F   F   F
  0.4636896905398107  0.5796914382544530  0.6465675469682053   T   T   T
  0.5798513084913353  0.4841330892939268  0.5203899739999969   F   F   F
  0.5316627095901657  0.3651053333039619  0.5795663422071872   T   T   T
  0.3522592378506467  0.4829227245468588  0.5249674521245715   T   T   T
  0.4037405101175832  0.4740945555370685  0.5811307075478241   T   T   T
  0.5232013378212256  0.4857501187461247  0.3517365394399557   T   T   T
  0.3939266870435202  0.4243195716575652  0.4230453368983904   T   T   T
  0.6161851512188901  0.4256396292795403  0.3942067514193703   T   T   T
  0.6401469406225709  0.4731891777639072  0.4618055190784847   T   T   T
  0.4641638116308826  0.4268116521524590  0.4635435472142291   F   F   F
  0.4642268120283362  0.5414337674016210  0.4634884080096526   F   F   F
  0.5782131559716674  0.5414337674016210  0.4634884080096526   F   F   F
  0.5328492670273396  0.6037396156884867  0.4616506302348537   T   T   T
  0.5220114746581087  0.6535962003737117  0.5212953439829349   T   T   T
  0.4264971180721562  0.6107234510705406  0.5785874069194672   T   T   T
  0.6397577557865349  0.4243969484775458  0.5306182124358743   T   T   T
  0.4275150500804503  0.3573193221722797  0.4622757758023696   T   T   T
  0.4215639037764256  0.5421148418563635  0.3924387538214478   T   T   T
  0.4639027025357392  0.3580287313689997  0.6166664442082624   T   T   T
  0.6475302528654513  0.4254343691438499  0.6152145637646924   T   T   T
  0.5782131559716674  0.5414337674016210  0.5772915699903507   F   F   F
  0.5318454728333173  0.4258381064278712  0.4018325325642904   T   T   T
  0.5212200280000019  0.4841535664240482  0.4624173141500307   F   F   F
  0.6480375689571107  0.5787943012489820  0.5786347706441402   T   T   T
  0.5323880545529388  0.5432913516317202  0.6391617833559867   T   T   T
  0.4642268120283362  0.5414337674016210  0.5772915699903507   F   F   F
  0.4631427719622115  0.4952872130991868  0.6392493870940144   T   T   T
  0.5812975975750805  0.4946705169477613  0.4024433098226980   T   T   T
  0.6467825430092961  0.3880758978502177  0.4618690450809058   T   T   T
  0.5782761563691210  0.4268116521524590  0.5772364307857742   F   F   F
  0.3954911311256706  0.5428299597106209  0.6162057576769859   T   T   T
  0.5212013414061158  0.3142377528022069  0.5209322796031319   T   T   T
  0.6169864276196493  0.5421423160641524  0.6464066655329719   T   T   T
  0.3951828025650930  0.3892084567414537  0.5815228242896997   T   T   T
  0.5126807606584410  0.5444108064704283  0.4031968583388628   T   T   T
  0.6179996410881512  0.6099785507911094  0.4627732495989144   T   T   T
  0.5814895494093389  0.5794395716175061  0.3945070970743656   T   T   T
  0.5802048841302310  0.3649754053748931  0.5099309532663087   T   T   T
  0.4625886595086683  0.4841330892939268  0.5203899739999969   F   F   F
  0.5810492600163722  0.6028278888439487  0.5308602634348701   T   T   T
  0.5803528407678650  0.6104278165609641  0.6154208711470159   T   T   T
  0.5107847999699505  0.3652220748716051  0.4618350901652275   T   T   T
  0.4644561673717613  0.3886178670063939  0.3948003746526125   T   T   T
  0.5795481123634217  0.3887936309671775  0.6464445459879163   T   T   T
  0.5113971979024525  0.4253702004609503  0.6387359112098598   T   T   T
  0.6906710117979952  0.4837965305918389  0.5208363071978871   T   T   T
  0.4016913887023860  0.4938083861635342  0.4631450389287444   T   T   T
  0.3593673135004132  0.5296249509393619  0.3646352017390456   T   T   T
  0.3383072835306973  0.4724297060780804  0.4151468828699336   T   T   T
  0.3314554385368828  0.5005420697946665  0.3816515011198102   T   T   T
  0.2963645591753659  0.4998008821891742  0.3664238174760702   T   T   T
 
  0.00000000E+00  0.00000000E+00  0.00000000E+00
  0.00000000E+00  0.00000000E+00  0.00000000E+00
  0.00000000E+00  0.00000000E+00  0.00000000E+00
  0.00000000E+00  0.00000000E+00  0.00000000E+00
  0.00000000E+00  0.00000000E+00  0.00000000E+00
  0.00000000E+00  0.00000000E+00  0.00000000E+00
  0.00000000E+00  0.00000000E+00  0.00000000E+00
  0.00000000E+00  0.00000000E+00  0.00000000E+00
  0.00000000E+00  0.00000000E+00  0.00000000E+00
  0.00000000E+00  0.00000000E+00  0.00000000E+00
  0.00000000E+00  0.00000000E+00  0.00000000E+00
  0.00000000E+00  0.00000000E+00  0.00000000E+00
  0.00000000E+00  0.00000000E+00  0.00000000E+00
  0.00000000E+00  0.00000000E+00  0.00000000E+00
  0.00000000E+00  0.00000000E+00  0.00000000E+00
  0.00000000E+00  0.00000000E+00  0.00000000E+00
  0.00000000E+00  0.00000000E+00  0.00000000E+00
  0.00000000E+00  0.00000000E+00  0.00000000E+00
  0.00000000E+00  0.00000000E+00  0.00000000E+00
  0.00000000E+00  0.00000000E+00  0.00000000E+00
  0.00000000E+00  0.00000000E+00  0.00000000E+00
  0.00000000E+00  0.00000000E+00  0.00000000E+00
  0.00000000E+00  0.00000000E+00  0.00000000E+00
  0.00000000E+00  0.00000000E+00  0.00000000E+00
  0.00000000E+00  0.00000000E+00  0.00000000E+00
  0.00000000E+00  0.00000000E+00  0.00000000E+00
  0.00000000E+00  0.00000000E+00  0.00000000E+00
  0.00000000E+00  0.00000000E+00  0.00000000E+00
  0.00000000E+00  0.00000000E+00  0.00000000E+00
  0.00000000E+00  0.00000000E+00  0.00000000E+00
  0.00000000E+00  0.00000000E+00  0.00000000E+00
  0.00000000E+00  0.00000000E+00  0.00000000E+00
  0.00000000E+00  0.00000000E+00  0.00000000E+00
  0.00000000E+00  0.00000000E+00  0.00000000E+00
  0.00000000E+00  0.00000000E+00  0.00000000E+00
  0.00000000E+00  0.00000000E+00  0.00000000E+00
  0.00000000E+00  0.00000000E+00  0.00000000E+00
  0.00000000E+00  0.00000000E+00  0.00000000E+00
  0.00000000E+00  0.00000000E+00  0.00000000E+00
  0.00000000E+00  0.00000000E+00  0.00000000E+00
  0.00000000E+00  0.00000000E+00  0.00000000E+00
  0.00000000E+00  0.00000000E+00  0.00000000E+00
  0.00000000E+00  0.00000000E+00  0.00000000E+00
  0.00000000E+00  0.00000000E+00  0.00000000E+00
  0.00000000E+00  0.00000000E+00  0.00000000E+00
  0.00000000E+00  0.00000000E+00  0.00000000E+00
  0.00000000E+00  0.00000000E+00  0.00000000E+00
  0.00000000E+00  0.00000000E+00  0.00000000E+00
  0.00000000E+00  0.00000000E+00  0.00000000E+00
  0.00000000E+00  0.00000000E+00  0.00000000E+00
  0.00000000E+00  0.00000000E+00  0.00000000E+00
  0.00000000E+00  0.00000000E+00  0.00000000E+00
  0.00000000E+00  0.00000000E+00  0.00000000E+00
  0.00000000E+00  0.00000000E+00  0.00000000E+00
  0.00000000E+00  0.00000000E+00  0.00000000E+00
  0.00000000E+00  0.00000000E+00  0.00000000E+00
  0.00000000E+00  0.00000000E+00  0.00000000E+00
  0.00000000E+00  0.00000000E+00  0.00000000E+00
  0.00000000E+00  0.00000000E+00  0.00000000E+00
  0.00000000E+00  0.00000000E+00  0.00000000E+00
  0.00000000E+00  0.00000000E+00  0.00000000E+00
  0.00000000E+00  0.00000000E+00  0.00000000E+00
  0.00000000E+00  0.00000000E+00  0.00000000E+00
  0.00000000E+00  0.00000000E+00  0.00000000E+00
  0.00000000E+00  0.00000000E+00  0.00000000E+00
  0.00000000E+00  0.00000000E+00  0.00000000E+00
  0.00000000E+00  0.00000000E+00  0.00000000E+00
  0.00000000E+00  0.00000000E+00  0.00000000E+00
  0.00000000E+00  0.00000000E+00  0.00000000E+00
  0.00000000E+00  0.00000000E+00  0.00000000E+00
  0.00000000E+00  0.00000000E+00  0.00000000E+00
  0.00000000E+00  0.00000000E+00  0.00000000E+00
