Co C  O  H                              
   1.00000000000000     
    29.0000000000000000    0.0000000000000000    0.0000000000000000
     0.0000000000000000   29.0000000000000000    0.0000000000000000
     0.0000000000000000    0.0000000000000000   29.0000000000000000
   Co   C    O    H 
    68     1     2     1
Selective dynamics
Direct
  0.5208724056616921  0.4843273578957655  0.6892911624583801   T   T   T
  0.3948697934137506  0.5780544467518509  0.4612236588376403   T   T   T
  0.4033544626141158  0.5440767326522636  0.5301420407895369   T   T   T
  0.5782761563691210  0.4268116521524590  0.4635435472142291   F   F   F
  0.4641638116308826  0.4268116521524590  0.5772364307857742   F   F   F
  0.6397605542810630  0.5432748410093940  0.5101033629540707   T   T   T
  0.4647709491218429  0.4731994688430880  0.4010773398117558   T   T   T
  0.4624873229729121  0.3650629564500695  0.5311732577954226   T   T   T
  0.5800892387128078  0.4740991744226480  0.6383791926469875   T   T   T
  0.4265528764598559  0.4259442473617074  0.6466695238694217   T   T   T
  0.5106634406320263  0.6030954467278892  0.5792161588283005   T   T   T
  0.5795542558874458  0.3574471542126370  0.4256465316645403   T   T   T
  0.4621755128967063  0.6035611098678495  0.5093675610821069   T   T   T
  0.4630450257499633  0.6098432836616124  0.4244753011897204   T   T   T
  0.6400022259909529  0.4948232265543926  0.5793555442904355   T   T   T
  0.6480134266717841  0.5423267867070535  0.4261005760418136   T   T   T
  0.6168684983227852  0.3579715751155262  0.5785687407415998   T   T   T
  0.5212200280000019  0.4252660896114264  0.5203899739999969   F   F   F
  0.4008249784562900  0.4235004584883214  0.5102451161345452   T   T   T
  0.5212200280000019  0.5427717147372562  0.5203899739999969   F   F   F
  0.5212200280000019  0.4841535664240482  0.5783626638499726   F   F   F
  0.4628342254021470  0.5794951608095835  0.6462472342946560   T   T   T
  0.5798513084913353  0.4841330892939268  0.5203899739999969   F   F   F
  0.5318036758134556  0.3649819789416243  0.5791978269970846   T   T   T
  0.3530521055986638  0.4872344720503103  0.5208929070091211   T   T   T
  0.4031893041591144  0.4737505395311933  0.5790899564661682   T   T   T
  0.5237287486408082  0.4846498675366766  0.3506826478555881   T   T   T
  0.3955603533589598  0.4258203440914315  0.4196680008738171   T   T   T
  0.6173554522797715  0.4256866018485624  0.3947013744090576   T   T   T
  0.6402590143832751  0.4734831669278040  0.4617640918634164   T   T   T
  0.4641638116308826  0.4268116521524590  0.4635435472142291   F   F   F
  0.4642268120283362  0.5414337674016210  0.4634884080096526   F   F   F
  0.5782131559716674  0.5414337674016210  0.4634884080096526   F   F   F
  0.5315672242716051  0.6028556817553691  0.4612007954250903   T   T   T
  0.5212508621383644  0.6539621939214763  0.5201117004093423   T   T   T
  0.4263790468774180  0.6109094767961051  0.5781673626960406   T   T   T
  0.6400083592173804  0.4252483369664781  0.5309682738261855   T   T   T
  0.4286110713220906  0.3566986303039960  0.4619334185868568   T   T   T
  0.4271663873773853  0.5409757648914062  0.3937057221363123   T   T   T
  0.4637780240581299  0.3581189138842508  0.6163518656392669   T   T   T
  0.6471751632295811  0.4261849214864913  0.6156426055786679   T   T   T
  0.5782131559716674  0.5414337674016210  0.5772915699903507   F   F   F
  0.5333916809860436  0.4248973926364358  0.4012789436996060   T   T   T
  0.5212200280000019  0.4841535664240482  0.4624173141500307   F   F   F
  0.6472769443981342  0.5799515455255934  0.5783814637940045   T   T   T
  0.5314262448576278  0.5434466290966787  0.6386865499786077   T   T   T
  0.4642268120283362  0.5414337674016210  0.5772915699903507   F   F   F
  0.4619696382023417  0.4949248584947367  0.6386348457859098   T   T   T
  0.5810409452561354  0.4944833493458595  0.4025603579248092   T   T   T
  0.6474472447156999  0.3885504228644702  0.4627628865470743   T   T   T
  0.5782761563691210  0.4268116521524590  0.5772364307857742   F   F   F
  0.3947307759630186  0.5426562495949214  0.6143826990727675   T   T   T
  0.5214619181902643  0.3140714011356107  0.5200111015025209   T   T   T
  0.6167291737734616  0.5424137155814366  0.6461145003961744   T   T   T
  0.3952442745091421  0.3880921393514148  0.5797066130396062   T   T   T
  0.5115989737334533  0.5432640368850212  0.4020743396181455   T   T   T
  0.6163720671889533  0.6104605565771694  0.4624271368607848   T   T   T
  0.5801415823761306  0.5792465936818788  0.3942827041784460   T   T   T
  0.5803938208765514  0.3650791705631557  0.5102868897703939   T   T   T
  0.4625886595086683  0.4841330892939268  0.5203899739999969   F   F   F
  0.5801381166820408  0.6032272942557475  0.5308452146691445   T   T   T
  0.5793945027901066  0.6104654352291450  0.6153571881937642   T   T   T
  0.5110836836972525  0.3651822940481813  0.4616908761211679   T   T   T
  0.4662290067648533  0.3880724110728910  0.3941918461087788   T   T   T
  0.5791634978140753  0.3887475884970479  0.6462221830584433   T   T   T
  0.5110013083792038  0.4253474680985729  0.6387618349978300   T   T   T
  0.6908520135676699  0.4843797048420980  0.5205243648920486   T   T   T
  0.4044930566339643  0.4928828839997712  0.4608597714631672   T   T   T
  0.3425297904980633  0.4023678279942704  0.4915197045154430   T   T   T
  0.3297960485918153  0.4014603579511991  0.4493439917238758   T   T   T
  0.3106111636320597  0.3860791160003190  0.5229767834125747   T   T   T
  0.2833755688039870  0.3759582571354642  0.5051710309757347   T   T   T
 
  0.00000000E+00  0.00000000E+00  0.00000000E+00
  0.00000000E+00  0.00000000E+00  0.00000000E+00
  0.00000000E+00  0.00000000E+00  0.00000000E+00
  0.00000000E+00  0.00000000E+00  0.00000000E+00
  0.00000000E+00  0.00000000E+00  0.00000000E+00
  0.00000000E+00  0.00000000E+00  0.00000000E+00
  0.00000000E+00  0.00000000E+00  0.00000000E+00
  0.00000000E+00  0.00000000E+00  0.00000000E+00
  0.00000000E+00  0.00000000E+00  0.00000000E+00
  0.00000000E+00  0.00000000E+00  0.00000000E+00
  0.00000000E+00  0.00000000E+00  0.00000000E+00
  0.00000000E+00  0.00000000E+00  0.00000000E+00
  0.00000000E+00  0.00000000E+00  0.00000000E+00
  0.00000000E+00  0.00000000E+00  0.00000000E+00
  0.00000000E+00  0.00000000E+00  0.00000000E+00
  0.00000000E+00  0.00000000E+00  0.00000000E+00
  0.00000000E+00  0.00000000E+00  0.00000000E+00
  0.00000000E+00  0.00000000E+00  0.00000000E+00
  0.00000000E+00  0.00000000E+00  0.00000000E+00
  0.00000000E+00  0.00000000E+00  0.00000000E+00
  0.00000000E+00  0.00000000E+00  0.00000000E+00
  0.00000000E+00  0.00000000E+00  0.00000000E+00
  0.00000000E+00  0.00000000E+00  0.00000000E+00
  0.00000000E+00  0.00000000E+00  0.00000000E+00
  0.00000000E+00  0.00000000E+00  0.00000000E+00
  0.00000000E+00  0.00000000E+00  0.00000000E+00
  0.00000000E+00  0.00000000E+00  0.00000000E+00
  0.00000000E+00  0.00000000E+00  0.00000000E+00
  0.00000000E+00  0.00000000E+00  0.00000000E+00
  0.00000000E+00  0.00000000E+00  0.00000000E+00
  0.00000000E+00  0.00000000E+00  0.00000000E+00
  0.00000000E+00  0.00000000E+00  0.00000000E+00
  0.00000000E+00  0.00000000E+00  0.00000000E+00
  0.00000000E+00  0.00000000E+00  0.00000000E+00
  0.00000000E+00  0.00000000E+00  0.00000000E+00
  0.00000000E+00  0.00000000E+00  0.00000000E+00
  0.00000000E+00  0.00000000E+00  0.00000000E+00
  0.00000000E+00  0.00000000E+00  0.00000000E+00
  0.00000000E+00  0.00000000E+00  0.00000000E+00
  0.00000000E+00  0.00000000E+00  0.00000000E+00
  0.00000000E+00  0.00000000E+00  0.00000000E+00
  0.00000000E+00  0.00000000E+00  0.00000000E+00
  0.00000000E+00  0.00000000E+00  0.00000000E+00
  0.00000000E+00  0.00000000E+00  0.00000000E+00
  0.00000000E+00  0.00000000E+00  0.00000000E+00
  0.00000000E+00  0.00000000E+00  0.00000000E+00
  0.00000000E+00  0.00000000E+00  0.00000000E+00
  0.00000000E+00  0.00000000E+00  0.00000000E+00
  0.00000000E+00  0.00000000E+00  0.00000000E+00
  0.00000000E+00  0.00000000E+00  0.00000000E+00
  0.00000000E+00  0.00000000E+00  0.00000000E+00
  0.00000000E+00  0.00000000E+00  0.00000000E+00
  0.00000000E+00  0.00000000E+00  0.00000000E+00
  0.00000000E+00  0.00000000E+00  0.00000000E+00
  0.00000000E+00  0.00000000E+00  0.00000000E+00
  0.00000000E+00  0.00000000E+00  0.00000000E+00
  0.00000000E+00  0.00000000E+00  0.00000000E+00
  0.00000000E+00  0.00000000E+00  0.00000000E+00
  0.00000000E+00  0.00000000E+00  0.00000000E+00
  0.00000000E+00  0.00000000E+00  0.00000000E+00
  0.00000000E+00  0.00000000E+00  0.00000000E+00
  0.00000000E+00  0.00000000E+00  0.00000000E+00
  0.00000000E+00  0.00000000E+00  0.00000000E+00
  0.00000000E+00  0.00000000E+00  0.00000000E+00
  0.00000000E+00  0.00000000E+00  0.00000000E+00
  0.00000000E+00  0.00000000E+00  0.00000000E+00
  0.00000000E+00  0.00000000E+00  0.00000000E+00
  0.00000000E+00  0.00000000E+00  0.00000000E+00
  0.00000000E+00  0.00000000E+00  0.00000000E+00
  0.00000000E+00  0.00000000E+00  0.00000000E+00
  0.00000000E+00  0.00000000E+00  0.00000000E+00
  0.00000000E+00  0.00000000E+00  0.00000000E+00
