Co C  O  H                              
   1.00000000000000     
    29.0000000000000000    0.0000000000000000    0.0000000000000000
     0.0000000000000000   29.0000000000000000    0.0000000000000000
     0.0000000000000000    0.0000000000000000   29.0000000000000000
   Co   C    O    H 
    68     1     2     1
Selective dynamics
Direct
  0.5195723124879965  0.4855451580249415  0.6901176724864010   T   T   T
  0.3954420965992469  0.5797370964974117  0.4617531295780794   T   T   T
  0.4028904892516109  0.5437076230897661  0.5303333525087580   T   T   T
  0.5782761563691210  0.4268116521524590  0.4635435472142291   F   F   F
  0.4641638116308826  0.4268116521524590  0.5772364307857742   F   F   F
  0.6395576973276546  0.5432826628003058  0.5102832692390276   T   T   T
  0.4624492571242180  0.4735803992864369  0.4021778760595861   T   T   T
  0.4610759107019093  0.3650068688944254  0.5311299485164084   T   T   T
  0.5780057201291132  0.4729848363863166  0.6393983988721608   T   T   T
  0.4232840314581211  0.4279077415042076  0.6461303546818359   T   T   T
  0.5109426802620679  0.6030827595379729  0.5794209690797660   T   T   T
  0.5785599605749757  0.3583918177528724  0.4246002864986554   T   T   T
  0.4623314412405684  0.6033031519689072  0.5096465411465422   T   T   T
  0.4637269206541353  0.6106193755254415  0.4249942698632443   T   T   T
  0.6385678292686306  0.4940316663334848  0.5786035936054048   T   T   T
  0.6470674076232106  0.5420454004333127  0.4248778242302685   T   T   T
  0.6134008297615575  0.3510029393869764  0.5806282812651582   T   T   T
  0.5212200280000019  0.4252660896114264  0.5203899739999969   F   F   F
  0.4023286513962137  0.4250895172783376  0.5093816449323283   T   T   T
  0.5212200280000019  0.5427717147372562  0.5203899739999969   F   F   F
  0.5212200280000019  0.4841535664240482  0.5783626638499726   F   F   F
  0.4630811904452785  0.5796897477300835  0.6463952094575219   T   T   T
  0.5798513084913353  0.4841330892939268  0.5203899739999969   F   F   F
  0.5282308736729989  0.3674367181238697  0.5796863541447225   T   T   T
  0.3520695920866352  0.4846169889661955  0.5197818965454131   T   T   T
  0.4026223564817954  0.4743442567864194  0.5786533761316479   T   T   T
  0.5210549732862061  0.4844464803547407  0.3511755768701471   T   T   T
  0.3953742323939965  0.4256779230790939  0.4248279747065604   T   T   T
  0.6161983307580116  0.4264965633733905  0.3941986816911676   T   T   T
  0.6397363508985694  0.4736880548546437  0.4612608979139626   T   T   T
  0.4641638116308826  0.4268116521524590  0.4635435472142291   F   F   F
  0.4642268120283362  0.5414337674016210  0.4634884080096526   F   F   F
  0.5782131559716674  0.5414337674016210  0.4634884080096526   F   F   F
  0.5319680926010291  0.6032689074891107  0.4616187364554847   T   T   T
  0.5211114990461563  0.6540381017003069  0.5203856359990108   T   T   T
  0.4262852519857093  0.6106811064324985  0.5782838115345327   T   T   T
  0.6393640597930240  0.4251236675745481  0.5303132741531771   T   T   T
  0.4263448217550292  0.3577103638377810  0.4618515603842805   T   T   T
  0.4269745002689769  0.5425128285008849  0.3938499578580958   T   T   T
  0.4607056295821483  0.3587900674819715  0.6172439038832543   T   T   T
  0.6487477341711171  0.4267475156334833  0.6215640716204610   T   T   T
  0.5782131559716674  0.5414337674016210  0.5772915699903507   F   F   F
  0.5316148168640642  0.4254274875844922  0.4021068834183604   T   T   T
  0.5212200280000019  0.4841535664240482  0.4624173141500307   F   F   F
  0.6476830730504242  0.5787908308887908  0.5792606449009677   T   T   T
  0.5314338817134650  0.5433981835285278  0.6385793450011932   T   T   T
  0.4642268120283362  0.5414337674016210  0.5772915699903507   F   F   F
  0.4615185362147934  0.4953226481609183  0.6386046423567975   T   T   T
  0.5800673878604372  0.4948799090815630  0.4019117909483638   T   T   T
  0.6467856439039033  0.3884210188198685  0.4615794199739890   T   T   T
  0.5782761563691210  0.4268116521524590  0.5772364307857742   F   F   F
  0.3947947460201752  0.5428295219944609  0.6149839941125467   T   T   T
  0.5211905663717948  0.3150458253413065  0.5226145815353077   T   T   T
  0.6165584730526088  0.5405162640611564  0.6461448424477781   T   T   T
  0.3939789633278883  0.3900925332932985  0.5783627711120685   T   T   T
  0.5109977902870596  0.5433856039112223  0.4021865222289461   T   T   T
  0.6163199593699216  0.6103660968363462  0.4623709042448184   T   T   T
  0.5792830579719843  0.5797185873129451  0.3943002025389512   T   T   T
  0.5802715828786891  0.3657136540766983  0.5106530236270572   T   T   T
  0.4625886595086683  0.4841330892939268  0.5203899739999969   F   F   F
  0.5803270177556260  0.6032110500633587  0.5312415632559928   T   T   T
  0.5795672976316638  0.6096788313596443  0.6162686024577109   T   T   T
  0.5108183225406232  0.3648711226897815  0.4624204212690398   T   T   T
  0.4639533066415328  0.3885747231091140  0.3944913421063365   T   T   T
  0.5746611995677002  0.3894588893104663  0.6466941769444621   T   T   T
  0.5078520827567184  0.4257247675165151  0.6404731298773415   T   T   T
  0.6902565299359503  0.4845878490981713  0.5202464170258112   T   T   T
  0.4028922666598317  0.4945801946276512  0.4608542575481159   T   T   T
  0.6746756909107924  0.3454905282524016  0.6014442177739293   T   T   T
  0.6946591258288213  0.3748782605927095  0.6278154047193260   T   T   T
  0.6999062401735315  0.3077336058122883  0.5894098088665519   T   T   T
  0.7305229146056181  0.3107878254259401  0.6039713582112384   T   T   T
 
  0.00000000E+00  0.00000000E+00  0.00000000E+00
  0.00000000E+00  0.00000000E+00  0.00000000E+00
  0.00000000E+00  0.00000000E+00  0.00000000E+00
  0.00000000E+00  0.00000000E+00  0.00000000E+00
  0.00000000E+00  0.00000000E+00  0.00000000E+00
  0.00000000E+00  0.00000000E+00  0.00000000E+00
  0.00000000E+00  0.00000000E+00  0.00000000E+00
  0.00000000E+00  0.00000000E+00  0.00000000E+00
  0.00000000E+00  0.00000000E+00  0.00000000E+00
  0.00000000E+00  0.00000000E+00  0.00000000E+00
  0.00000000E+00  0.00000000E+00  0.00000000E+00
  0.00000000E+00  0.00000000E+00  0.00000000E+00
  0.00000000E+00  0.00000000E+00  0.00000000E+00
  0.00000000E+00  0.00000000E+00  0.00000000E+00
  0.00000000E+00  0.00000000E+00  0.00000000E+00
  0.00000000E+00  0.00000000E+00  0.00000000E+00
  0.00000000E+00  0.00000000E+00  0.00000000E+00
  0.00000000E+00  0.00000000E+00  0.00000000E+00
  0.00000000E+00  0.00000000E+00  0.00000000E+00
  0.00000000E+00  0.00000000E+00  0.00000000E+00
  0.00000000E+00  0.00000000E+00  0.00000000E+00
  0.00000000E+00  0.00000000E+00  0.00000000E+00
  0.00000000E+00  0.00000000E+00  0.00000000E+00
  0.00000000E+00  0.00000000E+00  0.00000000E+00
  0.00000000E+00  0.00000000E+00  0.00000000E+00
  0.00000000E+00  0.00000000E+00  0.00000000E+00
  0.00000000E+00  0.00000000E+00  0.00000000E+00
  0.00000000E+00  0.00000000E+00  0.00000000E+00
  0.00000000E+00  0.00000000E+00  0.00000000E+00
  0.00000000E+00  0.00000000E+00  0.00000000E+00
  0.00000000E+00  0.00000000E+00  0.00000000E+00
  0.00000000E+00  0.00000000E+00  0.00000000E+00
  0.00000000E+00  0.00000000E+00  0.00000000E+00
  0.00000000E+00  0.00000000E+00  0.00000000E+00
  0.00000000E+00  0.00000000E+00  0.00000000E+00
  0.00000000E+00  0.00000000E+00  0.00000000E+00
  0.00000000E+00  0.00000000E+00  0.00000000E+00
  0.00000000E+00  0.00000000E+00  0.00000000E+00
  0.00000000E+00  0.00000000E+00  0.00000000E+00
  0.00000000E+00  0.00000000E+00  0.00000000E+00
  0.00000000E+00  0.00000000E+00  0.00000000E+00
  0.00000000E+00  0.00000000E+00  0.00000000E+00
  0.00000000E+00  0.00000000E+00  0.00000000E+00
  0.00000000E+00  0.00000000E+00  0.00000000E+00
  0.00000000E+00  0.00000000E+00  0.00000000E+00
  0.00000000E+00  0.00000000E+00  0.00000000E+00
  0.00000000E+00  0.00000000E+00  0.00000000E+00
  0.00000000E+00  0.00000000E+00  0.00000000E+00
  0.00000000E+00  0.00000000E+00  0.00000000E+00
  0.00000000E+00  0.00000000E+00  0.00000000E+00
  0.00000000E+00  0.00000000E+00  0.00000000E+00
  0.00000000E+00  0.00000000E+00  0.00000000E+00
  0.00000000E+00  0.00000000E+00  0.00000000E+00
  0.00000000E+00  0.00000000E+00  0.00000000E+00
  0.00000000E+00  0.00000000E+00  0.00000000E+00
  0.00000000E+00  0.00000000E+00  0.00000000E+00
  0.00000000E+00  0.00000000E+00  0.00000000E+00
  0.00000000E+00  0.00000000E+00  0.00000000E+00
  0.00000000E+00  0.00000000E+00  0.00000000E+00
  0.00000000E+00  0.00000000E+00  0.00000000E+00
  0.00000000E+00  0.00000000E+00  0.00000000E+00
  0.00000000E+00  0.00000000E+00  0.00000000E+00
  0.00000000E+00  0.00000000E+00  0.00000000E+00
  0.00000000E+00  0.00000000E+00  0.00000000E+00
  0.00000000E+00  0.00000000E+00  0.00000000E+00
  0.00000000E+00  0.00000000E+00  0.00000000E+00
  0.00000000E+00  0.00000000E+00  0.00000000E+00
  0.00000000E+00  0.00000000E+00  0.00000000E+00
  0.00000000E+00  0.00000000E+00  0.00000000E+00
  0.00000000E+00  0.00000000E+00  0.00000000E+00
  0.00000000E+00  0.00000000E+00  0.00000000E+00
  0.00000000E+00  0.00000000E+00  0.00000000E+00
