Co C  O  H                              
   1.00000000000000     
    29.0000000000000000    0.0000000000000000    0.0000000000000000
     0.0000000000000000   29.0000000000000000    0.0000000000000000
     0.0000000000000000    0.0000000000000000   29.0000000000000000
   Co   C    O    H 
    68     1     2     1
Selective dynamics
Direct
  0.5199526788773688  0.4814159731802349  0.6900960406185013   T   T   T
  0.3956209438215376  0.5797245007100902  0.4624111587202984   T   T   T
  0.4033014056434591  0.5419440638815537  0.5294444631006218   T   T   T
  0.5782761563691210  0.4268116521524590  0.4635435472142291   F   F   F
  0.4641638116308826  0.4268116521524590  0.5772364307857742   F   F   F
  0.6397472425957673  0.5431275434036504  0.5084419484037583   T   T   T
  0.4618575320582534  0.4735275065006302  0.4023071467104224   T   T   T
  0.4628865889774336  0.3654852328571576  0.5302094929018478   T   T   T
  0.5793518563740632  0.4742728754843005  0.6382741314329740   T   T   T
  0.4271591463962455  0.4229666535836614  0.6464245785156413   T   T   T
  0.5117703629491928  0.6048187390017754  0.5806761135435686   T   T   T
  0.5797006887678281  0.3568137274568912  0.4266002590596621   T   T   T
  0.4629782564320084  0.6021275571983927  0.5109511750618305   T   T   T
  0.4630600330800508  0.6108898580513867  0.4256280115386930   T   T   T
  0.6380369194085235  0.4931097308772149  0.5789419578587298   T   T   T
  0.6473424238500958  0.5419655244780103  0.4242693278301136   T   T   T
  0.6163878636156762  0.3579923541499324  0.5800413272554931   T   T   T
  0.5212200280000019  0.4252660896114264  0.5203899739999969   F   F   F
  0.4023151151456797  0.4234170281792620  0.5108389010174536   T   T   T
  0.5212200280000019  0.5427717147372562  0.5203899739999969   F   F   F
  0.5212200280000019  0.4841535664240482  0.5783626638499726   F   F   F
  0.4586546476401762  0.5782898711432765  0.6488148354374412   T   T   T
  0.5798513084913353  0.4841330892939268  0.5203899739999969   F   F   F
  0.5318446073403831  0.3653280739559485  0.5799189207299945   T   T   T
  0.3527876536816963  0.4797848811070363  0.5196409674874195   T   T   T
  0.4026371326807748  0.4715729335698317  0.5813870232321425   T   T   T
  0.5221132465363035  0.4826199799756529  0.3501199582205176   T   T   T
  0.3953009260152806  0.4251973633022935  0.4248855538009919   T   T   T
  0.6146122475018146  0.4253926561097012  0.3932268168194637   T   T   T
  0.6392061918618460  0.4733734008043766  0.4602800499668940   T   T   T
  0.4641638116308826  0.4268116521524590  0.4635435472142291   F   F   F
  0.4642268120283362  0.5414337674016210  0.4634884080096526   F   F   F
  0.5782131559716674  0.5414337674016210  0.4634884080096526   F   F   F
  0.5315191837830899  0.6021888211137465  0.4599720533284140   T   T   T
  0.5231165946474773  0.6526515067347487  0.5179836384585846   T   T   T
  0.4231405036337814  0.6094378301575440  0.5761128200606040   T   T   T
  0.6389792267743515  0.4240362929638015  0.5299300926839224   T   T   T
  0.4276312086189084  0.3568273225597863  0.4619386334178489   T   T   T
  0.4266407613962531  0.5431168323168510  0.3938644094186203   T   T   T
  0.4632365950174394  0.3561319260287737  0.6133822701874840   T   T   T
  0.6471503009165880  0.4265082154317141  0.6162454226742246   T   T   T
  0.5782131559716674  0.5414337674016210  0.5772915699903507   F   F   F
  0.5306794691245903  0.4237084057410510  0.4034349432284736   T   T   T
  0.5212200280000019  0.4841535664240482  0.4624173141500307   F   F   F
  0.6508399380849771  0.5743507047675088  0.5777523571854056   T   T   T
  0.5295538424314585  0.5419837926233366  0.6369720440852747   T   T   T
  0.4642268120283362  0.5414337674016210  0.5772915699903507   F   F   F
  0.4610769459649163  0.4927134344142838  0.6372375929841254   T   T   T
  0.5802397078253908  0.4940061309454075  0.4030890138832111   T   T   T
  0.6476990812506397  0.3891530178636664  0.4610474555466679   T   T   T
  0.5782761563691210  0.4268116521524590  0.5772364307857742   F   F   F
  0.3931446115430168  0.5409839588673512  0.6122311596484689   T   T   T
  0.5219324967000085  0.3126448670306374  0.5202135895338067   T   T   T
  0.6170202646040722  0.5409689486552924  0.6459662655941530   T   T   T
  0.3928743191677801  0.3869344816859695  0.5754580237800453   T   T   T
  0.5106139268042599  0.5427501569918085  0.4021569979207452   T   T   T
  0.6159342632283075  0.6106947689986030  0.4604229527111711   T   T   T
  0.5791066848829411  0.5781495398591923  0.3929760319015647   T   T   T
  0.5811787772111300  0.3660458787253935  0.5108548357640318   T   T   T
  0.4625886595086683  0.4841330892939268  0.5203899739999969   F   F   F
  0.5813960764078316  0.6013048424035705  0.5293284785157691   T   T   T
  0.5870446700081308  0.6116838270013014  0.6133928311571608   T   T   T
  0.5111102086270614  0.3656091218239012  0.4613092640256448   T   T   T
  0.4627708259321905  0.3887991795819581  0.3938334680497888   T   T   T
  0.5795580812882172  0.3900853447330124  0.6475309631804524   T   T   T
  0.5102332410414139  0.4229058427879776  0.6379695195866607   T   T   T
  0.6917185222504857  0.4842212819519406  0.5198992629623065   T   T   T
  0.4041497899244549  0.4935832850847059  0.4593772999850824   T   T   T
  0.5099268943573729  0.6495914208228777  0.6279991688502210   T   T   T
  0.4809867725896432  0.6514580713695891  0.6605974260135790   T   T   T
  0.5479099678379272  0.6803304630656276  0.6327985580641000   T   T   T
  0.5446941588379891  0.6951477688859052  0.6633232099917065   T   T   T
 
  0.00000000E+00  0.00000000E+00  0.00000000E+00
  0.00000000E+00  0.00000000E+00  0.00000000E+00
  0.00000000E+00  0.00000000E+00  0.00000000E+00
  0.00000000E+00  0.00000000E+00  0.00000000E+00
  0.00000000E+00  0.00000000E+00  0.00000000E+00
  0.00000000E+00  0.00000000E+00  0.00000000E+00
  0.00000000E+00  0.00000000E+00  0.00000000E+00
  0.00000000E+00  0.00000000E+00  0.00000000E+00
  0.00000000E+00  0.00000000E+00  0.00000000E+00
  0.00000000E+00  0.00000000E+00  0.00000000E+00
  0.00000000E+00  0.00000000E+00  0.00000000E+00
  0.00000000E+00  0.00000000E+00  0.00000000E+00
  0.00000000E+00  0.00000000E+00  0.00000000E+00
  0.00000000E+00  0.00000000E+00  0.00000000E+00
  0.00000000E+00  0.00000000E+00  0.00000000E+00
  0.00000000E+00  0.00000000E+00  0.00000000E+00
  0.00000000E+00  0.00000000E+00  0.00000000E+00
  0.00000000E+00  0.00000000E+00  0.00000000E+00
  0.00000000E+00  0.00000000E+00  0.00000000E+00
  0.00000000E+00  0.00000000E+00  0.00000000E+00
  0.00000000E+00  0.00000000E+00  0.00000000E+00
  0.00000000E+00  0.00000000E+00  0.00000000E+00
  0.00000000E+00  0.00000000E+00  0.00000000E+00
  0.00000000E+00  0.00000000E+00  0.00000000E+00
  0.00000000E+00  0.00000000E+00  0.00000000E+00
  0.00000000E+00  0.00000000E+00  0.00000000E+00
  0.00000000E+00  0.00000000E+00  0.00000000E+00
  0.00000000E+00  0.00000000E+00  0.00000000E+00
  0.00000000E+00  0.00000000E+00  0.00000000E+00
  0.00000000E+00  0.00000000E+00  0.00000000E+00
  0.00000000E+00  0.00000000E+00  0.00000000E+00
  0.00000000E+00  0.00000000E+00  0.00000000E+00
  0.00000000E+00  0.00000000E+00  0.00000000E+00
  0.00000000E+00  0.00000000E+00  0.00000000E+00
  0.00000000E+00  0.00000000E+00  0.00000000E+00
  0.00000000E+00  0.00000000E+00  0.00000000E+00
  0.00000000E+00  0.00000000E+00  0.00000000E+00
  0.00000000E+00  0.00000000E+00  0.00000000E+00
  0.00000000E+00  0.00000000E+00  0.00000000E+00
  0.00000000E+00  0.00000000E+00  0.00000000E+00
  0.00000000E+00  0.00000000E+00  0.00000000E+00
  0.00000000E+00  0.00000000E+00  0.00000000E+00
  0.00000000E+00  0.00000000E+00  0.00000000E+00
  0.00000000E+00  0.00000000E+00  0.00000000E+00
  0.00000000E+00  0.00000000E+00  0.00000000E+00
  0.00000000E+00  0.00000000E+00  0.00000000E+00
  0.00000000E+00  0.00000000E+00  0.00000000E+00
  0.00000000E+00  0.00000000E+00  0.00000000E+00
  0.00000000E+00  0.00000000E+00  0.00000000E+00
  0.00000000E+00  0.00000000E+00  0.00000000E+00
  0.00000000E+00  0.00000000E+00  0.00000000E+00
  0.00000000E+00  0.00000000E+00  0.00000000E+00
  0.00000000E+00  0.00000000E+00  0.00000000E+00
  0.00000000E+00  0.00000000E+00  0.00000000E+00
  0.00000000E+00  0.00000000E+00  0.00000000E+00
  0.00000000E+00  0.00000000E+00  0.00000000E+00
  0.00000000E+00  0.00000000E+00  0.00000000E+00
  0.00000000E+00  0.00000000E+00  0.00000000E+00
  0.00000000E+00  0.00000000E+00  0.00000000E+00
  0.00000000E+00  0.00000000E+00  0.00000000E+00
  0.00000000E+00  0.00000000E+00  0.00000000E+00
  0.00000000E+00  0.00000000E+00  0.00000000E+00
  0.00000000E+00  0.00000000E+00  0.00000000E+00
  0.00000000E+00  0.00000000E+00  0.00000000E+00
  0.00000000E+00  0.00000000E+00  0.00000000E+00
  0.00000000E+00  0.00000000E+00  0.00000000E+00
  0.00000000E+00  0.00000000E+00  0.00000000E+00
  0.00000000E+00  0.00000000E+00  0.00000000E+00
  0.00000000E+00  0.00000000E+00  0.00000000E+00
  0.00000000E+00  0.00000000E+00  0.00000000E+00
  0.00000000E+00  0.00000000E+00  0.00000000E+00
  0.00000000E+00  0.00000000E+00  0.00000000E+00
