Co C  O  H                              
   1.00000000000000     
    29.0000000000000000    0.0000000000000000    0.0000000000000000
     0.0000000000000000   29.0000000000000000    0.0000000000000000
     0.0000000000000000    0.0000000000000000   29.0000000000000000
   Co   C    O    H 
    68     1     2     1
Selective dynamics
Direct
  0.5286139258473124  0.4919747645409144  0.6883319174103666   T   T   T
  0.4288994142522418  0.6118848753523820  0.4584089805289416   T   T   T
  0.4039432682462558  0.5444782831078714  0.5097634510611480   T   T   T
  0.5782761563691210  0.4268116521524590  0.4635435472142291   F   F   F
  0.4641638116308826  0.4268116521524590  0.5772364307857742   F   F   F
  0.6365133996894585  0.5448339521281180  0.5244960111695876   T   T   T
  0.4630619304268628  0.4913257778599475  0.4044565427766483   T   T   T
  0.4593976161815418  0.3613967595455127  0.5357494419313467   T   T   T
  0.5801687918117344  0.4751898201158349  0.6361665302623913   T   T   T
  0.4277439209541387  0.4244253400046888  0.6498439200221707   T   T   T
  0.5300615826245693  0.6052200601004996  0.5699409973403122   T   T   T
  0.5684408915779315  0.3543518928267119  0.4258396303064135   T   T   T
  0.4583941606042248  0.6029050969490632  0.5298246813287181   T   T   T
  0.4598560642305453  0.5745492398313847  0.3912086540117315   T   T   T
  0.6391485413324122  0.4921937739156212  0.5833126497994215   T   T   T
  0.6131635715400147  0.5457076480503249  0.3902545266446273   T   T   T
  0.6145660033887521  0.3559311751309095  0.5767722621955788   T   T   T
  0.5212200280000019  0.4252660896114264  0.5203899739999969   F   F   F
  0.4054407679575329  0.4234950473066545  0.5183211607464036   T   T   T
  0.5212200280000019  0.5427717147372562  0.5203899739999969   F   F   F
  0.5212200280000019  0.4841535664240482  0.5783626638499726   F   F   F
  0.4662382150751841  0.6131582924968914  0.6142602181890684   T   T   T
  0.5798513084913353  0.4841330892939268  0.5203899739999969   F   F   F
  0.5310362542454544  0.3663891920462337  0.5804312467641058   T   T   T
  0.3576296027231656  0.4865053824939004  0.5281117044763058   T   T   T
  0.4064754427163952  0.4824376159537473  0.5870819988526668   T   T   T
  0.5177807543086484  0.4830597316167480  0.3518555178803792   T   T   T
  0.4317841909689027  0.4179665977424493  0.3921788724272518   T   T   T
  0.6063432644488319  0.4129817739167133  0.3898567998642427   T   T   T
  0.6371940462292485  0.4840022096230013  0.4598296009156463   T   T   T
  0.4641638116308826  0.4268116521524590  0.4635435472142291   F   F   F
  0.4642268120283362  0.5414337674016210  0.4634884080096526   F   F   F
  0.5782131559716674  0.5414337674016210  0.4634884080096526   F   F   F
  0.5112960944117677  0.6016833424611514  0.4606601386037202   T   T   T
  0.5163931119705029  0.6558961509144439  0.5134804733596744   T   T   T
  0.3899723935686449  0.5632587792602630  0.5828793234768650   T   T   T
  0.6377828203336566  0.4263255202284850  0.5264348673161607   T   T   T
  0.4225477745472162  0.3635666970209295  0.4650003501946294   T   T   T
  0.3942772019432838  0.5444445863904455  0.4251132791225097   T   T   T
  0.4627025834925717  0.3578422755030224  0.6183008006572376   T   T   T
  0.6505633097487570  0.4204679545753216  0.6092064776102999   T   T   T
  0.5782131559716674  0.5414337674016210  0.5772915699903507   F   F   F
  0.5208159043350119  0.4231922758825800  0.4045294555996504   T   T   T
  0.5212200280000019  0.4841535664240482  0.4624173141500307   F   F   F
  0.6116297534147044  0.6110779022473508  0.5795350998031924   T   T   T
  0.5194480222340147  0.5501371706232452  0.6350671320101841   T   T   T
  0.4642268120283362  0.5414337674016210  0.5772915699903507   F   F   F
  0.4692990980929377  0.4868081558266728  0.6384623604934087   T   T   T
  0.5769953928809750  0.4809103403981519  0.4041557155717717   T   T   T
  0.6451687596457567  0.3891444152460314  0.4589967287468089   T   T   T
  0.5782761563691210  0.4268116521524590  0.5772364307857742   F   F   F
  0.4319826478302955  0.5514678434858920  0.6505147482869491   T   T   T
  0.5236706916635142  0.3112669149841359  0.5282040818535019   T   T   T
  0.5989351641413172  0.5485757694855903  0.6534686245529552   T   T   T
  0.3926706859146489  0.3929251045814210  0.5864249607892741   T   T   T
  0.5293951886995237  0.5452838090151297  0.4011796271059251   T   T   T
  0.6497562354293948  0.5730635391860923  0.4548557783239657   T   T   T
  0.5794934310662589  0.6110773611646459  0.4246608407771596   T   T   T
  0.5800678062990205  0.3641649148275978  0.5095672893516112   T   T   T
  0.4625886595086683  0.4841330892939268  0.5203899739999969   F   F   F
  0.5820095927280481  0.6054841418759749  0.5073169363375996   T   T   T
  0.5534501326375173  0.6205299926388266  0.6420666842660204   T   T   T
  0.5069735650465961  0.3606715605714187  0.4711639259535009   T   T   T
  0.4757747895203540  0.3572575962856013  0.3984353656063199   T   T   T
  0.5844046951131676  0.3899463741110284  0.6460839681910769   T   T   T
  0.5143192038532138  0.4228009057286505  0.6405584426088836   T   T   T
  0.6882804545595782  0.4850234479445860  0.5205074056062482   T   T   T
  0.4025432166404753  0.4756777096528915  0.4596123415003150   T   T   T
  0.6165045761289525  0.6283641201630658  0.6607147804266319   T   T   T
  0.6387449083738249  0.6043237070840174  0.6894103233192508   T   T   T
  0.6437396674653189  0.6586439251251422  0.6325001421360453   T   T   T
  0.6762386808805061  0.6536867828528967  0.6413319471515943   T   T   T
 
  0.00000000E+00  0.00000000E+00  0.00000000E+00
  0.00000000E+00  0.00000000E+00  0.00000000E+00
  0.00000000E+00  0.00000000E+00  0.00000000E+00
  0.00000000E+00  0.00000000E+00  0.00000000E+00
  0.00000000E+00  0.00000000E+00  0.00000000E+00
  0.00000000E+00  0.00000000E+00  0.00000000E+00
  0.00000000E+00  0.00000000E+00  0.00000000E+00
  0.00000000E+00  0.00000000E+00  0.00000000E+00
  0.00000000E+00  0.00000000E+00  0.00000000E+00
  0.00000000E+00  0.00000000E+00  0.00000000E+00
  0.00000000E+00  0.00000000E+00  0.00000000E+00
  0.00000000E+00  0.00000000E+00  0.00000000E+00
  0.00000000E+00  0.00000000E+00  0.00000000E+00
  0.00000000E+00  0.00000000E+00  0.00000000E+00
  0.00000000E+00  0.00000000E+00  0.00000000E+00
  0.00000000E+00  0.00000000E+00  0.00000000E+00
  0.00000000E+00  0.00000000E+00  0.00000000E+00
  0.00000000E+00  0.00000000E+00  0.00000000E+00
  0.00000000E+00  0.00000000E+00  0.00000000E+00
  0.00000000E+00  0.00000000E+00  0.00000000E+00
  0.00000000E+00  0.00000000E+00  0.00000000E+00
  0.00000000E+00  0.00000000E+00  0.00000000E+00
  0.00000000E+00  0.00000000E+00  0.00000000E+00
  0.00000000E+00  0.00000000E+00  0.00000000E+00
  0.00000000E+00  0.00000000E+00  0.00000000E+00
  0.00000000E+00  0.00000000E+00  0.00000000E+00
  0.00000000E+00  0.00000000E+00  0.00000000E+00
  0.00000000E+00  0.00000000E+00  0.00000000E+00
  0.00000000E+00  0.00000000E+00  0.00000000E+00
  0.00000000E+00  0.00000000E+00  0.00000000E+00
  0.00000000E+00  0.00000000E+00  0.00000000E+00
  0.00000000E+00  0.00000000E+00  0.00000000E+00
  0.00000000E+00  0.00000000E+00  0.00000000E+00
  0.00000000E+00  0.00000000E+00  0.00000000E+00
  0.00000000E+00  0.00000000E+00  0.00000000E+00
  0.00000000E+00  0.00000000E+00  0.00000000E+00
  0.00000000E+00  0.00000000E+00  0.00000000E+00
  0.00000000E+00  0.00000000E+00  0.00000000E+00
  0.00000000E+00  0.00000000E+00  0.00000000E+00
  0.00000000E+00  0.00000000E+00  0.00000000E+00
  0.00000000E+00  0.00000000E+00  0.00000000E+00
  0.00000000E+00  0.00000000E+00  0.00000000E+00
  0.00000000E+00  0.00000000E+00  0.00000000E+00
  0.00000000E+00  0.00000000E+00  0.00000000E+00
  0.00000000E+00  0.00000000E+00  0.00000000E+00
  0.00000000E+00  0.00000000E+00  0.00000000E+00
  0.00000000E+00  0.00000000E+00  0.00000000E+00
  0.00000000E+00  0.00000000E+00  0.00000000E+00
  0.00000000E+00  0.00000000E+00  0.00000000E+00
  0.00000000E+00  0.00000000E+00  0.00000000E+00
  0.00000000E+00  0.00000000E+00  0.00000000E+00
  0.00000000E+00  0.00000000E+00  0.00000000E+00
  0.00000000E+00  0.00000000E+00  0.00000000E+00
  0.00000000E+00  0.00000000E+00  0.00000000E+00
  0.00000000E+00  0.00000000E+00  0.00000000E+00
  0.00000000E+00  0.00000000E+00  0.00000000E+00
  0.00000000E+00  0.00000000E+00  0.00000000E+00
  0.00000000E+00  0.00000000E+00  0.00000000E+00
  0.00000000E+00  0.00000000E+00  0.00000000E+00
  0.00000000E+00  0.00000000E+00  0.00000000E+00
  0.00000000E+00  0.00000000E+00  0.00000000E+00
  0.00000000E+00  0.00000000E+00  0.00000000E+00
  0.00000000E+00  0.00000000E+00  0.00000000E+00
  0.00000000E+00  0.00000000E+00  0.00000000E+00
  0.00000000E+00  0.00000000E+00  0.00000000E+00
  0.00000000E+00  0.00000000E+00  0.00000000E+00
  0.00000000E+00  0.00000000E+00  0.00000000E+00
  0.00000000E+00  0.00000000E+00  0.00000000E+00
  0.00000000E+00  0.00000000E+00  0.00000000E+00
  0.00000000E+00  0.00000000E+00  0.00000000E+00
  0.00000000E+00  0.00000000E+00  0.00000000E+00
  0.00000000E+00  0.00000000E+00  0.00000000E+00
