Co C  O  H                              
   1.00000000000000     
    29.0000000000000000    0.0000000000000000    0.0000000000000000
     0.0000000000000000   29.0000000000000000    0.0000000000000000
     0.0000000000000000    0.0000000000000000   29.0000000000000000
   Co   C    O    H 
    68     1     2     1
Selective dynamics
Direct
  0.5268673488018800  0.4863255042628076  0.6892240030274532   T   T   T
  0.3951704733437564  0.5805068087706980  0.4577715418669995   T   T   T
  0.4022994115649755  0.5332357423976609  0.5167193918003053   T   T   T
  0.5782761563691210  0.4268116521524590  0.4635435472142291   F   F   F
  0.4641638116308826  0.4268116521524590  0.5772364307857742   F   F   F
  0.6401054799786192  0.5433233419250886  0.5310814218379379   T   T   T
  0.4713643173888443  0.4861077517668185  0.4021809819186583   T   T   T
  0.4603066086615694  0.3657694403200113  0.5091379905638670   T   T   T
  0.5812397187414554  0.4919922590538168  0.6379929875672860   T   T   T
  0.3941656385493417  0.4176603196493696  0.6142325653204894   T   T   T
  0.5315545980942538  0.6008243902055445  0.5802634620828738   T   T   T
  0.5851201420994541  0.3890652092521393  0.3945988635049626   T   T   T
  0.4517224772063741  0.5997444211637789  0.5205474613857490   T   T   T
  0.4620109345352701  0.6103178946581206  0.4211243226931521   T   T   T
  0.6405588522297047  0.4727590749833248  0.5775425782387946   T   T   T
  0.6040571291548537  0.5460681276791487  0.3902197920462538   T   T   T
  0.6472011331984491  0.3891182999766783  0.5773209806157170   T   T   T
  0.5212200280000019  0.4252660896114264  0.5203899739999969   F   F   F
  0.4062373043284709  0.4223177896830847  0.5292906662389463   T   T   T
  0.5212200280000019  0.5427717147372562  0.5203899739999969   F   F   F
  0.5212200280000019  0.4841535664240482  0.5783626638499726   F   F   F
  0.4589252989583822  0.6160717756255434  0.6011335456140400   T   T   T
  0.5798513084913353  0.4841330892939268  0.5203899739999969   F   F   F
  0.5134870299733818  0.3655312480349935  0.5788225183845110   T   T   T
  0.3511853125729615  0.4729029602185209  0.5118570007238548   T   T   T
  0.4036945351157807  0.4891169101647096  0.5819904693719854   T   T   T
  0.5306547370993270  0.4896480176502374  0.3526783351245947   T   T   T
  0.4294781492430013  0.4234965828148315  0.3905874794152567   T   T   T
  0.6500635919718306  0.4259169692840666  0.4275266408761503   T   T   T
  0.6397665829118272  0.4955098375606110  0.4610084332264064   T   T   T
  0.4641638116308826  0.4268116521524590  0.4635435472142291   F   F   F
  0.4642268120283362  0.5414337674016210  0.4634884080096526   F   F   F
  0.5782131559716674  0.5414337674016210  0.4634884080096526   F   F   F
  0.5169238323385132  0.6039963925570292  0.4720285481689431   T   T   T
  0.5110058802608550  0.6530838340196816  0.5311551456452251   T   T   T
  0.3922446049902642  0.5768764647481838  0.5795760396081571   T   T   T
  0.6404595425565509  0.4246698193257991  0.5093056803414142   T   T   T
  0.3890387546951564  0.4038468310679484  0.4568957292556666   T   T   T
  0.4265447177035169  0.5454374354573291  0.3923345291070578   T   T   T
  0.4642992211384618  0.3875366299516494  0.6488421293095421   T   T   T
  0.6149885268509432  0.4245803652583641  0.6480963174589092   T   T   T
  0.5782131559716674  0.5414337674016210  0.5772915699903507   F   F   F
  0.5151055999323849  0.4207633268918350  0.4023729311320767   T   T   T
  0.5212200280000019  0.4841535664240482  0.4624173141500307   F   F   F
  0.6173843666018378  0.6092548076304166  0.5833649036965172   T   T   T
  0.5114667313129311  0.5461619859066190  0.6377009534512882   T   T   T
  0.4642268120283362  0.5414337674016210  0.5772915699903507   F   F   F
  0.4631066017645576  0.4770988801531216  0.6369320248263870   T   T   T
  0.5816606032328464  0.4745455224789325  0.4049570864669918   T   T   T
  0.6175309981403477  0.3573777922783477  0.4633009846717184   T   T   T
  0.5782761563691210  0.4268116521524590  0.5772364307857742   F   F   F
  0.4287345762302092  0.5474203182234298  0.6461590437794195   T   T   T
  0.5188248929432877  0.3143393464797572  0.5246735107178434   T   T   T
  0.6488936702518793  0.5394859181989454  0.6150310795786859   T   T   T
  0.4277692942268679  0.3556642742036230  0.5774838747276172   T   T   T
  0.5216777680055972  0.5510411114071045  0.4042323312437580   T   T   T
  0.6470250904783313  0.5800102804946318  0.4587238794999735   T   T   T
  0.5764113810489008  0.6127237009675580  0.4255779510677866   T   T   T
  0.5815050613463510  0.3657885394631318  0.5309824835311849   T   T   T
  0.4625886595086683  0.4841330892939268  0.5203899739999969   F   F   F
  0.5830995014815420  0.6029711620441435  0.5137973193955990   T   T   T
  0.5816320594528469  0.5756234456444094  0.6489592323345700   T   T   T
  0.5318265753826992  0.3650500924804929  0.4616164833596472   T   T   T
  0.4609836307612902  0.3580016525475696  0.4278152149508119   T   T   T
  0.5787396305229865  0.3588561499943724  0.6196227131886136   T   T   T
  0.5297113817916944  0.4254541832795004  0.6371812044214513   T   T   T
  0.6912576171074442  0.4847302411315623  0.5184847868767718   T   T   T
  0.4058549807026289  0.4840945215730903  0.4519897456301495   T   T   T
  0.3735431506161650  0.3833227688677660  0.6659757803326489   T   T   T
  0.3387695167341389  0.3890511235647429  0.6889194916827623   T   T   T
  0.4073089139416405  0.3497906115063563  0.6833232795514038   T   T   T
  0.3981125819433265  0.3408044473918710  0.7147778413596897   T   T   T
 
  0.00000000E+00  0.00000000E+00  0.00000000E+00
  0.00000000E+00  0.00000000E+00  0.00000000E+00
  0.00000000E+00  0.00000000E+00  0.00000000E+00
  0.00000000E+00  0.00000000E+00  0.00000000E+00
  0.00000000E+00  0.00000000E+00  0.00000000E+00
  0.00000000E+00  0.00000000E+00  0.00000000E+00
  0.00000000E+00  0.00000000E+00  0.00000000E+00
  0.00000000E+00  0.00000000E+00  0.00000000E+00
  0.00000000E+00  0.00000000E+00  0.00000000E+00
  0.00000000E+00  0.00000000E+00  0.00000000E+00
  0.00000000E+00  0.00000000E+00  0.00000000E+00
  0.00000000E+00  0.00000000E+00  0.00000000E+00
  0.00000000E+00  0.00000000E+00  0.00000000E+00
  0.00000000E+00  0.00000000E+00  0.00000000E+00
  0.00000000E+00  0.00000000E+00  0.00000000E+00
  0.00000000E+00  0.00000000E+00  0.00000000E+00
  0.00000000E+00  0.00000000E+00  0.00000000E+00
  0.00000000E+00  0.00000000E+00  0.00000000E+00
  0.00000000E+00  0.00000000E+00  0.00000000E+00
  0.00000000E+00  0.00000000E+00  0.00000000E+00
  0.00000000E+00  0.00000000E+00  0.00000000E+00
  0.00000000E+00  0.00000000E+00  0.00000000E+00
  0.00000000E+00  0.00000000E+00  0.00000000E+00
  0.00000000E+00  0.00000000E+00  0.00000000E+00
  0.00000000E+00  0.00000000E+00  0.00000000E+00
  0.00000000E+00  0.00000000E+00  0.00000000E+00
  0.00000000E+00  0.00000000E+00  0.00000000E+00
  0.00000000E+00  0.00000000E+00  0.00000000E+00
  0.00000000E+00  0.00000000E+00  0.00000000E+00
  0.00000000E+00  0.00000000E+00  0.00000000E+00
  0.00000000E+00  0.00000000E+00  0.00000000E+00
  0.00000000E+00  0.00000000E+00  0.00000000E+00
  0.00000000E+00  0.00000000E+00  0.00000000E+00
  0.00000000E+00  0.00000000E+00  0.00000000E+00
  0.00000000E+00  0.00000000E+00  0.00000000E+00
  0.00000000E+00  0.00000000E+00  0.00000000E+00
  0.00000000E+00  0.00000000E+00  0.00000000E+00
  0.00000000E+00  0.00000000E+00  0.00000000E+00
  0.00000000E+00  0.00000000E+00  0.00000000E+00
  0.00000000E+00  0.00000000E+00  0.00000000E+00
  0.00000000E+00  0.00000000E+00  0.00000000E+00
  0.00000000E+00  0.00000000E+00  0.00000000E+00
  0.00000000E+00  0.00000000E+00  0.00000000E+00
  0.00000000E+00  0.00000000E+00  0.00000000E+00
  0.00000000E+00  0.00000000E+00  0.00000000E+00
  0.00000000E+00  0.00000000E+00  0.00000000E+00
  0.00000000E+00  0.00000000E+00  0.00000000E+00
  0.00000000E+00  0.00000000E+00  0.00000000E+00
  0.00000000E+00  0.00000000E+00  0.00000000E+00
  0.00000000E+00  0.00000000E+00  0.00000000E+00
  0.00000000E+00  0.00000000E+00  0.00000000E+00
  0.00000000E+00  0.00000000E+00  0.00000000E+00
  0.00000000E+00  0.00000000E+00  0.00000000E+00
  0.00000000E+00  0.00000000E+00  0.00000000E+00
  0.00000000E+00  0.00000000E+00  0.00000000E+00
  0.00000000E+00  0.00000000E+00  0.00000000E+00
  0.00000000E+00  0.00000000E+00  0.00000000E+00
  0.00000000E+00  0.00000000E+00  0.00000000E+00
  0.00000000E+00  0.00000000E+00  0.00000000E+00
  0.00000000E+00  0.00000000E+00  0.00000000E+00
  0.00000000E+00  0.00000000E+00  0.00000000E+00
  0.00000000E+00  0.00000000E+00  0.00000000E+00
  0.00000000E+00  0.00000000E+00  0.00000000E+00
  0.00000000E+00  0.00000000E+00  0.00000000E+00
  0.00000000E+00  0.00000000E+00  0.00000000E+00
  0.00000000E+00  0.00000000E+00  0.00000000E+00
  0.00000000E+00  0.00000000E+00  0.00000000E+00
  0.00000000E+00  0.00000000E+00  0.00000000E+00
  0.00000000E+00  0.00000000E+00  0.00000000E+00
  0.00000000E+00  0.00000000E+00  0.00000000E+00
  0.00000000E+00  0.00000000E+00  0.00000000E+00
  0.00000000E+00  0.00000000E+00  0.00000000E+00
