Co C  O  H                              
   1.00000000000000     
    29.0000000000000000    0.0000000000000000    0.0000000000000000
     0.0000000000000000   29.0000000000000000    0.0000000000000000
     0.0000000000000000    0.0000000000000000   29.0000000000000000
   Co   C    O    H 
    68     1     2     1
Selective dynamics
Direct
  0.5221345341304611  0.4837538936267531  0.6897310472624263   T   T   T
  0.4271760042950790  0.6123434695506238  0.4638483145436100   T   T   T
  0.4046232547056878  0.5438120705546055  0.5126244697071182   T   T   T
  0.5782761563691210  0.4268116521524590  0.4635435472142291   F   F   F
  0.4641638116308826  0.4268116521524590  0.5772364307857742   F   F   F
  0.6389154520784008  0.5421357513439581  0.5293521484114498   T   T   T
  0.4625125313251738  0.4949789894739104  0.4018893649858468   T   T   T
  0.4617284777782936  0.3654080689334883  0.5103408195884299   T   T   T
  0.5808142452611809  0.4950517312529002  0.6386806715435219   T   T   T
  0.3958247387194851  0.4260248968650689  0.6162243116355083   T   T   T
  0.5324402651290638  0.6034079018158933  0.5792023206006822   T   T   T
  0.5780305600263681  0.3884055403983617  0.3941663467448832   T   T   T
  0.4633836341613554  0.6036645292841134  0.5316132187275894   T   T   T
  0.4636239740926125  0.5807587243040025  0.3958865852391704   T   T   T
  0.6393299606597356  0.4734415708924110  0.5809106847333430   T   T   T
  0.6153663375020836  0.5422577315951365  0.3930481356240200   T   T   T
  0.6490705707292113  0.3877555706756320  0.5762497388688036   T   T   T
  0.5212200280000019  0.4252660896114264  0.5203899739999969   F   F   F
  0.4025531495107965  0.4255566571004865  0.5311336199791962   T   T   T
  0.5212200280000019  0.5427717147372562  0.5203899739999969   F   F   F
  0.5212200280000019  0.4841535664240482  0.5783626638499726   F   F   F
  0.4649092750559160  0.6099640965257669  0.6168877437038527   T   T   T
  0.5798513084913353  0.4841330892939268  0.5203899739999969   F   F   F
  0.5106634305415627  0.3651325849275756  0.5795858066721102   T   T   T
  0.3528323561177358  0.4851568998687774  0.5205138139157918   T   T   T
  0.4028760040134486  0.4948876018201365  0.5803666617813065   T   T   T
  0.5211264782904965  0.4841734644548236  0.3510675005730771   T   T   T
  0.4260143793744361  0.4262807006422973  0.3945905076019634   T   T   T
  0.6463268353812163  0.4245499884605242  0.4243382160403563   T   T   T
  0.6378557607388927  0.4931492469035758  0.4592673415883303   T   T   T
  0.4641638116308826  0.4268116521524590  0.4635435472142291   F   F   F
  0.4642268120283362  0.5414337674016210  0.4634884080096526   F   F   F
  0.5782131559716674  0.5414337674016210  0.4634884080096526   F   F   F
  0.5124585398631488  0.6021437970207444  0.4620468593796581   T   T   T
  0.5231404591240938  0.6538820502768659  0.5198269710623059   T   T   T
  0.3958615668382851  0.5805522591005836  0.5807901371422592   T   T   T
  0.6407124775699597  0.4237062413903444  0.5112495851720034   T   T   T
  0.3945413704000445  0.3903093350255084  0.4625241325457801   T   T   T
  0.3917951413955697  0.5447084980204340  0.4262980083910965   T   T   T
  0.4640404383888851  0.3888195977412754  0.6467670023460591   T   T   T
  0.6152097058185648  0.4252236650314020  0.6462272246465844   T   T   T
  0.5782131559716674  0.5414337674016210  0.5772915699903507   F   F   F
  0.5105674676342249  0.4250482976222485  0.4022596803834667   T   T   T
  0.5212200280000019  0.4841535664240482  0.4624173141500307   F   F   F
  0.6170528682101838  0.6105498547741877  0.5780039192066919   T   T   T
  0.5119177046879526  0.5427055865249847  0.6384108579150191   T   T   T
  0.4642268120283362  0.5414337674016210  0.5772915699903507   F   F   F
  0.4631660547380417  0.4735505255781499  0.6388896382185941   T   T   T
  0.5799823574364794  0.4733394315760822  0.4013802325496174   T   T   T
  0.6148450238286327  0.3569881315574439  0.4620577623366903   T   T   T
  0.5782761563691210  0.4268116521524590  0.5772364307857742   F   F   F
  0.4274021202913169  0.5419087739987951  0.6474057018524796   T   T   T
  0.5201158078734468  0.3141645421964043  0.5204094097774769   T   T   T
  0.6479432225913491  0.5431441493107028  0.6139017748081530   T   T   T
  0.4262138942268283  0.3579030011310464  0.5792419028476606   T   T   T
  0.5312340921631540  0.5434749544495611  0.4019510944983923   T   T   T
  0.6475973634947186  0.5779806663443792  0.4607573100713940   T   T   T
  0.5799497658490416  0.6103609159146666  0.4246983325480195   T   T   T
  0.5792644973289438  0.3644826299176418  0.5306787487506150   T   T   T
  0.4625886595086683  0.4841330892939268  0.5203899739999969   F   F   F
  0.5814890732346597  0.6027999490822330  0.5098067928558538   T   T   T
  0.5798164871291270  0.5799441470685239  0.6460843985668554   T   T   T
  0.5310081401294783  0.3649574686067730  0.4614010036063558   T   T   T
  0.4621358411709108  0.3577604919462159  0.4260530039755127   T   T   T
  0.5790804248433762  0.3573553202966375  0.6145492039338529   T   T   T
  0.5323452997836582  0.4250351583747491  0.6389288910903902   T   T   T
  0.6900324626142835  0.4795725237348555  0.5186821422650478   T   T   T
  0.4036363183317423  0.4752214810023029  0.4612357876364793   T   T   T
  0.3624696420778448  0.6190591973496936  0.4678254694385296   T   T   T
  0.3364514780062044  0.5975384021261224  0.4399307530534110   T   T   T
  0.3420569857282353  0.6477022247050114  0.4993062509662113   T   T   T
  0.3085028393673569  0.6463149904125373  0.4937006212240328   T   T   T
 
  0.00000000E+00  0.00000000E+00  0.00000000E+00
  0.00000000E+00  0.00000000E+00  0.00000000E+00
  0.00000000E+00  0.00000000E+00  0.00000000E+00
  0.00000000E+00  0.00000000E+00  0.00000000E+00
  0.00000000E+00  0.00000000E+00  0.00000000E+00
  0.00000000E+00  0.00000000E+00  0.00000000E+00
  0.00000000E+00  0.00000000E+00  0.00000000E+00
  0.00000000E+00  0.00000000E+00  0.00000000E+00
  0.00000000E+00  0.00000000E+00  0.00000000E+00
  0.00000000E+00  0.00000000E+00  0.00000000E+00
  0.00000000E+00  0.00000000E+00  0.00000000E+00
  0.00000000E+00  0.00000000E+00  0.00000000E+00
  0.00000000E+00  0.00000000E+00  0.00000000E+00
  0.00000000E+00  0.00000000E+00  0.00000000E+00
  0.00000000E+00  0.00000000E+00  0.00000000E+00
  0.00000000E+00  0.00000000E+00  0.00000000E+00
  0.00000000E+00  0.00000000E+00  0.00000000E+00
  0.00000000E+00  0.00000000E+00  0.00000000E+00
  0.00000000E+00  0.00000000E+00  0.00000000E+00
  0.00000000E+00  0.00000000E+00  0.00000000E+00
  0.00000000E+00  0.00000000E+00  0.00000000E+00
  0.00000000E+00  0.00000000E+00  0.00000000E+00
  0.00000000E+00  0.00000000E+00  0.00000000E+00
  0.00000000E+00  0.00000000E+00  0.00000000E+00
  0.00000000E+00  0.00000000E+00  0.00000000E+00
  0.00000000E+00  0.00000000E+00  0.00000000E+00
  0.00000000E+00  0.00000000E+00  0.00000000E+00
  0.00000000E+00  0.00000000E+00  0.00000000E+00
  0.00000000E+00  0.00000000E+00  0.00000000E+00
  0.00000000E+00  0.00000000E+00  0.00000000E+00
  0.00000000E+00  0.00000000E+00  0.00000000E+00
  0.00000000E+00  0.00000000E+00  0.00000000E+00
  0.00000000E+00  0.00000000E+00  0.00000000E+00
  0.00000000E+00  0.00000000E+00  0.00000000E+00
  0.00000000E+00  0.00000000E+00  0.00000000E+00
  0.00000000E+00  0.00000000E+00  0.00000000E+00
  0.00000000E+00  0.00000000E+00  0.00000000E+00
  0.00000000E+00  0.00000000E+00  0.00000000E+00
  0.00000000E+00  0.00000000E+00  0.00000000E+00
  0.00000000E+00  0.00000000E+00  0.00000000E+00
  0.00000000E+00  0.00000000E+00  0.00000000E+00
  0.00000000E+00  0.00000000E+00  0.00000000E+00
  0.00000000E+00  0.00000000E+00  0.00000000E+00
  0.00000000E+00  0.00000000E+00  0.00000000E+00
  0.00000000E+00  0.00000000E+00  0.00000000E+00
  0.00000000E+00  0.00000000E+00  0.00000000E+00
  0.00000000E+00  0.00000000E+00  0.00000000E+00
  0.00000000E+00  0.00000000E+00  0.00000000E+00
  0.00000000E+00  0.00000000E+00  0.00000000E+00
  0.00000000E+00  0.00000000E+00  0.00000000E+00
  0.00000000E+00  0.00000000E+00  0.00000000E+00
  0.00000000E+00  0.00000000E+00  0.00000000E+00
  0.00000000E+00  0.00000000E+00  0.00000000E+00
  0.00000000E+00  0.00000000E+00  0.00000000E+00
  0.00000000E+00  0.00000000E+00  0.00000000E+00
  0.00000000E+00  0.00000000E+00  0.00000000E+00
  0.00000000E+00  0.00000000E+00  0.00000000E+00
  0.00000000E+00  0.00000000E+00  0.00000000E+00
  0.00000000E+00  0.00000000E+00  0.00000000E+00
  0.00000000E+00  0.00000000E+00  0.00000000E+00
  0.00000000E+00  0.00000000E+00  0.00000000E+00
  0.00000000E+00  0.00000000E+00  0.00000000E+00
  0.00000000E+00  0.00000000E+00  0.00000000E+00
  0.00000000E+00  0.00000000E+00  0.00000000E+00
  0.00000000E+00  0.00000000E+00  0.00000000E+00
  0.00000000E+00  0.00000000E+00  0.00000000E+00
  0.00000000E+00  0.00000000E+00  0.00000000E+00
  0.00000000E+00  0.00000000E+00  0.00000000E+00
  0.00000000E+00  0.00000000E+00  0.00000000E+00
  0.00000000E+00  0.00000000E+00  0.00000000E+00
  0.00000000E+00  0.00000000E+00  0.00000000E+00
  0.00000000E+00  0.00000000E+00  0.00000000E+00
