Co C  O  H                              
   1.00000000000000     
    29.0000000000000000    0.0000000000000000    0.0000000000000000
     0.0000000000000000   29.0000000000000000    0.0000000000000000
     0.0000000000000000    0.0000000000000000   29.0000000000000000
   Co   C    O    H 
    68     1     2     1
Selective dynamics
Direct
  0.5209600993212625  0.4855584130901227  0.6889832151610153   T   T   T
  0.3952253803315864  0.5792862783479041  0.4612273791695780   T   T   T
  0.4028163681802448  0.5433468261553321  0.5296087914304269   T   T   T
  0.5782761563691210  0.4268116521524590  0.4635435472142291   F   F   F
  0.4641638116308826  0.4268116521524590  0.5772364307857742   F   F   F
  0.6397612676738567  0.5437057887103824  0.5100440178401677   T   T   T
  0.4629181689013614  0.4734101168895570  0.4015165541003038   T   T   T
  0.4621948089760278  0.3654995766827759  0.5301960441740291   T   T   T
  0.5805954912341238  0.4744142764152994  0.6386021908269148   T   T   T
  0.4198374169491415  0.4285817633159331  0.6488886277336052   T   T   T
  0.5102759690019096  0.6033744603231341  0.5792524624963551   T   T   T
  0.5799667858651760  0.3577004338913387  0.4257630919262446   T   T   T
  0.4620674291559935  0.6032371895357800  0.5097117939828782   T   T   T
  0.4634907454180978  0.6102485934751501  0.4245764895022067   T   T   T
  0.6399570113308720  0.4952448403579748  0.5795598429183317   T   T   T
  0.6473726029369634  0.5425522778233542  0.4254329366008687   T   T   T
  0.6170910678424756  0.3583342803033625  0.5785091112848824   T   T   T
  0.5212200280000019  0.4252660896114264  0.5203899739999969   F   F   F
  0.4018349023671588  0.4245993242622509  0.5084607993979914   T   T   T
  0.5212200280000019  0.5427717147372562  0.5203899739999969   F   F   F
  0.5212200280000019  0.4841535664240482  0.5783626638499726   F   F   F
  0.4619932220416074  0.5790828930672427  0.6463144188009488   T   T   T
  0.5798513084913353  0.4841330892939268  0.5203899739999969   F   F   F
  0.5311532158012677  0.3653278883690032  0.5794352490649238   T   T   T
  0.3514082128998804  0.4843706058111529  0.5176395635685044   T   T   T
  0.4020751844960418  0.4739662121506120  0.5763948785684447   T   T   T
  0.5219839078760280  0.4844267645194585  0.3510598518528880   T   T   T
  0.3959267372593137  0.4253089349633744  0.4237994457911494   T   T   T
  0.6168163680399922  0.4259801160158517  0.3945279395630963   T   T   T
  0.6397059703166429  0.4739085374346578  0.4616164470544546   T   T   T
  0.4641638116308826  0.4268116521524590  0.4635435472142291   F   F   F
  0.4642268120283362  0.5414337674016210  0.4634884080096526   F   F   F
  0.5782131559716674  0.5414337674016210  0.4634884080096526   F   F   F
  0.5316573326192391  0.6031634608128918  0.4613317700392827   T   T   T
  0.5213429939772186  0.6539953394599343  0.5202015876800208   T   T   T
  0.4251383753589576  0.6099480489592770  0.5779839878234688   T   T   T
  0.6401136671232821  0.4253082361375068  0.5309735850868763   T   T   T
  0.4264590677290706  0.3573730645904288  0.4615308551881239   T   T   T
  0.4268200619901915  0.5420718596121916  0.3935243956070773   T   T   T
  0.4632488203858052  0.3553415073873209  0.6167304916500820   T   T   T
  0.6476714014228406  0.4267015495007013  0.6153403018273010   T   T   T
  0.5782131559716674  0.5414337674016210  0.5772915699903507   F   F   F
  0.5323356327385420  0.4250087732519985  0.4016916962217850   T   T   T
  0.5212200280000019  0.4841535664240482  0.4624173141500307   F   F   F
  0.6471261002805311  0.5801765329751589  0.5784846614318131   T   T   T
  0.5310671900898176  0.5437718352834177  0.6383158253724034   T   T   T
  0.4642268120283362  0.5414337674016210  0.5772915699903507   F   F   F
  0.4617313818462344  0.4943256939376287  0.6376016542189006   T   T   T
  0.5804983901652491  0.4945169485110568  0.4022372067872422   T   T   T
  0.6475965485528170  0.3889697623554634  0.4627655692377102   T   T   T
  0.5782761563691210  0.4268116521524590  0.5772364307857742   F   F   F
  0.3945345338614701  0.5414865832860489  0.6144025065182452   T   T   T
  0.5212995957557446  0.3145407739953780  0.5202479698182161   T   T   T
  0.6159536121803773  0.5432960431550706  0.6464743094628149   T   T   T
  0.3947190404210507  0.3894216120129412  0.5762610294389557   T   T   T
  0.5110833673835072  0.5432395691897840  0.4019174101234754   T   T   T
  0.6162180108122548  0.6106768538764308  0.4622214079692241   T   T   T
  0.5794405985290044  0.5795466256798425  0.3943067559222789   T   T   T
  0.5804679055286472  0.3651778569163017  0.5102642358224047   T   T   T
  0.4625886595086683  0.4841330892939268  0.5203899739999969   F   F   F
  0.5800967038882882  0.6031583525647496  0.5308436854491160   T   T   T
  0.5788978348247491  0.6109623180341587  0.6152185466367940   T   T   T
  0.5110994293890018  0.3652904726605466  0.4613156196214085   T   T   T
  0.4642597560114801  0.3884394854260814  0.3941069938425427   T   T   T
  0.5800232776736292  0.3891461741884193  0.6463191324331558   T   T   T
  0.5123757607428655  0.4264601238792244  0.6377965042152651   T   T   T
  0.6906096294308891  0.4845194888802867  0.5205355544001857   T   T   T
  0.4032530486582438  0.4941729545591235  0.4600670801438157   T   T   T
  0.4131909809649141  0.3758212035960735  0.6882560933115127   T   T   T
  0.4310866196254927  0.3365022731168928  0.6801964052537652   T   T   T
  0.3871084198965479  0.3795685451840953  0.7272203206385545   T   T   T
  0.3867226799841329  0.3489867063912289  0.7421714765890545   T   T   T
 
  0.00000000E+00  0.00000000E+00  0.00000000E+00
  0.00000000E+00  0.00000000E+00  0.00000000E+00
  0.00000000E+00  0.00000000E+00  0.00000000E+00
  0.00000000E+00  0.00000000E+00  0.00000000E+00
  0.00000000E+00  0.00000000E+00  0.00000000E+00
  0.00000000E+00  0.00000000E+00  0.00000000E+00
  0.00000000E+00  0.00000000E+00  0.00000000E+00
  0.00000000E+00  0.00000000E+00  0.00000000E+00
  0.00000000E+00  0.00000000E+00  0.00000000E+00
  0.00000000E+00  0.00000000E+00  0.00000000E+00
  0.00000000E+00  0.00000000E+00  0.00000000E+00
  0.00000000E+00  0.00000000E+00  0.00000000E+00
  0.00000000E+00  0.00000000E+00  0.00000000E+00
  0.00000000E+00  0.00000000E+00  0.00000000E+00
  0.00000000E+00  0.00000000E+00  0.00000000E+00
  0.00000000E+00  0.00000000E+00  0.00000000E+00
  0.00000000E+00  0.00000000E+00  0.00000000E+00
  0.00000000E+00  0.00000000E+00  0.00000000E+00
  0.00000000E+00  0.00000000E+00  0.00000000E+00
  0.00000000E+00  0.00000000E+00  0.00000000E+00
  0.00000000E+00  0.00000000E+00  0.00000000E+00
  0.00000000E+00  0.00000000E+00  0.00000000E+00
  0.00000000E+00  0.00000000E+00  0.00000000E+00
  0.00000000E+00  0.00000000E+00  0.00000000E+00
  0.00000000E+00  0.00000000E+00  0.00000000E+00
  0.00000000E+00  0.00000000E+00  0.00000000E+00
  0.00000000E+00  0.00000000E+00  0.00000000E+00
  0.00000000E+00  0.00000000E+00  0.00000000E+00
  0.00000000E+00  0.00000000E+00  0.00000000E+00
  0.00000000E+00  0.00000000E+00  0.00000000E+00
  0.00000000E+00  0.00000000E+00  0.00000000E+00
  0.00000000E+00  0.00000000E+00  0.00000000E+00
  0.00000000E+00  0.00000000E+00  0.00000000E+00
  0.00000000E+00  0.00000000E+00  0.00000000E+00
  0.00000000E+00  0.00000000E+00  0.00000000E+00
  0.00000000E+00  0.00000000E+00  0.00000000E+00
  0.00000000E+00  0.00000000E+00  0.00000000E+00
  0.00000000E+00  0.00000000E+00  0.00000000E+00
  0.00000000E+00  0.00000000E+00  0.00000000E+00
  0.00000000E+00  0.00000000E+00  0.00000000E+00
  0.00000000E+00  0.00000000E+00  0.00000000E+00
  0.00000000E+00  0.00000000E+00  0.00000000E+00
  0.00000000E+00  0.00000000E+00  0.00000000E+00
  0.00000000E+00  0.00000000E+00  0.00000000E+00
  0.00000000E+00  0.00000000E+00  0.00000000E+00
  0.00000000E+00  0.00000000E+00  0.00000000E+00
  0.00000000E+00  0.00000000E+00  0.00000000E+00
  0.00000000E+00  0.00000000E+00  0.00000000E+00
  0.00000000E+00  0.00000000E+00  0.00000000E+00
  0.00000000E+00  0.00000000E+00  0.00000000E+00
  0.00000000E+00  0.00000000E+00  0.00000000E+00
  0.00000000E+00  0.00000000E+00  0.00000000E+00
  0.00000000E+00  0.00000000E+00  0.00000000E+00
  0.00000000E+00  0.00000000E+00  0.00000000E+00
  0.00000000E+00  0.00000000E+00  0.00000000E+00
  0.00000000E+00  0.00000000E+00  0.00000000E+00
  0.00000000E+00  0.00000000E+00  0.00000000E+00
  0.00000000E+00  0.00000000E+00  0.00000000E+00
  0.00000000E+00  0.00000000E+00  0.00000000E+00
  0.00000000E+00  0.00000000E+00  0.00000000E+00
  0.00000000E+00  0.00000000E+00  0.00000000E+00
  0.00000000E+00  0.00000000E+00  0.00000000E+00
  0.00000000E+00  0.00000000E+00  0.00000000E+00
  0.00000000E+00  0.00000000E+00  0.00000000E+00
  0.00000000E+00  0.00000000E+00  0.00000000E+00
  0.00000000E+00  0.00000000E+00  0.00000000E+00
  0.00000000E+00  0.00000000E+00  0.00000000E+00
  0.00000000E+00  0.00000000E+00  0.00000000E+00
  0.00000000E+00  0.00000000E+00  0.00000000E+00
  0.00000000E+00  0.00000000E+00  0.00000000E+00
  0.00000000E+00  0.00000000E+00  0.00000000E+00
  0.00000000E+00  0.00000000E+00  0.00000000E+00
