Co C  O  H                              
   1.00000000000000     
    29.0000000000000000    0.0000000000000000    0.0000000000000000
     0.0000000000000000   29.0000000000000000    0.0000000000000000
     0.0000000000000000    0.0000000000000000   29.0000000000000000
   Co   C    O    H 
    68     1     2     1
Selective dynamics
Direct
  0.5217642716263352  0.4840014760605546  0.6888527511645943   T   T   T
  0.3953526244808400  0.5799947197949034  0.4626224986331430   T   T   T
  0.4024648034427228  0.5437888519175316  0.5310543841181272   T   T   T
  0.5782761563691210  0.4268116521524590  0.4635435472142291   F   F   F
  0.4641638116308826  0.4268116521524590  0.5772364307857742   F   F   F
  0.6404241691499387  0.5434920979587763  0.5091021058286015   T   T   T
  0.4616905597038222  0.4742027733981023  0.4026437305767905   T   T   T
  0.4618708723098290  0.3652145071216268  0.5307940994209006   T   T   T
  0.5811701162001622  0.4756896074683518  0.6379076340723583   T   T   T
  0.4265098856512187  0.4260500295475953  0.6464363104799776   T   T   T
  0.5107246657135784  0.6033716327593267  0.5793006773170918   T   T   T
  0.5794466535751664  0.3576566076924298  0.4255974820437155   T   T   T
  0.4622708995023330  0.6031457539717018  0.5100763336048371   T   T   T
  0.4632618217085633  0.6102963552136836  0.4248409179111750   T   T   T
  0.6403021104185375  0.4943720484622491  0.5769514883894644   T   T   T
  0.6467527338724448  0.5424986158079345  0.4242872218482918   T   T   T
  0.6167733932350604  0.3584122280959657  0.5787880295804988   T   T   T
  0.5212200280000019  0.4252660896114264  0.5203899739999969   F   F   F
  0.4025927085828678  0.4251955410229361  0.5101148762518906   T   T   T
  0.5212200280000019  0.5427717147372562  0.5203899739999969   F   F   F
  0.5212200280000019  0.4841535664240482  0.5783626638499726   F   F   F
  0.4625419598644215  0.5801318844346104  0.6464483653868850   T   T   T
  0.5798513084913353  0.4841330892939268  0.5203899739999969   F   F   F
  0.5317154562462321  0.3651568407979476  0.5796419843923752   T   T   T
  0.3519624987315740  0.4841486001444227  0.5213662433597900   T   T   T
  0.4031435238561331  0.4741376250270927  0.5797232396276538   T   T   T
  0.5200617432234901  0.4832108481286415  0.3513681706185265   T   T   T
  0.3947432766937484  0.4262016841587662  0.4258125524136239   T   T   T
  0.6153377027197973  0.4260148155933560  0.3936854642008638   T   T   T
  0.6392165930164529  0.4738420350501860  0.4603212432642749   T   T   T
  0.4641638116308826  0.4268116521524590  0.4635435472142291   F   F   F
  0.4642268120283362  0.5414337674016210  0.4634884080096526   F   F   F
  0.5782131559716674  0.5414337674016210  0.4634884080096526   F   F   F
  0.5313937666378422  0.6026914403324263  0.4614527796010750   T   T   T
  0.5218488489103583  0.6537051498397727  0.5204339038895095   T   T   T
  0.4260174526365880  0.6107665626077670  0.5784597872078895   T   T   T
  0.6398387367886694  0.4246004325443404  0.5301017570498078   T   T   T
  0.4261935805271310  0.3578310212259667  0.4620219107913076   T   T   T
  0.4252157963795532  0.5424376807182770  0.3945749536846760   T   T   T
  0.4625238912631889  0.3577344720721594  0.6149565771221983   T   T   T
  0.6478551468867157  0.4269184840231748  0.6149654809507207   T   T   T
  0.5782131559716674  0.5414337674016210  0.5772915699903507   F   F   F
  0.5311408225893596  0.4249182654946841  0.4023589929908136   T   T   T
  0.5212200280000019  0.4841535664240482  0.4624173141500307   F   F   F
  0.6474324332781087  0.5788874751951137  0.5779237458586657   T   T   T
  0.5305186346268550  0.5439953581033755  0.6379146809071373   T   T   T
  0.4642268120283362  0.5414337674016210  0.5772915699903507   F   F   F
  0.4622953580442593  0.4948169350154427  0.6390736271630306   T   T   T
  0.5794193059080145  0.4946840639205195  0.4017271429457475   T   T   T
  0.6475160548561434  0.3890175836109336  0.4614514578015443   T   T   T
  0.5782761563691210  0.4268116521524590  0.5772364307857742   F   F   F
  0.3952167711774052  0.5425944320776063  0.6158990890913835   T   T   T
  0.5208596498291075  0.3144933978621952  0.5204440117304722   T   T   T
  0.6191571976778039  0.5414313645555612  0.6527743454169611   T   T   T
  0.3947075438430632  0.3892932562479630  0.5783500873102149   T   T   T
  0.5103072614734331  0.5432712740377610  0.4015533576410315   T   T   T
  0.6161252794038166  0.6106361805469219  0.4620363177809372   T   T   T
  0.5786686708164538  0.5797650694651967  0.3943505756873504   T   T   T
  0.5803661634857205  0.3650811101716379  0.5101192529957470   T   T   T
  0.4625886595086683  0.4841330892939268  0.5203899739999969   F   F   F
  0.5808813273170853  0.6031960155156900  0.5308606408553951   T   T   T
  0.5795467187634675  0.6101598728360664  0.6149227754818846   T   T   T
  0.5107116590309031  0.3651069420719099  0.4613770788116973   T   T   T
  0.4625688627362780  0.3895718600635694  0.3940769573112622   T   T   T
  0.5801658588224963  0.3903333336310548  0.6467376650592668   T   T   T
  0.5112897521668583  0.4252023276786296  0.6384473130246591   T   T   T
  0.6908822866521089  0.4833077412523786  0.5178239580342501   T   T   T
  0.4022104456351926  0.4950536118030036  0.4618472741769807   T   T   T
  0.6637438054222307  0.5448859867715585  0.7010076370272310   T   T   T
  0.6917318888551349  0.5766097211463668  0.6952561282357450   T   T   T
  0.6646209830403790  0.5183582229446878  0.7401856073343053   T   T   T
  0.6898155603021759  0.5308054459276503  0.7594092331037593   T   T   T
 
  0.00000000E+00  0.00000000E+00  0.00000000E+00
  0.00000000E+00  0.00000000E+00  0.00000000E+00
  0.00000000E+00  0.00000000E+00  0.00000000E+00
  0.00000000E+00  0.00000000E+00  0.00000000E+00
  0.00000000E+00  0.00000000E+00  0.00000000E+00
  0.00000000E+00  0.00000000E+00  0.00000000E+00
  0.00000000E+00  0.00000000E+00  0.00000000E+00
  0.00000000E+00  0.00000000E+00  0.00000000E+00
  0.00000000E+00  0.00000000E+00  0.00000000E+00
  0.00000000E+00  0.00000000E+00  0.00000000E+00
  0.00000000E+00  0.00000000E+00  0.00000000E+00
  0.00000000E+00  0.00000000E+00  0.00000000E+00
  0.00000000E+00  0.00000000E+00  0.00000000E+00
  0.00000000E+00  0.00000000E+00  0.00000000E+00
  0.00000000E+00  0.00000000E+00  0.00000000E+00
  0.00000000E+00  0.00000000E+00  0.00000000E+00
  0.00000000E+00  0.00000000E+00  0.00000000E+00
  0.00000000E+00  0.00000000E+00  0.00000000E+00
  0.00000000E+00  0.00000000E+00  0.00000000E+00
  0.00000000E+00  0.00000000E+00  0.00000000E+00
  0.00000000E+00  0.00000000E+00  0.00000000E+00
  0.00000000E+00  0.00000000E+00  0.00000000E+00
  0.00000000E+00  0.00000000E+00  0.00000000E+00
  0.00000000E+00  0.00000000E+00  0.00000000E+00
  0.00000000E+00  0.00000000E+00  0.00000000E+00
  0.00000000E+00  0.00000000E+00  0.00000000E+00
  0.00000000E+00  0.00000000E+00  0.00000000E+00
  0.00000000E+00  0.00000000E+00  0.00000000E+00
  0.00000000E+00  0.00000000E+00  0.00000000E+00
  0.00000000E+00  0.00000000E+00  0.00000000E+00
  0.00000000E+00  0.00000000E+00  0.00000000E+00
  0.00000000E+00  0.00000000E+00  0.00000000E+00
  0.00000000E+00  0.00000000E+00  0.00000000E+00
  0.00000000E+00  0.00000000E+00  0.00000000E+00
  0.00000000E+00  0.00000000E+00  0.00000000E+00
  0.00000000E+00  0.00000000E+00  0.00000000E+00
  0.00000000E+00  0.00000000E+00  0.00000000E+00
  0.00000000E+00  0.00000000E+00  0.00000000E+00
  0.00000000E+00  0.00000000E+00  0.00000000E+00
  0.00000000E+00  0.00000000E+00  0.00000000E+00
  0.00000000E+00  0.00000000E+00  0.00000000E+00
  0.00000000E+00  0.00000000E+00  0.00000000E+00
  0.00000000E+00  0.00000000E+00  0.00000000E+00
  0.00000000E+00  0.00000000E+00  0.00000000E+00
  0.00000000E+00  0.00000000E+00  0.00000000E+00
  0.00000000E+00  0.00000000E+00  0.00000000E+00
  0.00000000E+00  0.00000000E+00  0.00000000E+00
  0.00000000E+00  0.00000000E+00  0.00000000E+00
  0.00000000E+00  0.00000000E+00  0.00000000E+00
  0.00000000E+00  0.00000000E+00  0.00000000E+00
  0.00000000E+00  0.00000000E+00  0.00000000E+00
  0.00000000E+00  0.00000000E+00  0.00000000E+00
  0.00000000E+00  0.00000000E+00  0.00000000E+00
  0.00000000E+00  0.00000000E+00  0.00000000E+00
  0.00000000E+00  0.00000000E+00  0.00000000E+00
  0.00000000E+00  0.00000000E+00  0.00000000E+00
  0.00000000E+00  0.00000000E+00  0.00000000E+00
  0.00000000E+00  0.00000000E+00  0.00000000E+00
  0.00000000E+00  0.00000000E+00  0.00000000E+00
  0.00000000E+00  0.00000000E+00  0.00000000E+00
  0.00000000E+00  0.00000000E+00  0.00000000E+00
  0.00000000E+00  0.00000000E+00  0.00000000E+00
  0.00000000E+00  0.00000000E+00  0.00000000E+00
  0.00000000E+00  0.00000000E+00  0.00000000E+00
  0.00000000E+00  0.00000000E+00  0.00000000E+00
  0.00000000E+00  0.00000000E+00  0.00000000E+00
  0.00000000E+00  0.00000000E+00  0.00000000E+00
  0.00000000E+00  0.00000000E+00  0.00000000E+00
  0.00000000E+00  0.00000000E+00  0.00000000E+00
  0.00000000E+00  0.00000000E+00  0.00000000E+00
  0.00000000E+00  0.00000000E+00  0.00000000E+00
  0.00000000E+00  0.00000000E+00  0.00000000E+00
