Co C  O  H                              
   1.00000000000000     
    29.0000000000000000    0.0000000000000000    0.0000000000000000
     0.0000000000000000   29.0000000000000000    0.0000000000000000
     0.0000000000000000    0.0000000000000000   29.0000000000000000
   Co   C    O    H 
    68     1     2     1
Selective dynamics
Direct
  0.5224752338297519  0.4851827980505451  0.6901303018691087   T   T   T
  0.3956687028885988  0.5801438326145271  0.4617058798013451   T   T   T
  0.4027984544444440  0.5438099546213174  0.5304213490069210   T   T   T
  0.5782761563691210  0.4268116521524590  0.4635435472142291   F   F   F
  0.4641638116308826  0.4268116521524590  0.5772364307857742   F   F   F
  0.6400963459569384  0.5429493809347998  0.5094573633952837   T   T   T
  0.4628567250413888  0.4738782350097345  0.4023963590932417   T   T   T
  0.4613996010117949  0.3663374098683512  0.5301239148992815   T   T   T
  0.5805094539862690  0.4742320928197746  0.6384766459658476   T   T   T
  0.4246246665132955  0.4295868456745456  0.6462780715050223   T   T   T
  0.5110680263427453  0.6029285019722569  0.5790592488538066   T   T   T
  0.5795775716880929  0.3567247599983852  0.4275995193331772   T   T   T
  0.4623585056465417  0.6033557910178330  0.5096926909107220   T   T   T
  0.4638292783210634  0.6100750162377515  0.4243100423382017   T   T   T
  0.6399712625282846  0.4952753407027828  0.5792058293857375   T   T   T
  0.6472651483802929  0.5414231448660999  0.4250077268512176   T   T   T
  0.6176233538212418  0.3585968954413858  0.5791121877226962   T   T   T
  0.5212200280000019  0.4252660896114264  0.5203899739999969   F   F   F
  0.4022185863490817  0.4253499671037205  0.5093882210622734   T   T   T
  0.5212200280000019  0.5427717147372562  0.5203899739999969   F   F   F
  0.5212200280000019  0.4841535664240482  0.5783626638499726   F   F   F
  0.4636389551142768  0.5803062409360865  0.6465385482480192   T   T   T
  0.5798513084913353  0.4841330892939268  0.5203899739999969   F   F   F
  0.5308682018855017  0.3642051016314763  0.5805455237532149   T   T   T
  0.3519440827492090  0.4839635046212706  0.5206286982931529   T   T   T
  0.4033386148831611  0.4749473348953795  0.5791599851787776   T   T   T
  0.5223260799852083  0.4825901426994393  0.3513118991754294   T   T   T
  0.3948979124352386  0.4269709193886251  0.4251229946728983   T   T   T
  0.6166458366536448  0.4250091417617635  0.3937305069232750   T   T   T
  0.6403537318019770  0.4728135739129782  0.4616841154408785   T   T   T
  0.4641638116308826  0.4268116521524590  0.4635435472142291   F   F   F
  0.4642268120283362  0.5414337674016210  0.4634884080096526   F   F   F
  0.5782131559716674  0.5414337674016210  0.4634884080096526   F   F   F
  0.5317739368357954  0.6029006252003095  0.4615166985098236   T   T   T
  0.5216654560536577  0.6539665817541840  0.5205647787123956   T   T   T
  0.4262891828691405  0.6104754365204945  0.5784949922904231   T   T   T
  0.6405443218584924  0.4250262340062111  0.5317211079616672   T   T   T
  0.4257583177877997  0.3580618904318273  0.4613468329350475   T   T   T
  0.4264580677875330  0.5420074401172006  0.3940974060499589   T   T   T
  0.4573547218874235  0.3574404150024827  0.6193590915767209   T   T   T
  0.6476820142551939  0.4272513826664200  0.6159753084397297   T   T   T
  0.5782131559716674  0.5414337674016210  0.5772915699903507   F   F   F
  0.5318721280469239  0.4239535737824599  0.4020892841544244   T   T   T
  0.5212200280000019  0.4841535664240482  0.4624173141500307   F   F   F
  0.6475607559326716  0.5797675395368436  0.5776357399386858   T   T   T
  0.5322161024026005  0.5437768237887399  0.6389491278372468   T   T   T
  0.4642268120283362  0.5414337674016210  0.5772915699903507   F   F   F
  0.4631723300902226  0.4961663642213341  0.6397159386480383   T   T   T
  0.5798197312321665  0.4948210103177901  0.4027678548343406   T   T   T
  0.6468275586084195  0.3879111254276800  0.4644034408024855   T   T   T
  0.5782761563691210  0.4268116521524590  0.5772364307857742   F   F   F
  0.3957064867141857  0.5425790714140970  0.6164417400766701   T   T   T
  0.5200874343742665  0.3152471188158640  0.5178124915850346   T   T   T
  0.6170317785866346  0.5427174022136357  0.6460708969224567   T   T   T
  0.3929965224744939  0.3925123256391405  0.5790864394338539   T   T   T
  0.5113009532225077  0.5426691633517722  0.4017749509188068   T   T   T
  0.6170026853621731  0.6100854274370525  0.4624881691071639   T   T   T
  0.5796826107241101  0.5795934035107773  0.3944959502223027   T   T   T
  0.5796936853328813  0.3657875072657629  0.5112638382661127   T   T   T
  0.4625886595086683  0.4841330892939268  0.5203899739999969   F   F   F
  0.5804431951697990  0.6031331472215679  0.5306697563432430   T   T   T
  0.5797151823021744  0.6107531075751386  0.6151290130699910   T   T   T
  0.5099884831582407  0.3653270970308022  0.4606849833346072   T   T   T
  0.4624523325077285  0.3899653447787722  0.3935160433826400   T   T   T
  0.5795129950291422  0.3905764652751053  0.6470195485460923   T   T   T
  0.5107958727078378  0.4269754880426423  0.6386060049711783   T   T   T
  0.6909356992065034  0.4842626916465407  0.5205989558525606   T   T   T
  0.4023038080319904  0.4951859504891298  0.4614971881833139   T   T   T
  0.5292196889828371  0.3055598193085227  0.6083254761175056   T   T   T
  0.4952147744906434  0.2931852912805727  0.6331069854769336   T   T   T
  0.5647691639123051  0.2739230248884703  0.6042078407053482   T   T   T
  0.5558637366936521  0.2467425365197422  0.6226771117791576   T   T   T
 
  0.00000000E+00  0.00000000E+00  0.00000000E+00
  0.00000000E+00  0.00000000E+00  0.00000000E+00
  0.00000000E+00  0.00000000E+00  0.00000000E+00
  0.00000000E+00  0.00000000E+00  0.00000000E+00
  0.00000000E+00  0.00000000E+00  0.00000000E+00
  0.00000000E+00  0.00000000E+00  0.00000000E+00
  0.00000000E+00  0.00000000E+00  0.00000000E+00
  0.00000000E+00  0.00000000E+00  0.00000000E+00
  0.00000000E+00  0.00000000E+00  0.00000000E+00
  0.00000000E+00  0.00000000E+00  0.00000000E+00
  0.00000000E+00  0.00000000E+00  0.00000000E+00
  0.00000000E+00  0.00000000E+00  0.00000000E+00
  0.00000000E+00  0.00000000E+00  0.00000000E+00
  0.00000000E+00  0.00000000E+00  0.00000000E+00
  0.00000000E+00  0.00000000E+00  0.00000000E+00
  0.00000000E+00  0.00000000E+00  0.00000000E+00
  0.00000000E+00  0.00000000E+00  0.00000000E+00
  0.00000000E+00  0.00000000E+00  0.00000000E+00
  0.00000000E+00  0.00000000E+00  0.00000000E+00
  0.00000000E+00  0.00000000E+00  0.00000000E+00
  0.00000000E+00  0.00000000E+00  0.00000000E+00
  0.00000000E+00  0.00000000E+00  0.00000000E+00
  0.00000000E+00  0.00000000E+00  0.00000000E+00
  0.00000000E+00  0.00000000E+00  0.00000000E+00
  0.00000000E+00  0.00000000E+00  0.00000000E+00
  0.00000000E+00  0.00000000E+00  0.00000000E+00
  0.00000000E+00  0.00000000E+00  0.00000000E+00
  0.00000000E+00  0.00000000E+00  0.00000000E+00
  0.00000000E+00  0.00000000E+00  0.00000000E+00
  0.00000000E+00  0.00000000E+00  0.00000000E+00
  0.00000000E+00  0.00000000E+00  0.00000000E+00
  0.00000000E+00  0.00000000E+00  0.00000000E+00
  0.00000000E+00  0.00000000E+00  0.00000000E+00
  0.00000000E+00  0.00000000E+00  0.00000000E+00
  0.00000000E+00  0.00000000E+00  0.00000000E+00
  0.00000000E+00  0.00000000E+00  0.00000000E+00
  0.00000000E+00  0.00000000E+00  0.00000000E+00
  0.00000000E+00  0.00000000E+00  0.00000000E+00
  0.00000000E+00  0.00000000E+00  0.00000000E+00
  0.00000000E+00  0.00000000E+00  0.00000000E+00
  0.00000000E+00  0.00000000E+00  0.00000000E+00
  0.00000000E+00  0.00000000E+00  0.00000000E+00
  0.00000000E+00  0.00000000E+00  0.00000000E+00
  0.00000000E+00  0.00000000E+00  0.00000000E+00
  0.00000000E+00  0.00000000E+00  0.00000000E+00
  0.00000000E+00  0.00000000E+00  0.00000000E+00
  0.00000000E+00  0.00000000E+00  0.00000000E+00
  0.00000000E+00  0.00000000E+00  0.00000000E+00
  0.00000000E+00  0.00000000E+00  0.00000000E+00
  0.00000000E+00  0.00000000E+00  0.00000000E+00
  0.00000000E+00  0.00000000E+00  0.00000000E+00
  0.00000000E+00  0.00000000E+00  0.00000000E+00
  0.00000000E+00  0.00000000E+00  0.00000000E+00
  0.00000000E+00  0.00000000E+00  0.00000000E+00
  0.00000000E+00  0.00000000E+00  0.00000000E+00
  0.00000000E+00  0.00000000E+00  0.00000000E+00
  0.00000000E+00  0.00000000E+00  0.00000000E+00
  0.00000000E+00  0.00000000E+00  0.00000000E+00
  0.00000000E+00  0.00000000E+00  0.00000000E+00
  0.00000000E+00  0.00000000E+00  0.00000000E+00
  0.00000000E+00  0.00000000E+00  0.00000000E+00
  0.00000000E+00  0.00000000E+00  0.00000000E+00
  0.00000000E+00  0.00000000E+00  0.00000000E+00
  0.00000000E+00  0.00000000E+00  0.00000000E+00
  0.00000000E+00  0.00000000E+00  0.00000000E+00
  0.00000000E+00  0.00000000E+00  0.00000000E+00
  0.00000000E+00  0.00000000E+00  0.00000000E+00
  0.00000000E+00  0.00000000E+00  0.00000000E+00
  0.00000000E+00  0.00000000E+00  0.00000000E+00
  0.00000000E+00  0.00000000E+00  0.00000000E+00
  0.00000000E+00  0.00000000E+00  0.00000000E+00
  0.00000000E+00  0.00000000E+00  0.00000000E+00
