Bi C  O  H                              
   1.00000000000000     
    29.0000000000000000    0.0000000000000000    0.0000000000000000
     0.0000000000000000   29.0000000000000000    0.0000000000000000
     0.0000000000000000    0.0000000000000000   29.0000000000000000
   Bi   C    O    H 
    68     1     2     1
Selective dynamics
Direct
  0.5034398838481234  0.5034755852695125  0.7119588703340655   T   T   T
  0.3514117553195909  0.6557686341859433  0.4100677926672939   T   T   T
  0.3446698671189948  0.5804807001211900  0.4850547849393106   T   T   T
  0.5811467705906068  0.4246732054093982  0.4064932224093951   F   F   F
  0.4244332074093933  0.4246732054093982  0.5632067865906052   F   F   F
  0.6612361732225591  0.5803450323688775  0.4865005187925889   T   T   T
  0.4260723606245364  0.5030694268784411  0.3278254681240050   T   T   T
  0.4254788420708582  0.3459025862899738  0.4849130311330284   T   T   T
  0.5812953383075424  0.5031783405287474  0.6426306084186467   T   T   T
  0.3506632844679917  0.4265697188188899  0.6366420334323054   T   T   T
  0.5034981798663913  0.6590275543508834  0.5637678135203631   T   T   T
  0.5805644468315309  0.3506695969615123  0.3333164007264878   T   T   T
  0.4258792919669810  0.6597933773112191  0.4860515705015439   T   T   T
  0.4280720333988248  0.6560139848049513  0.3337915052596218   T   T   T
  0.6612156234918034  0.5018573139758304  0.5629834555188994   T   T   T
  0.6544354878828855  0.5800727390722017  0.3319671627301588   T   T   T
  0.6548038273287659  0.3516678019996589  0.5618533069986902   T   T   T
  0.5027899740000024  0.4274945535347072  0.4848499889999971   F   F   F
  0.3453263861869353  0.4252609625153448  0.4849594999682839   T   T   T
  0.5027899740000024  0.5785654504652982  0.4848499889999971   F   F   F
  0.5027899740000024  0.5030300020000027  0.5603854384652962   F   F   F
  0.4260188123883200  0.6538398592774403  0.6379258083984939   T   T   T
  0.5783254224652978  0.5030300020000027  0.4848499889999971   F   F   F
  0.5024999011103275  0.3459625406252733  0.5623797931601051   T   T   T
  0.2754653756785352  0.5028217749383728  0.4855725434167736   T   T   T
  0.3452871750814725  0.5025928760601759  0.5619994552837033   T   T   T
  0.5031884913026983  0.5028420066196141  0.2578738773878518   T   T   T
  0.3512491095190821  0.4264017925925006  0.3334410935065427   T   T   T
  0.6553839914100679  0.4265397873710767  0.3334090483489494   T   T   T
  0.6600434127103483  0.5036589762901890  0.4075968410116961   T   T   T
  0.4244332074093933  0.4246732054093982  0.4064932224093951   F   F   F
  0.4244332074093933  0.5813867985906072  0.4064932224093951   F   F   F
  0.5811467705906068  0.5813867985906072  0.4064932224093951   F   F   F
  0.5034977549934890  0.6600632405884758  0.4080563759744244   T   T   T
  0.5054054546558562  0.7287412591787659  0.4871215698611979   T   T   T
  0.3503439428294869  0.6552030805078346  0.5621927776562602   T   T   T
  0.6596184495838351  0.4270605168740497  0.4848398509962391   T   T   T
  0.3507921509060192  0.3505794854864109  0.4081704342252362   T   T   T
  0.3518217835036286  0.5805811580549166  0.3344347521237921   T   T   T
  0.4266755911269045  0.3509955280662875  0.6368998179665906   T   T   T
  0.6549513828985567  0.4264988934430561  0.6380407912748075   T   T   T
  0.5811467705906068  0.5813867985906072  0.5632067865906052   F   F   F
  0.5028480572361307  0.4255353417144092  0.3279145068683406   T   T   T
  0.5027899740000024  0.5030300020000027  0.4093145705347041   F   F   F
  0.6557987195710642  0.6554146495247515  0.5620809977020933   T   T   T
  0.5034595448046847  0.5799658817543532  0.6426867794123369   T   T   T
  0.4244332074093933  0.5813867985906072  0.5632067865906052   F   F   F
  0.4258023622451413  0.5030332152706085  0.6420643228364367   T   T   T
  0.5804097959688511  0.5027805341256877  0.3271635592716086   T   T   T
  0.6542680793259253  0.3502178609166468  0.4084115894125637   T   T   T
  0.5811467705906068  0.4246732054093982  0.5632067865906052   F   F   F
  0.3499070768123037  0.5798376398066120  0.6362149163350895   T   T   T
  0.5027338176221716  0.2762351879306577  0.4851350785432179   T   T   T
  0.6572480425505939  0.5804537784276665  0.6390514044197956   T   T   T
  0.3509062545959897  0.3510216071669742  0.5621046815048923   T   T   T
  0.5030175606917187  0.5805910793014393  0.3270081157419987   T   T   T
  0.6563385356555508  0.6536657121967707  0.4088383410095217   T   T   T
  0.5802984931986155  0.6554076566164729  0.3334103965486462   T   T   T
  0.5801143300534691  0.3461421994124368  0.4850513196565284   T   T   T
  0.4272545555347023  0.5030300020000027  0.4848499889999971   F   F   F
  0.5819756046059170  0.6589222926350583  0.4855364761373346   T   T   T
  0.5811670959505523  0.6537208898980491  0.6382873369106301   T   T   T
  0.5027159222637342  0.3457326573509928  0.4078989606693862   T   T   T
  0.4261586057900699  0.3503952080530975  0.3331667413965594   T   T   T
  0.5797279563712161  0.3509669509223264  0.6365529035448183   T   T   T
  0.5031661177748796  0.4267047900463036  0.6418256329387890   T   T   T
  0.7302433072523259  0.5036343956651060  0.4846354999387417   T   T   T
  0.3453722519520432  0.5027704479107546  0.4083745049609835   T   T   T
  0.7042005521837528  0.5940511898364357  0.7051445270205589   T   T   T
  0.7330956202024921  0.6244289913663681  0.7080004723200761   T   T   T
  0.6939043387757348  0.5644607704945690  0.7406575867531631   T   T   T
  0.7139691592741378  0.5731917982709291  0.7667646317711754   T   T   T
 
  0.00000000E+00  0.00000000E+00  0.00000000E+00
  0.00000000E+00  0.00000000E+00  0.00000000E+00
  0.00000000E+00  0.00000000E+00  0.00000000E+00
  0.00000000E+00  0.00000000E+00  0.00000000E+00
  0.00000000E+00  0.00000000E+00  0.00000000E+00
  0.00000000E+00  0.00000000E+00  0.00000000E+00
  0.00000000E+00  0.00000000E+00  0.00000000E+00
  0.00000000E+00  0.00000000E+00  0.00000000E+00
  0.00000000E+00  0.00000000E+00  0.00000000E+00
  0.00000000E+00  0.00000000E+00  0.00000000E+00
  0.00000000E+00  0.00000000E+00  0.00000000E+00
  0.00000000E+00  0.00000000E+00  0.00000000E+00
  0.00000000E+00  0.00000000E+00  0.00000000E+00
  0.00000000E+00  0.00000000E+00  0.00000000E+00
  0.00000000E+00  0.00000000E+00  0.00000000E+00
  0.00000000E+00  0.00000000E+00  0.00000000E+00
  0.00000000E+00  0.00000000E+00  0.00000000E+00
  0.00000000E+00  0.00000000E+00  0.00000000E+00
  0.00000000E+00  0.00000000E+00  0.00000000E+00
  0.00000000E+00  0.00000000E+00  0.00000000E+00
  0.00000000E+00  0.00000000E+00  0.00000000E+00
  0.00000000E+00  0.00000000E+00  0.00000000E+00
  0.00000000E+00  0.00000000E+00  0.00000000E+00
  0.00000000E+00  0.00000000E+00  0.00000000E+00
  0.00000000E+00  0.00000000E+00  0.00000000E+00
  0.00000000E+00  0.00000000E+00  0.00000000E+00
  0.00000000E+00  0.00000000E+00  0.00000000E+00
  0.00000000E+00  0.00000000E+00  0.00000000E+00
  0.00000000E+00  0.00000000E+00  0.00000000E+00
  0.00000000E+00  0.00000000E+00  0.00000000E+00
  0.00000000E+00  0.00000000E+00  0.00000000E+00
  0.00000000E+00  0.00000000E+00  0.00000000E+00
  0.00000000E+00  0.00000000E+00  0.00000000E+00
  0.00000000E+00  0.00000000E+00  0.00000000E+00
  0.00000000E+00  0.00000000E+00  0.00000000E+00
  0.00000000E+00  0.00000000E+00  0.00000000E+00
  0.00000000E+00  0.00000000E+00  0.00000000E+00
  0.00000000E+00  0.00000000E+00  0.00000000E+00
  0.00000000E+00  0.00000000E+00  0.00000000E+00
  0.00000000E+00  0.00000000E+00  0.00000000E+00
  0.00000000E+00  0.00000000E+00  0.00000000E+00
  0.00000000E+00  0.00000000E+00  0.00000000E+00
  0.00000000E+00  0.00000000E+00  0.00000000E+00
  0.00000000E+00  0.00000000E+00  0.00000000E+00
  0.00000000E+00  0.00000000E+00  0.00000000E+00
  0.00000000E+00  0.00000000E+00  0.00000000E+00
  0.00000000E+00  0.00000000E+00  0.00000000E+00
  0.00000000E+00  0.00000000E+00  0.00000000E+00
  0.00000000E+00  0.00000000E+00  0.00000000E+00
  0.00000000E+00  0.00000000E+00  0.00000000E+00
  0.00000000E+00  0.00000000E+00  0.00000000E+00
  0.00000000E+00  0.00000000E+00  0.00000000E+00
  0.00000000E+00  0.00000000E+00  0.00000000E+00
  0.00000000E+00  0.00000000E+00  0.00000000E+00
  0.00000000E+00  0.00000000E+00  0.00000000E+00
  0.00000000E+00  0.00000000E+00  0.00000000E+00
  0.00000000E+00  0.00000000E+00  0.00000000E+00
  0.00000000E+00  0.00000000E+00  0.00000000E+00
  0.00000000E+00  0.00000000E+00  0.00000000E+00
  0.00000000E+00  0.00000000E+00  0.00000000E+00
  0.00000000E+00  0.00000000E+00  0.00000000E+00
  0.00000000E+00  0.00000000E+00  0.00000000E+00
  0.00000000E+00  0.00000000E+00  0.00000000E+00
  0.00000000E+00  0.00000000E+00  0.00000000E+00
  0.00000000E+00  0.00000000E+00  0.00000000E+00
  0.00000000E+00  0.00000000E+00  0.00000000E+00
  0.00000000E+00  0.00000000E+00  0.00000000E+00
  0.00000000E+00  0.00000000E+00  0.00000000E+00
  0.00000000E+00  0.00000000E+00  0.00000000E+00
  0.00000000E+00  0.00000000E+00  0.00000000E+00
  0.00000000E+00  0.00000000E+00  0.00000000E+00
  0.00000000E+00  0.00000000E+00  0.00000000E+00
