Bi C  O  H                              
   1.00000000000000     
    29.0000000000000000    0.0000000000000000    0.0000000000000000
     0.0000000000000000   29.0000000000000000    0.0000000000000000
     0.0000000000000000    0.0000000000000000   29.0000000000000000
   Bi   C    O    H 
    68     1     2     1
Selective dynamics
Direct
  0.5034662377666917  0.5034514819145969  0.7118440609961865   T   T   T
  0.3499039880645133  0.6541603434842439  0.4079210570535597   T   T   T
  0.3453972696683781  0.5799437918796071  0.4853294008635258   T   T   T
  0.5811467705906068  0.4246732054093982  0.4064932224093951   F   F   F
  0.4244332074093933  0.4246732054093982  0.5632067865906052   F   F   F
  0.6614273888428207  0.5810780102820369  0.4858421845423671   T   T   T
  0.4260286438099468  0.5042454670858103  0.3280994962555197   T   T   T
  0.4255457033822370  0.3462024711328256  0.4847459390248940   T   T   T
  0.5803462541549363  0.5033104767018691  0.6415279918513862   T   T   T
  0.3513661923897022  0.4265418685196066  0.6380280908706768   T   T   T
  0.5030557245683295  0.6599533849197636  0.5610502541493565   T   T   T
  0.5802308455107530  0.3515616602275161  0.3326391767659244   T   T   T
  0.4256468855874737  0.6601310550087528  0.4847495251481359   T   T   T
  0.4260769631221951  0.6556711470828155  0.3336968492223463   T   T   T
  0.6598801535277777  0.5032153468680864  0.5607953970874401   T   T   T
  0.6559195300136309  0.5796868466057298  0.3324341949403372   T   T   T
  0.6553807401952907  0.3514787034844438  0.5613329545061674   T   T   T
  0.5027899740000024  0.4274945535347072  0.4848499889999971   F   F   F
  0.3452745799474566  0.4262433840995195  0.4851868824759001   T   T   T
  0.5027899740000024  0.5785654504652982  0.4848499889999971   F   F   F
  0.5027899740000024  0.5030300020000027  0.5603854384652962   F   F   F
  0.4268269065903423  0.6554689354310609  0.6364904156845137   T   T   T
  0.5783254224652978  0.5030300020000027  0.4848499889999971   F   F   F
  0.5024926656279586  0.3462719690342800  0.5621558608411681   T   T   T
  0.2755515800607651  0.5034012049453812  0.4852957459512794   T   T   T
  0.3454014368648333  0.5027783579325680  0.5628642626741910   T   T   T
  0.5052149017024749  0.5059162730025131  0.2588338067064200   T   T   T
  0.3513538128803010  0.4287910778767675  0.3317545536127413   T   T   T
  0.6561873926973774  0.4269887466554466  0.3341000751675262   T   T   T
  0.6611032502213290  0.5044341481227829  0.4076439140069228   T   T   T
  0.4244332074093933  0.4246732054093982  0.4064932224093951   F   F   F
  0.4244332074093933  0.5813867985906072  0.4064932224093951   F   F   F
  0.5811467705906068  0.5813867985906072  0.4064932224093951   F   F   F
  0.5034597512282252  0.6609526053067557  0.4077424207003187   T   T   T
  0.5034153704465405  0.7299794948976426  0.4843696560182875   T   T   T
  0.3507623923451788  0.6549197450749581  0.5615002659023508   T   T   T
  0.6601958649171221  0.4257987566970473  0.4844182554302315   T   T   T
  0.3515600223817711  0.3531851108326766  0.4068227358751258   T   T   T
  0.3501783335929979  0.5799362276526800  0.3327386834431321   T   T   T
  0.4264046793433922  0.3512476697768802  0.6377369027074260   T   T   T
  0.6542046388847602  0.4262696847954993  0.6374446980081091   T   T   T
  0.5811467705906068  0.5813867985906072  0.5632067865906052   F   F   F
  0.5037268910169578  0.4266207620329726  0.3273550632850104   T   T   T
  0.5027899740000024  0.5030300020000027  0.4093145705347041   F   F   F
  0.6552926239378105  0.6561803812730510  0.5611322823125159   T   T   T
  0.5028387767218239  0.5807690967150801  0.6420257978437058   T   T   T
  0.4244332074093933  0.5813867985906072  0.5632067865906052   F   F   F
  0.4261261728347485  0.5031584671743714  0.6421605064542842   T   T   T
  0.5818733644979863  0.5037693223963225  0.3288706574913423   T   T   T
  0.6543591174823169  0.3501562467199382  0.4079764858776631   T   T   T
  0.5811467705906068  0.4246732054093982  0.5632067865906052   F   F   F
  0.3509257933209914  0.5800107181088334  0.6366469528949263   T   T   T
  0.5029181801956899  0.2766160973178392  0.4846770572221404   T   T   T
  0.6551139494288352  0.5802071173797533  0.6359216235129240   T   T   T
  0.3512434750159172  0.3517905935700655  0.5621945725454477   T   T   T
  0.5035767275586147  0.5820954644720425  0.3286440665342162   T   T   T
  0.6575157710147314  0.6567663125787176  0.4073131301043792   T   T   T
  0.5812635380720085  0.6560624889738174  0.3339249452851759   T   T   T
  0.5802253772729530  0.3458197681631429  0.4851108113505987   T   T   T
  0.4272545555347023  0.5030300020000027  0.4848499889999971   F   F   F
  0.5814504516433492  0.6605398293408981  0.4845236047588145   T   T   T
  0.5799019635454490  0.6552676436974215  0.6363069902731676   T   T   T
  0.5028397893183915  0.3458180846223786  0.4071620211048991   T   T   T
  0.4282609435975998  0.3529971776344969  0.3310622323127344   T   T   T
  0.5802622049754985  0.3510832855692281  0.6368555738555886   T   T   T
  0.5029578185155391  0.4260338462670360  0.6424074603350628   T   T   T
  0.7304310092713140  0.5026202773806161  0.4842351592484725   T   T   T
  0.3446485098094255  0.5031962429149469  0.4074917199297813   T   T   T
  0.7041022386244556  0.7229548356907962  0.3939688408774958   T   T   T
  0.7327491539835346  0.7263401323060892  0.3634256845234943   T   T   T
  0.6938317290860149  0.7579506275106240  0.4241739825696932   T   T   T
  0.7136149417478003  0.7843325670702205  0.4157023063260215   T   T   T
 
  0.00000000E+00  0.00000000E+00  0.00000000E+00
  0.00000000E+00  0.00000000E+00  0.00000000E+00
  0.00000000E+00  0.00000000E+00  0.00000000E+00
  0.00000000E+00  0.00000000E+00  0.00000000E+00
  0.00000000E+00  0.00000000E+00  0.00000000E+00
  0.00000000E+00  0.00000000E+00  0.00000000E+00
  0.00000000E+00  0.00000000E+00  0.00000000E+00
  0.00000000E+00  0.00000000E+00  0.00000000E+00
  0.00000000E+00  0.00000000E+00  0.00000000E+00
  0.00000000E+00  0.00000000E+00  0.00000000E+00
  0.00000000E+00  0.00000000E+00  0.00000000E+00
  0.00000000E+00  0.00000000E+00  0.00000000E+00
  0.00000000E+00  0.00000000E+00  0.00000000E+00
  0.00000000E+00  0.00000000E+00  0.00000000E+00
  0.00000000E+00  0.00000000E+00  0.00000000E+00
  0.00000000E+00  0.00000000E+00  0.00000000E+00
  0.00000000E+00  0.00000000E+00  0.00000000E+00
  0.00000000E+00  0.00000000E+00  0.00000000E+00
  0.00000000E+00  0.00000000E+00  0.00000000E+00
  0.00000000E+00  0.00000000E+00  0.00000000E+00
  0.00000000E+00  0.00000000E+00  0.00000000E+00
  0.00000000E+00  0.00000000E+00  0.00000000E+00
  0.00000000E+00  0.00000000E+00  0.00000000E+00
  0.00000000E+00  0.00000000E+00  0.00000000E+00
  0.00000000E+00  0.00000000E+00  0.00000000E+00
  0.00000000E+00  0.00000000E+00  0.00000000E+00
  0.00000000E+00  0.00000000E+00  0.00000000E+00
  0.00000000E+00  0.00000000E+00  0.00000000E+00
  0.00000000E+00  0.00000000E+00  0.00000000E+00
  0.00000000E+00  0.00000000E+00  0.00000000E+00
  0.00000000E+00  0.00000000E+00  0.00000000E+00
  0.00000000E+00  0.00000000E+00  0.00000000E+00
  0.00000000E+00  0.00000000E+00  0.00000000E+00
  0.00000000E+00  0.00000000E+00  0.00000000E+00
  0.00000000E+00  0.00000000E+00  0.00000000E+00
  0.00000000E+00  0.00000000E+00  0.00000000E+00
  0.00000000E+00  0.00000000E+00  0.00000000E+00
  0.00000000E+00  0.00000000E+00  0.00000000E+00
  0.00000000E+00  0.00000000E+00  0.00000000E+00
  0.00000000E+00  0.00000000E+00  0.00000000E+00
  0.00000000E+00  0.00000000E+00  0.00000000E+00
  0.00000000E+00  0.00000000E+00  0.00000000E+00
  0.00000000E+00  0.00000000E+00  0.00000000E+00
  0.00000000E+00  0.00000000E+00  0.00000000E+00
  0.00000000E+00  0.00000000E+00  0.00000000E+00
  0.00000000E+00  0.00000000E+00  0.00000000E+00
  0.00000000E+00  0.00000000E+00  0.00000000E+00
  0.00000000E+00  0.00000000E+00  0.00000000E+00
  0.00000000E+00  0.00000000E+00  0.00000000E+00
  0.00000000E+00  0.00000000E+00  0.00000000E+00
  0.00000000E+00  0.00000000E+00  0.00000000E+00
  0.00000000E+00  0.00000000E+00  0.00000000E+00
  0.00000000E+00  0.00000000E+00  0.00000000E+00
  0.00000000E+00  0.00000000E+00  0.00000000E+00
  0.00000000E+00  0.00000000E+00  0.00000000E+00
  0.00000000E+00  0.00000000E+00  0.00000000E+00
  0.00000000E+00  0.00000000E+00  0.00000000E+00
  0.00000000E+00  0.00000000E+00  0.00000000E+00
  0.00000000E+00  0.00000000E+00  0.00000000E+00
  0.00000000E+00  0.00000000E+00  0.00000000E+00
  0.00000000E+00  0.00000000E+00  0.00000000E+00
  0.00000000E+00  0.00000000E+00  0.00000000E+00
  0.00000000E+00  0.00000000E+00  0.00000000E+00
  0.00000000E+00  0.00000000E+00  0.00000000E+00
  0.00000000E+00  0.00000000E+00  0.00000000E+00
  0.00000000E+00  0.00000000E+00  0.00000000E+00
  0.00000000E+00  0.00000000E+00  0.00000000E+00
  0.00000000E+00  0.00000000E+00  0.00000000E+00
  0.00000000E+00  0.00000000E+00  0.00000000E+00
  0.00000000E+00  0.00000000E+00  0.00000000E+00
  0.00000000E+00  0.00000000E+00  0.00000000E+00
  0.00000000E+00  0.00000000E+00  0.00000000E+00
