Bi C  O  H                              
   1.00000000000000     
    29.0000000000000000    0.0000000000000000    0.0000000000000000
     0.0000000000000000   29.0000000000000000    0.0000000000000000
     0.0000000000000000    0.0000000000000000   29.0000000000000000
   Bi   C    O    H 
    68     1     2     1
Selective dynamics
Direct
  0.5034256966290768  0.5051215395198863  0.7114562380051300   T   T   T
  0.3514043500722172  0.6556297251357176  0.4085367122250378   T   T   T
  0.3461515953065951  0.5804140342029500  0.4849496689817147   T   T   T
  0.5811467705906068  0.4246732054093982  0.4064932224093951   F   F   F
  0.4244332074093933  0.4246732054093982  0.5632067865906052   F   F   F
  0.6596117335687207  0.5796255315847181  0.4846040625613242   T   T   T
  0.4264259539230855  0.5032282604296191  0.3278036999555204   T   T   T
  0.4260545591087487  0.3452034561352860  0.4849422340879500   T   T   T
  0.5802906274972471  0.5033499427386530  0.6414590406483546   T   T   T
  0.3507284695104917  0.4267683155570492  0.6366389605397684   T   T   T
  0.5031342122342997  0.6642574706738039  0.5618152136197008   T   T   T
  0.5786066608446669  0.3494330241452651  0.3324337283260731   T   T   T
  0.4255305841715205  0.6614436653345782  0.4860071277993840   T   T   T
  0.4262202327699715  0.6556913536382460  0.3331338452022777   T   T   T
  0.6599078018919012  0.5026216114303305  0.5610642476083140   T   T   T
  0.6544913870441676  0.5799125051884794  0.3332639134771654   T   T   T
  0.6538330597840556  0.3498802314473107  0.5619204255981136   T   T   T
  0.5027899740000024  0.4274945535347072  0.4848499889999971   F   F   F
  0.3460441498396578  0.4251033481678524  0.4852158079805944   T   T   T
  0.5027899740000024  0.5785654504652982  0.4848499889999971   F   F   F
  0.5027899740000024  0.5030300020000027  0.5603854384652962   F   F   F
  0.4237927624828861  0.6537290592886752  0.6376997704606130   T   T   T
  0.5783254224652978  0.5030300020000027  0.4848499889999971   F   F   F
  0.5025798369344611  0.3457135274453966  0.5625668183083469   T   T   T
  0.2764985497346749  0.5025481075429363  0.4843610596739106   T   T   T
  0.3461998535737121  0.5030967235606153  0.5613830835999170   T   T   T
  0.5024642146151312  0.5014915757493174  0.2574873052227417   T   T   T
  0.3517471523075865  0.4258447796945963  0.3325010484095458   T   T   T
  0.6531698138903885  0.4251294517630999  0.3321507235655164   T   T   T
  0.6596377647668148  0.5022837949751767  0.4073089441068312   T   T   T
  0.4244332074093933  0.4246732054093982  0.4064932224093951   F   F   F
  0.4244332074093933  0.5813867985906072  0.4064932224093951   F   F   F
  0.5811467705906068  0.5813867985906072  0.4064932224093951   F   F   F
  0.5025926594200956  0.6596015595584100  0.4076650788590210   T   T   T
  0.5026786541683057  0.7313698647386594  0.4808780137833769   T   T   T
  0.3501056067931363  0.6551267643436270  0.5619578270518221   T   T   T
  0.6594205266299108  0.4248755015266693  0.4847612740428049   T   T   T
  0.3515402964040755  0.3506614493360231  0.4073171892080770   T   T   T
  0.3512100025336842  0.5805703355724027  0.3333092026851962   T   T   T
  0.4262270289692232  0.3518660681678177  0.6377778555679759   T   T   T
  0.6558461467607101  0.4259020377611796  0.6355959021101996   T   T   T
  0.5811467705906068  0.5813867985906072  0.5632067865906052   F   F   F
  0.5025965763118840  0.4249077384320784  0.3280603782132386   T   T   T
  0.5027899740000024  0.5030300020000027  0.4093145705347041   F   F   F
  0.6562198006414903  0.6546431878002250  0.5605921597829577   T   T   T
  0.5030864872932463  0.5814658930169271  0.6411705010477252   T   T   T
  0.4244332074093933  0.5813867985906072  0.5632067865906052   F   F   F
  0.4258285738080400  0.5032976561608885  0.6422735307629432   T   T   T
  0.5790201616910566  0.5031423014110420  0.3275798571555109   T   T   T
  0.6532048928824801  0.3500171772358171  0.4069558581574315   T   T   T
  0.5811467705906068  0.4246732054093982  0.5632067865906052   F   F   F
  0.3505688533253544  0.5796434496510001  0.6375970168954521   T   T   T
  0.5025323246417869  0.2751542518527152  0.4857864197288279   T   T   T
  0.6556245109570324  0.5799089296766339  0.6364132069686523   T   T   T
  0.3515810951939379  0.3502960731912398  0.5625064946510219   T   T   T
  0.5027555961182366  0.5801835412674931  0.3269317892908903   T   T   T
  0.6543500008655114  0.6552581962154377  0.4082196048670304   T   T   T
  0.5791613016767204  0.6555291167504448  0.3333879955071763   T   T   T
  0.5787196774406093  0.3455403996388100  0.4846061609835313   T   T   T
  0.4272545555347023  0.5030300020000027  0.4848499889999971   F   F   F
  0.5801377494853246  0.6611109732678381  0.4852751473292965   T   T   T
  0.5819981011978438  0.6547121564052772  0.6363064093031819   T   T   T
  0.5024681379847967  0.3441023516817210  0.4072546501615263   T   T   T
  0.4259355662321471  0.3495937846672988  0.3325904118944449   T   T   T
  0.5793191090527358  0.3516483462238187  0.6373568706722129   T   T   T
  0.5029087761460636  0.4268271986073258  0.6422636862000625   T   T   T
  0.7295340309174526  0.5016340042841103  0.4840393520225086   T   T   T
  0.3462171582643516  0.5027961028175202  0.4076501780852054   T   T   T
  0.4969685858127473  0.7322290431831523  0.6105301540033691   T   T   T
  0.5214842637980317  0.7398822822907861  0.6442364332660721   T   T   T
  0.4637091972789981  0.7630591353948605  0.5966381926918285   T   T   T
  0.4648571110419686  0.7891557090724010  0.6185192361368369   T   T   T
 
  0.00000000E+00  0.00000000E+00  0.00000000E+00
  0.00000000E+00  0.00000000E+00  0.00000000E+00
  0.00000000E+00  0.00000000E+00  0.00000000E+00
  0.00000000E+00  0.00000000E+00  0.00000000E+00
  0.00000000E+00  0.00000000E+00  0.00000000E+00
  0.00000000E+00  0.00000000E+00  0.00000000E+00
  0.00000000E+00  0.00000000E+00  0.00000000E+00
  0.00000000E+00  0.00000000E+00  0.00000000E+00
  0.00000000E+00  0.00000000E+00  0.00000000E+00
  0.00000000E+00  0.00000000E+00  0.00000000E+00
  0.00000000E+00  0.00000000E+00  0.00000000E+00
  0.00000000E+00  0.00000000E+00  0.00000000E+00
  0.00000000E+00  0.00000000E+00  0.00000000E+00
  0.00000000E+00  0.00000000E+00  0.00000000E+00
  0.00000000E+00  0.00000000E+00  0.00000000E+00
  0.00000000E+00  0.00000000E+00  0.00000000E+00
  0.00000000E+00  0.00000000E+00  0.00000000E+00
  0.00000000E+00  0.00000000E+00  0.00000000E+00
  0.00000000E+00  0.00000000E+00  0.00000000E+00
  0.00000000E+00  0.00000000E+00  0.00000000E+00
  0.00000000E+00  0.00000000E+00  0.00000000E+00
  0.00000000E+00  0.00000000E+00  0.00000000E+00
  0.00000000E+00  0.00000000E+00  0.00000000E+00
  0.00000000E+00  0.00000000E+00  0.00000000E+00
  0.00000000E+00  0.00000000E+00  0.00000000E+00
  0.00000000E+00  0.00000000E+00  0.00000000E+00
  0.00000000E+00  0.00000000E+00  0.00000000E+00
  0.00000000E+00  0.00000000E+00  0.00000000E+00
  0.00000000E+00  0.00000000E+00  0.00000000E+00
  0.00000000E+00  0.00000000E+00  0.00000000E+00
  0.00000000E+00  0.00000000E+00  0.00000000E+00
  0.00000000E+00  0.00000000E+00  0.00000000E+00
  0.00000000E+00  0.00000000E+00  0.00000000E+00
  0.00000000E+00  0.00000000E+00  0.00000000E+00
  0.00000000E+00  0.00000000E+00  0.00000000E+00
  0.00000000E+00  0.00000000E+00  0.00000000E+00
  0.00000000E+00  0.00000000E+00  0.00000000E+00
  0.00000000E+00  0.00000000E+00  0.00000000E+00
  0.00000000E+00  0.00000000E+00  0.00000000E+00
  0.00000000E+00  0.00000000E+00  0.00000000E+00
  0.00000000E+00  0.00000000E+00  0.00000000E+00
  0.00000000E+00  0.00000000E+00  0.00000000E+00
  0.00000000E+00  0.00000000E+00  0.00000000E+00
  0.00000000E+00  0.00000000E+00  0.00000000E+00
  0.00000000E+00  0.00000000E+00  0.00000000E+00
  0.00000000E+00  0.00000000E+00  0.00000000E+00
  0.00000000E+00  0.00000000E+00  0.00000000E+00
  0.00000000E+00  0.00000000E+00  0.00000000E+00
  0.00000000E+00  0.00000000E+00  0.00000000E+00
  0.00000000E+00  0.00000000E+00  0.00000000E+00
  0.00000000E+00  0.00000000E+00  0.00000000E+00
  0.00000000E+00  0.00000000E+00  0.00000000E+00
  0.00000000E+00  0.00000000E+00  0.00000000E+00
  0.00000000E+00  0.00000000E+00  0.00000000E+00
  0.00000000E+00  0.00000000E+00  0.00000000E+00
  0.00000000E+00  0.00000000E+00  0.00000000E+00
  0.00000000E+00  0.00000000E+00  0.00000000E+00
  0.00000000E+00  0.00000000E+00  0.00000000E+00
  0.00000000E+00  0.00000000E+00  0.00000000E+00
  0.00000000E+00  0.00000000E+00  0.00000000E+00
  0.00000000E+00  0.00000000E+00  0.00000000E+00
  0.00000000E+00  0.00000000E+00  0.00000000E+00
  0.00000000E+00  0.00000000E+00  0.00000000E+00
  0.00000000E+00  0.00000000E+00  0.00000000E+00
  0.00000000E+00  0.00000000E+00  0.00000000E+00
  0.00000000E+00  0.00000000E+00  0.00000000E+00
  0.00000000E+00  0.00000000E+00  0.00000000E+00
  0.00000000E+00  0.00000000E+00  0.00000000E+00
  0.00000000E+00  0.00000000E+00  0.00000000E+00
  0.00000000E+00  0.00000000E+00  0.00000000E+00
  0.00000000E+00  0.00000000E+00  0.00000000E+00
  0.00000000E+00  0.00000000E+00  0.00000000E+00
