Bi C  O  H                              
   1.00000000000000     
    29.0000000000000000    0.0000000000000000    0.0000000000000000
     0.0000000000000000   29.0000000000000000    0.0000000000000000
     0.0000000000000000    0.0000000000000000   29.0000000000000000
   Bi   C    O    H 
    68     1     2     1
Selective dynamics
Direct
  0.5025532732444054  0.5030307226596100  0.7119873356647620   T   T   T
  0.3509130600816186  0.6553117972543169  0.4083459440663120   T   T   T
  0.3458589882848996  0.5788442030369059  0.4850951511107329   T   T   T
  0.5811467705906068  0.4246732054093982  0.4064932224093951   F   F   F
  0.4244332074093933  0.4246732054093982  0.5632067865906052   F   F   F
  0.6600358177386263  0.5807072062101859  0.4845360982493601   T   T   T
  0.4253911696602274  0.5033048003514320  0.3273649034354522   T   T   T
  0.4236120686716733  0.3472519469802235  0.4854998052751170   T   T   T
  0.5801052873964497  0.5032317621851432  0.6420242171421923   T   T   T
  0.3482259329021186  0.4250564107767114  0.6390665004245385   T   T   T
  0.5026275269218170  0.6602859620696055  0.5621480196873225   T   T   T
  0.5770053429355110  0.3496044768739826  0.3339775781104821   T   T   T
  0.4249617319729899  0.6598391585723988  0.4849365233788588   T   T   T
  0.4247626805861396  0.6545616495570767  0.3329704890598520   T   T   T
  0.6604510495804876  0.5034674507361366  0.5616701615146498   T   T   T
  0.6545182477225724  0.5798675751047764  0.3335721451952748   T   T   T
  0.6551122118481563  0.3509895307616749  0.5619944534787327   T   T   T
  0.5027899740000024  0.4274945535347072  0.4848499889999971   F   F   F
  0.3442424413658493  0.4257405554918488  0.4864567067396057   T   T   T
  0.5027899740000024  0.5785654504652982  0.4848499889999971   F   F   F
  0.5027899740000024  0.5030300020000027  0.5603854384652962   F   F   F
  0.4256191760324811  0.6547841259598460  0.6366864428647070   T   T   T
  0.5783254224652978  0.5030300020000027  0.4848499889999971   F   F   F
  0.5019542872367804  0.3471819241258298  0.5639381476276503   T   T   T
  0.2751749587243684  0.5023024921601170  0.4851102580578298   T   T   T
  0.3443603573724249  0.5039315939187013  0.5631210520302778   T   T   T
  0.5026362161532363  0.5030268068707012  0.2577743014497026   T   T   T
  0.3510972012724685  0.4260701678875849  0.3319843998855166   T   T   T
  0.6532525557170733  0.4245008541105841  0.3342418647975811   T   T   T
  0.6601526797242276  0.5029856543076888  0.4078698587444901   T   T   T
  0.4244332074093933  0.4246732054093982  0.4064932224093951   F   F   F
  0.4244332074093933  0.5813867985906072  0.4064932224093951   F   F   F
  0.5811467705906068  0.5813867985906072  0.4064932224093951   F   F   F
  0.5026003334697307  0.6602063138191469  0.4076395105191989   T   T   T
  0.5019270052327215  0.7299007533209605  0.4846944243398156   T   T   T
  0.3505685633268469  0.6543626923295083  0.5618404192397977   T   T   T
  0.6607890737856095  0.4252957006646974  0.4848733048796465   T   T   T
  0.3489418334185179  0.3528398736041008  0.4088319556766628   T   T   T
  0.3499818820326786  0.5789785805512023  0.3333029657341980   T   T   T
  0.4248895524758762  0.3524250025925060  0.6386676759609359   T   T   T
  0.6559475662840552  0.4262171561345048  0.6360219999880383   T   T   T
  0.5811467705906068  0.5813867985906072  0.5632067865906052   F   F   F
  0.5026441173316543  0.4254301428325526  0.3269675349238159   T   T   T
  0.5027899740000024  0.5030300020000027  0.4093145705347041   F   F   F
  0.6546177325222148  0.6552919931153272  0.5616437667686585   T   T   T
  0.5025745262642694  0.5795348192253197  0.6415459262285419   T   T   T
  0.4244332074093933  0.5813867985906072  0.5632067865906052   F   F   F
  0.4242496280866724  0.5031266457357690  0.6429447064522956   T   T   T
  0.5798639253152221  0.5030779643560351  0.3274957446348610   T   T   T
  0.6540761767572110  0.3497944208451685  0.4104424048888143   T   T   T
  0.5811467705906068  0.4246732054093982  0.5632067865906052   F   F   F
  0.3502859445595671  0.5793996693200071  0.6379074713902595   T   T   T
  0.5001064873614764  0.2774199520701106  0.4873159160063344   T   T   T
  0.6552123540413103  0.5797499840689059  0.6362549134513183   T   T   T
  0.3495470085516811  0.3513150903590291  0.5625931757576835   T   T   T
  0.5029550933748697  0.5802580839534277  0.3278464888444275   T   T   T
  0.6544848184451199  0.6558402475408652  0.4083254692782872   T   T   T
  0.5794387068309259  0.6555502069023602  0.3331074530586491   T   T   T
  0.5794342505378273  0.3461219992643019  0.4858671236690141   T   T   T
  0.4272545555347023  0.5030300020000027  0.4848499889999971   F   F   F
  0.5795532907238357  0.6604016861023202  0.4847563582872224   T   T   T
  0.5791070759728048  0.6557034120742598  0.6362091949663584   T   T   T
  0.5017079466504436  0.3462457559585546  0.4082653830930248   T   T   T
  0.4254479247306125  0.3509149677126630  0.3331043787498107   T   T   T
  0.5794287032039377  0.3526097863028357  0.6381764088367582   T   T   T
  0.5020767181966191  0.4261913951613100  0.6430835109107119   T   T   T
  0.7299943677510575  0.5030411019722399  0.4848073875016095   T   T   T
  0.3454591798705459  0.5024495117901405  0.4078587298120971   T   T   T
  0.2968240829102626  0.4059028026573856  0.7001537671190543   T   T   T
  0.2696442446359757  0.3738961291281948  0.6997222405514592   T   T   T
  0.3026261233270418  0.4346960582279262  0.7373191138206270   T   T   T
  0.2812636336832140  0.4238666721441727  0.7615256471961538   T   T   T
 
  0.00000000E+00  0.00000000E+00  0.00000000E+00
  0.00000000E+00  0.00000000E+00  0.00000000E+00
  0.00000000E+00  0.00000000E+00  0.00000000E+00
  0.00000000E+00  0.00000000E+00  0.00000000E+00
  0.00000000E+00  0.00000000E+00  0.00000000E+00
  0.00000000E+00  0.00000000E+00  0.00000000E+00
  0.00000000E+00  0.00000000E+00  0.00000000E+00
  0.00000000E+00  0.00000000E+00  0.00000000E+00
  0.00000000E+00  0.00000000E+00  0.00000000E+00
  0.00000000E+00  0.00000000E+00  0.00000000E+00
  0.00000000E+00  0.00000000E+00  0.00000000E+00
  0.00000000E+00  0.00000000E+00  0.00000000E+00
  0.00000000E+00  0.00000000E+00  0.00000000E+00
  0.00000000E+00  0.00000000E+00  0.00000000E+00
  0.00000000E+00  0.00000000E+00  0.00000000E+00
  0.00000000E+00  0.00000000E+00  0.00000000E+00
  0.00000000E+00  0.00000000E+00  0.00000000E+00
  0.00000000E+00  0.00000000E+00  0.00000000E+00
  0.00000000E+00  0.00000000E+00  0.00000000E+00
  0.00000000E+00  0.00000000E+00  0.00000000E+00
  0.00000000E+00  0.00000000E+00  0.00000000E+00
  0.00000000E+00  0.00000000E+00  0.00000000E+00
  0.00000000E+00  0.00000000E+00  0.00000000E+00
  0.00000000E+00  0.00000000E+00  0.00000000E+00
  0.00000000E+00  0.00000000E+00  0.00000000E+00
  0.00000000E+00  0.00000000E+00  0.00000000E+00
  0.00000000E+00  0.00000000E+00  0.00000000E+00
  0.00000000E+00  0.00000000E+00  0.00000000E+00
  0.00000000E+00  0.00000000E+00  0.00000000E+00
  0.00000000E+00  0.00000000E+00  0.00000000E+00
  0.00000000E+00  0.00000000E+00  0.00000000E+00
  0.00000000E+00  0.00000000E+00  0.00000000E+00
  0.00000000E+00  0.00000000E+00  0.00000000E+00
  0.00000000E+00  0.00000000E+00  0.00000000E+00
  0.00000000E+00  0.00000000E+00  0.00000000E+00
  0.00000000E+00  0.00000000E+00  0.00000000E+00
  0.00000000E+00  0.00000000E+00  0.00000000E+00
  0.00000000E+00  0.00000000E+00  0.00000000E+00
  0.00000000E+00  0.00000000E+00  0.00000000E+00
  0.00000000E+00  0.00000000E+00  0.00000000E+00
  0.00000000E+00  0.00000000E+00  0.00000000E+00
  0.00000000E+00  0.00000000E+00  0.00000000E+00
  0.00000000E+00  0.00000000E+00  0.00000000E+00
  0.00000000E+00  0.00000000E+00  0.00000000E+00
  0.00000000E+00  0.00000000E+00  0.00000000E+00
  0.00000000E+00  0.00000000E+00  0.00000000E+00
  0.00000000E+00  0.00000000E+00  0.00000000E+00
  0.00000000E+00  0.00000000E+00  0.00000000E+00
  0.00000000E+00  0.00000000E+00  0.00000000E+00
  0.00000000E+00  0.00000000E+00  0.00000000E+00
  0.00000000E+00  0.00000000E+00  0.00000000E+00
  0.00000000E+00  0.00000000E+00  0.00000000E+00
  0.00000000E+00  0.00000000E+00  0.00000000E+00
  0.00000000E+00  0.00000000E+00  0.00000000E+00
  0.00000000E+00  0.00000000E+00  0.00000000E+00
  0.00000000E+00  0.00000000E+00  0.00000000E+00
  0.00000000E+00  0.00000000E+00  0.00000000E+00
  0.00000000E+00  0.00000000E+00  0.00000000E+00
  0.00000000E+00  0.00000000E+00  0.00000000E+00
  0.00000000E+00  0.00000000E+00  0.00000000E+00
  0.00000000E+00  0.00000000E+00  0.00000000E+00
  0.00000000E+00  0.00000000E+00  0.00000000E+00
  0.00000000E+00  0.00000000E+00  0.00000000E+00
  0.00000000E+00  0.00000000E+00  0.00000000E+00
  0.00000000E+00  0.00000000E+00  0.00000000E+00
  0.00000000E+00  0.00000000E+00  0.00000000E+00
  0.00000000E+00  0.00000000E+00  0.00000000E+00
  0.00000000E+00  0.00000000E+00  0.00000000E+00
  0.00000000E+00  0.00000000E+00  0.00000000E+00
  0.00000000E+00  0.00000000E+00  0.00000000E+00
  0.00000000E+00  0.00000000E+00  0.00000000E+00
  0.00000000E+00  0.00000000E+00  0.00000000E+00
