Bi C  O  H                              
   1.00000000000000     
    29.0000000000000000    0.0000000000000000    0.0000000000000000
     0.0000000000000000   29.0000000000000000    0.0000000000000000
     0.0000000000000000    0.0000000000000000   29.0000000000000000
   Bi   C    O    H 
    68     1     2     1
Selective dynamics
Direct
  0.5034537330371754  0.5032033175789542  0.7123286426800755   T   T   T
  0.3506763031990817  0.6551467642047334  0.4088341739130591   T   T   T
  0.3458715228778514  0.5805716829653578  0.4848543890938044   T   T   T
  0.5811467705906068  0.4246732054093982  0.4064932224093951   F   F   F
  0.4244332074093933  0.4246732054093982  0.5632067865906052   F   F   F
  0.6588441096685806  0.5823457578740043  0.4855286472145283   T   T   T
  0.4247909703532956  0.5030536409484154  0.3274327866555034   T   T   T
  0.4249379302397700  0.3463194492178017  0.4850929518575063   T   T   T
  0.5800141130990168  0.5044157719788135  0.6429915403701177   T   T   T
  0.3503816596458756  0.4267635973411442  0.6365509428734100   T   T   T
  0.5028637980205438  0.6610654345619135  0.5632023409994801   T   T   T
  0.5802928078901191  0.3528484359442332  0.3339403508250357   T   T   T
  0.4264282118425955  0.6599908072749922  0.4849868280010389   T   T   T
  0.4255921709401400  0.6544867556331226  0.3327045254442262   T   T   T
  0.6587983992124902  0.5037799276696042  0.5636063464832290   T   T   T
  0.6552472802327679  0.5802927998085158  0.3329260616913990   T   T   T
  0.6553483516085477  0.3514403463979882  0.5624317188833905   T   T   T
  0.5027899740000024  0.4274945535347072  0.4848499889999971   F   F   F
  0.3450709089297587  0.4258753887190781  0.4849720301147503   T   T   T
  0.5027899740000024  0.5785654504652982  0.4848499889999971   F   F   F
  0.5027899740000024  0.5030300020000027  0.5603854384652962   F   F   F
  0.4265491484949254  0.6560220323141541  0.6373060779497635   T   T   T
  0.5783254224652978  0.5030300020000027  0.4848499889999971   F   F   F
  0.5023781280856680  0.3456981005556237  0.5625307271401974   T   T   T
  0.2758421096788036  0.5034285156782277  0.4853206404768240   T   T   T
  0.3460414032757930  0.5031505834225989  0.5622349445334122   T   T   T
  0.5025766016530437  0.5035961961169897  0.2574858880246039   T   T   T
  0.3501286868515662  0.4262879780473192  0.3332057867420540   T   T   T
  0.6559097408658712  0.4281525560224689  0.3336415500266149   T   T   T
  0.6595360978846244  0.5040894007781705  0.4080676579292378   T   T   T
  0.4244332074093933  0.4246732054093982  0.4064932224093951   F   F   F
  0.4244332074093933  0.5813867985906072  0.4064932224093951   F   F   F
  0.5811467705906068  0.5813867985906072  0.4064932224093951   F   F   F
  0.5027584473012775  0.6600847789743434  0.4075542502618258   T   T   T
  0.5030489362266635  0.7301870577287283  0.4849335080213856   T   T   T
  0.3513088428061529  0.6552693980554514  0.5620057528739296   T   T   T
  0.6602150145949757  0.4260684721464051  0.4856902340358629   T   T   T
  0.3502648122601190  0.3511360576072879  0.4083579040949538   T   T   T
  0.3501497265708726  0.5797881097500071  0.3332486643728997   T   T   T
  0.4260814806248875  0.3515782269401586  0.6373184495210199   T   T   T
  0.6537717569179665  0.4270308954428311  0.6379890976678638   T   T   T
  0.5811467705906068  0.5813867985906072  0.5632067865906052   F   F   F
  0.5026295989453680  0.4265645026805473  0.3274415202862452   T   T   T
  0.5027899740000024  0.5030300020000027  0.4093145705347041   F   F   F
  0.6538167272579044  0.6562065302333124  0.5632585822312400   T   T   T
  0.5020750108348740  0.5812700461658100  0.6430841210812921   T   T   T
  0.4244332074093933  0.5813867985906072  0.5632067865906052   F   F   F
  0.4267787338227146  0.5033773274265617  0.6419817246949745   T   T   T
  0.5804294365847623  0.5031979450672993  0.3267208244611177   T   T   T
  0.6560126969943314  0.3522960737760170  0.4101855506312388   T   T   T
  0.5811467705906068  0.4246732054093982  0.5632067865906052   F   F   F
  0.3512906330772649  0.5801248243026977  0.6367856667105364   T   T   T
  0.5022146557099048  0.2764775617563384  0.4855331211034608   T   T   T
  0.6552609578051340  0.5799301967704757  0.6375393704816072   T   T   T
  0.3501074098440909  0.3514948544629471  0.5625882429600176   T   T   T
  0.5023841588579382  0.5800505229897481  0.3272801382531884   T   T   T
  0.6536815249008031  0.6562836314208612  0.4082734086105519   T   T   T
  0.5796966211611513  0.6542731587795554  0.3319922520150811   T   T   T
  0.5802467857766942  0.3455623695622783  0.4851886283982606   T   T   T
  0.4272545555347023  0.5030300020000027  0.4848499889999971   F   F   F
  0.5796165438578873  0.6610572608789381  0.4854805301523122   T   T   T
  0.5795875977844099  0.6571512339594814  0.6391525105791320   T   T   T
  0.5027282634393955  0.3462291785411820  0.4083373126682179   T   T   T
  0.4262927912973262  0.3517020402350580  0.3333341580264128   T   T   T
  0.5797842752242771  0.3503718301993674  0.6364271998080233   T   T   T
  0.5031881173550374  0.4261559085114980  0.6422715533422890   T   T   T
  0.7286833046145715  0.5057274664125603  0.4869368592315494   T   T   T
  0.3456829618645275  0.5028821333603154  0.4081775769463671   T   T   T
  0.5852027649633760  0.7222687612852210  0.6888992866153770   T   T   T
  0.6189413713779872  0.7315426856519825  0.7121459128427303   T   T   T
  0.5457982356159210  0.7486015717879781  0.6884514906183192   T   T   T
  0.5512581848153107  0.7745999478971930  0.7097829606963743   T   T   T
 
  0.00000000E+00  0.00000000E+00  0.00000000E+00
  0.00000000E+00  0.00000000E+00  0.00000000E+00
  0.00000000E+00  0.00000000E+00  0.00000000E+00
  0.00000000E+00  0.00000000E+00  0.00000000E+00
  0.00000000E+00  0.00000000E+00  0.00000000E+00
  0.00000000E+00  0.00000000E+00  0.00000000E+00
  0.00000000E+00  0.00000000E+00  0.00000000E+00
  0.00000000E+00  0.00000000E+00  0.00000000E+00
  0.00000000E+00  0.00000000E+00  0.00000000E+00
  0.00000000E+00  0.00000000E+00  0.00000000E+00
  0.00000000E+00  0.00000000E+00  0.00000000E+00
  0.00000000E+00  0.00000000E+00  0.00000000E+00
  0.00000000E+00  0.00000000E+00  0.00000000E+00
  0.00000000E+00  0.00000000E+00  0.00000000E+00
  0.00000000E+00  0.00000000E+00  0.00000000E+00
  0.00000000E+00  0.00000000E+00  0.00000000E+00
  0.00000000E+00  0.00000000E+00  0.00000000E+00
  0.00000000E+00  0.00000000E+00  0.00000000E+00
  0.00000000E+00  0.00000000E+00  0.00000000E+00
  0.00000000E+00  0.00000000E+00  0.00000000E+00
  0.00000000E+00  0.00000000E+00  0.00000000E+00
  0.00000000E+00  0.00000000E+00  0.00000000E+00
  0.00000000E+00  0.00000000E+00  0.00000000E+00
  0.00000000E+00  0.00000000E+00  0.00000000E+00
  0.00000000E+00  0.00000000E+00  0.00000000E+00
  0.00000000E+00  0.00000000E+00  0.00000000E+00
  0.00000000E+00  0.00000000E+00  0.00000000E+00
  0.00000000E+00  0.00000000E+00  0.00000000E+00
  0.00000000E+00  0.00000000E+00  0.00000000E+00
  0.00000000E+00  0.00000000E+00  0.00000000E+00
  0.00000000E+00  0.00000000E+00  0.00000000E+00
  0.00000000E+00  0.00000000E+00  0.00000000E+00
  0.00000000E+00  0.00000000E+00  0.00000000E+00
  0.00000000E+00  0.00000000E+00  0.00000000E+00
  0.00000000E+00  0.00000000E+00  0.00000000E+00
  0.00000000E+00  0.00000000E+00  0.00000000E+00
  0.00000000E+00  0.00000000E+00  0.00000000E+00
  0.00000000E+00  0.00000000E+00  0.00000000E+00
  0.00000000E+00  0.00000000E+00  0.00000000E+00
  0.00000000E+00  0.00000000E+00  0.00000000E+00
  0.00000000E+00  0.00000000E+00  0.00000000E+00
  0.00000000E+00  0.00000000E+00  0.00000000E+00
  0.00000000E+00  0.00000000E+00  0.00000000E+00
  0.00000000E+00  0.00000000E+00  0.00000000E+00
  0.00000000E+00  0.00000000E+00  0.00000000E+00
  0.00000000E+00  0.00000000E+00  0.00000000E+00
  0.00000000E+00  0.00000000E+00  0.00000000E+00
  0.00000000E+00  0.00000000E+00  0.00000000E+00
  0.00000000E+00  0.00000000E+00  0.00000000E+00
  0.00000000E+00  0.00000000E+00  0.00000000E+00
  0.00000000E+00  0.00000000E+00  0.00000000E+00
  0.00000000E+00  0.00000000E+00  0.00000000E+00
  0.00000000E+00  0.00000000E+00  0.00000000E+00
  0.00000000E+00  0.00000000E+00  0.00000000E+00
  0.00000000E+00  0.00000000E+00  0.00000000E+00
  0.00000000E+00  0.00000000E+00  0.00000000E+00
  0.00000000E+00  0.00000000E+00  0.00000000E+00
  0.00000000E+00  0.00000000E+00  0.00000000E+00
  0.00000000E+00  0.00000000E+00  0.00000000E+00
  0.00000000E+00  0.00000000E+00  0.00000000E+00
  0.00000000E+00  0.00000000E+00  0.00000000E+00
  0.00000000E+00  0.00000000E+00  0.00000000E+00
  0.00000000E+00  0.00000000E+00  0.00000000E+00
  0.00000000E+00  0.00000000E+00  0.00000000E+00
  0.00000000E+00  0.00000000E+00  0.00000000E+00
  0.00000000E+00  0.00000000E+00  0.00000000E+00
  0.00000000E+00  0.00000000E+00  0.00000000E+00
  0.00000000E+00  0.00000000E+00  0.00000000E+00
  0.00000000E+00  0.00000000E+00  0.00000000E+00
  0.00000000E+00  0.00000000E+00  0.00000000E+00
  0.00000000E+00  0.00000000E+00  0.00000000E+00
  0.00000000E+00  0.00000000E+00  0.00000000E+00
