Bi C  O  H                              
   1.00000000000000     
    29.0000000000000000    0.0000000000000000    0.0000000000000000
     0.0000000000000000   29.0000000000000000    0.0000000000000000
     0.0000000000000000    0.0000000000000000   29.0000000000000000
   Bi   C    O    H 
    68     1     2     1
Selective dynamics
Direct
  0.5030983382532030  0.5008962409513175  0.7114804341698815   T   T   T
  0.3510391152865667  0.6553818719840103  0.4073017777186783   T   T   T
  0.3460772416407695  0.5804977732388060  0.4848926798252592   T   T   T
  0.5811467705906068  0.4246732054093982  0.4064932224093951   F   F   F
  0.4244332074093933  0.4246732054093982  0.5632067865906052   F   F   F
  0.6592936538887378  0.5807894761422590  0.4845498861157680   T   T   T
  0.4262619904992246  0.5031235306533858  0.3278804143377856   T   T   T
  0.4260941354323822  0.3446644612875257  0.4862132345823344   T   T   T
  0.5802228441442644  0.5032163202290566  0.6419265134771159   T   T   T
  0.3512875637059906  0.4256972999895466  0.6375603091094171   T   T   T
  0.5026481596185932  0.6601607109573533  0.5617208512549771   T   T   T
  0.5787686813031104  0.3502653135311216  0.3330455594003756   T   T   T
  0.4261197658388490  0.6605225020293238  0.4842621263751151   T   T   T
  0.4254880017134635  0.6565936672296458  0.3328132199341331   T   T   T
  0.6598415419694560  0.5031866881763785  0.5608259166699054   T   T   T
  0.6535832217767696  0.5800984533019428  0.3321120517235288   T   T   T
  0.6559969203403805  0.3517140400025713  0.5616186981851455   T   T   T
  0.5027899740000024  0.4274945535347072  0.4848499889999971   F   F   F
  0.3459906033689846  0.4253720470896014  0.4851294009018590   T   T   T
  0.5027899740000024  0.5785654504652982  0.4848499889999971   F   F   F
  0.5027899740000024  0.5030300020000027  0.5603854384652962   F   F   F
  0.4260291618697846  0.6546043583080560  0.6369089038275344   T   T   T
  0.5783254224652978  0.5030300020000027  0.4848499889999971   F   F   F
  0.5033282586386951  0.3415704491140250  0.5620019424669963   T   T   T
  0.2763856759303348  0.5032049686656115  0.4846178431279689   T   T   T
  0.3460648517965173  0.5029011940331887  0.5614601967843865   T   T   T
  0.5019579742650123  0.5053949157023109  0.2571671751660148   T   T   T
  0.3514427283038246  0.4254352822132851  0.3333406548064439   T   T   T
  0.6535792167413763  0.4257019677935109  0.3325578563606767   T   T   T
  0.6593999358235878  0.5032917574602771  0.4069403995547149   T   T   T
  0.4244332074093933  0.4246732054093982  0.4064932224093951   F   F   F
  0.4244332074093933  0.5813867985906072  0.4064932224093951   F   F   F
  0.5811467705906068  0.5813867985906072  0.4064932224093951   F   F   F
  0.5025682845064366  0.6621880670041033  0.4064464461928737   T   T   T
  0.5025712261055827  0.7307624661006998  0.4851186856757916   T   T   T
  0.3515882984272624  0.6559939090138776  0.5618121084259150   T   T   T
  0.6598035182637834  0.4257977216037042  0.4847014006654065   T   T   T
  0.3517153877500104  0.3503979676932608  0.4084099548349281   T   T   T
  0.3511665355274156  0.5798802614083118  0.3329063260922692   T   T   T
  0.4247810007162319  0.3515050897113970  0.6370032230753182   T   T   T
  0.6551232480473441  0.4268625487180751  0.6372101877084404   T   T   T
  0.5811467705906068  0.5813867985906072  0.5632067865906052   F   F   F
  0.5026661453325614  0.4263495827320535  0.3268317321479031   T   T   T
  0.5027899740000024  0.5030300020000027  0.4093145705347041   F   F   F
  0.6538264432477426  0.6562135057766173  0.5613460631657242   T   T   T
  0.5030966888810702  0.5795677585514692  0.6421824719468717   T   T   T
  0.4244332074093933  0.5813867985906072  0.5632067865906052   F   F   F
  0.4259191557002259  0.5030607981810652  0.6418847182014622   T   T   T
  0.5785630870429227  0.5031847907050050  0.3273336349782049   T   T   T
  0.6539328339406218  0.3506104259630584  0.4077869348667454   T   T   T
  0.5811467705906068  0.4246732054093982  0.5632067865906052   F   F   F
  0.3503990609543881  0.5799479758447578  0.6359708089531942   T   T   T
  0.5032904287813661  0.2745988633039065  0.4805277111861296   T   T   T
  0.6554076765281525  0.5800697180236484  0.6358091639059252   T   T   T
  0.3500592466835007  0.3511491769594036  0.5618467820581636   T   T   T
  0.5025543613195755  0.5816271079192392  0.3277914954651488   T   T   T
  0.6538948467579775  0.6555088311666445  0.4069852495000438   T   T   T
  0.5793435458613182  0.6567861341322401  0.3327219906523892   T   T   T
  0.5803237300293786  0.3448018713527591  0.4859710936508134   T   T   T
  0.4272545555347023  0.5030300020000027  0.4848499889999971   F   F   F
  0.5791079686930256  0.6607463724621575  0.4842081949971213   T   T   T
  0.5798127426389857  0.6548707728698304  0.6366748825987324   T   T   T
  0.5027777793448684  0.3467963585027342  0.4080431214647012   T   T   T
  0.4266869667447306  0.3500964135342093  0.3332498153320903   T   T   T
  0.5817993845150145  0.3525471928599874  0.6375304968685493   T   T   T
  0.5028660926460520  0.4246194131667878  0.6414198262490314   T   T   T
  0.7293602172697713  0.5039185520893816  0.4835648145639518   T   T   T
  0.3459673794492338  0.5031425921958922  0.4075632080216036   T   T   T
  0.4992703900725720  0.2658162335756370  0.5971731420579569   T   T   T
  0.4642982249725149  0.2433743772435704  0.6041720730895097   T   T   T
  0.5424302135672987  0.2496597772517650  0.6094619235002851   T   T   T
  0.5378252121381085  0.2190540889761441  0.6236891692620258   T   T   T
 
  0.00000000E+00  0.00000000E+00  0.00000000E+00
  0.00000000E+00  0.00000000E+00  0.00000000E+00
  0.00000000E+00  0.00000000E+00  0.00000000E+00
  0.00000000E+00  0.00000000E+00  0.00000000E+00
  0.00000000E+00  0.00000000E+00  0.00000000E+00
  0.00000000E+00  0.00000000E+00  0.00000000E+00
  0.00000000E+00  0.00000000E+00  0.00000000E+00
  0.00000000E+00  0.00000000E+00  0.00000000E+00
  0.00000000E+00  0.00000000E+00  0.00000000E+00
  0.00000000E+00  0.00000000E+00  0.00000000E+00
  0.00000000E+00  0.00000000E+00  0.00000000E+00
  0.00000000E+00  0.00000000E+00  0.00000000E+00
  0.00000000E+00  0.00000000E+00  0.00000000E+00
  0.00000000E+00  0.00000000E+00  0.00000000E+00
  0.00000000E+00  0.00000000E+00  0.00000000E+00
  0.00000000E+00  0.00000000E+00  0.00000000E+00
  0.00000000E+00  0.00000000E+00  0.00000000E+00
  0.00000000E+00  0.00000000E+00  0.00000000E+00
  0.00000000E+00  0.00000000E+00  0.00000000E+00
  0.00000000E+00  0.00000000E+00  0.00000000E+00
  0.00000000E+00  0.00000000E+00  0.00000000E+00
  0.00000000E+00  0.00000000E+00  0.00000000E+00
  0.00000000E+00  0.00000000E+00  0.00000000E+00
  0.00000000E+00  0.00000000E+00  0.00000000E+00
  0.00000000E+00  0.00000000E+00  0.00000000E+00
  0.00000000E+00  0.00000000E+00  0.00000000E+00
  0.00000000E+00  0.00000000E+00  0.00000000E+00
  0.00000000E+00  0.00000000E+00  0.00000000E+00
  0.00000000E+00  0.00000000E+00  0.00000000E+00
  0.00000000E+00  0.00000000E+00  0.00000000E+00
  0.00000000E+00  0.00000000E+00  0.00000000E+00
  0.00000000E+00  0.00000000E+00  0.00000000E+00
  0.00000000E+00  0.00000000E+00  0.00000000E+00
  0.00000000E+00  0.00000000E+00  0.00000000E+00
  0.00000000E+00  0.00000000E+00  0.00000000E+00
  0.00000000E+00  0.00000000E+00  0.00000000E+00
  0.00000000E+00  0.00000000E+00  0.00000000E+00
  0.00000000E+00  0.00000000E+00  0.00000000E+00
  0.00000000E+00  0.00000000E+00  0.00000000E+00
  0.00000000E+00  0.00000000E+00  0.00000000E+00
  0.00000000E+00  0.00000000E+00  0.00000000E+00
  0.00000000E+00  0.00000000E+00  0.00000000E+00
  0.00000000E+00  0.00000000E+00  0.00000000E+00
  0.00000000E+00  0.00000000E+00  0.00000000E+00
  0.00000000E+00  0.00000000E+00  0.00000000E+00
  0.00000000E+00  0.00000000E+00  0.00000000E+00
  0.00000000E+00  0.00000000E+00  0.00000000E+00
  0.00000000E+00  0.00000000E+00  0.00000000E+00
  0.00000000E+00  0.00000000E+00  0.00000000E+00
  0.00000000E+00  0.00000000E+00  0.00000000E+00
  0.00000000E+00  0.00000000E+00  0.00000000E+00
  0.00000000E+00  0.00000000E+00  0.00000000E+00
  0.00000000E+00  0.00000000E+00  0.00000000E+00
  0.00000000E+00  0.00000000E+00  0.00000000E+00
  0.00000000E+00  0.00000000E+00  0.00000000E+00
  0.00000000E+00  0.00000000E+00  0.00000000E+00
  0.00000000E+00  0.00000000E+00  0.00000000E+00
  0.00000000E+00  0.00000000E+00  0.00000000E+00
  0.00000000E+00  0.00000000E+00  0.00000000E+00
  0.00000000E+00  0.00000000E+00  0.00000000E+00
  0.00000000E+00  0.00000000E+00  0.00000000E+00
  0.00000000E+00  0.00000000E+00  0.00000000E+00
  0.00000000E+00  0.00000000E+00  0.00000000E+00
  0.00000000E+00  0.00000000E+00  0.00000000E+00
  0.00000000E+00  0.00000000E+00  0.00000000E+00
  0.00000000E+00  0.00000000E+00  0.00000000E+00
  0.00000000E+00  0.00000000E+00  0.00000000E+00
  0.00000000E+00  0.00000000E+00  0.00000000E+00
  0.00000000E+00  0.00000000E+00  0.00000000E+00
  0.00000000E+00  0.00000000E+00  0.00000000E+00
  0.00000000E+00  0.00000000E+00  0.00000000E+00
  0.00000000E+00  0.00000000E+00  0.00000000E+00
