Bi C  O  H                              
   1.00000000000000     
    29.0000000000000000    0.0000000000000000    0.0000000000000000
     0.0000000000000000   29.0000000000000000    0.0000000000000000
     0.0000000000000000    0.0000000000000000   29.0000000000000000
   Bi   C    O    H 
    68     1     2     1
Selective dynamics
Direct
  0.5031876255729212  0.5033644063838922  0.7118611071829257   T   T   T
  0.3478917756199087  0.6571963279075181  0.4069813094855598   T   T   T
  0.3446996323076755  0.5814170344897351  0.4845200514873882   T   T   T
  0.5811467705906068  0.4246732054093982  0.4064932224093951   F   F   F
  0.4244332074093933  0.4246732054093982  0.5632067865906052   F   F   F
  0.6602105209784844  0.5805992129122401  0.4850098106337825   T   T   T
  0.4238244327625992  0.5037172591169060  0.3288893921458165   T   T   T
  0.4255494983271035  0.3456506035038037  0.4853299523478090   T   T   T
  0.5801272003112660  0.5032360467929894  0.6423023005604892   T   T   T
  0.3507727303212140  0.4271852377099373  0.6370388766061522   T   T   T
  0.5024295031192463  0.6599097717701411  0.5609234351480752   T   T   T
  0.5772160357052111  0.3515894218265603  0.3317599913897037   T   T   T
  0.4241339906263326  0.6611998522580492  0.4857534025322077   T   T   T
  0.4252322084567780  0.6561433593010931  0.3327318417286610   T   T   T
  0.6597517318670298  0.5028868773567687  0.5621021151046337   T   T   T
  0.6543288694614688  0.5807202095148754  0.3326317641900671   T   T   T
  0.6540707407360866  0.3513952345769646  0.5613314031409236   T   T   T
  0.5027899740000024  0.4274945535347072  0.4848499889999971   F   F   F
  0.3456612106440887  0.4260070688209056  0.4847476912722357   T   T   T
  0.5027899740000024  0.5785654504652982  0.4848499889999971   F   F   F
  0.5027899740000024  0.5030300020000027  0.5603854384652962   F   F   F
  0.4255860000208527  0.6546906805602609  0.6364528977091741   T   T   T
  0.5783254224652978  0.5030300020000027  0.4848499889999971   F   F   F
  0.5028604448562808  0.3456584075031796  0.5627610958298906   T   T   T
  0.2755876223468204  0.5034126005015535  0.4844332992470148   T   T   T
  0.3460146103435763  0.5032533136847962  0.5610711695643062   T   T   T
  0.5002388329818769  0.5054349799424404  0.2590282439008453   T   T   T
  0.3500041385324890  0.4264020940347761  0.3336938307729201   T   T   T
  0.6531988587755605  0.4284829105927235  0.3314617962837877   T   T   T
  0.6603316783349642  0.5031497062553825  0.4071663922558408   T   T   T
  0.4244332074093933  0.4246732054093982  0.4064932224093951   F   F   F
  0.4244332074093933  0.5813867985906072  0.4064932224093951   F   F   F
  0.5811467705906068  0.5813867985906072  0.4064932224093951   F   F   F
  0.5010701673102818  0.6614010732345715  0.4076182876406674   T   T   T
  0.5024435770034220  0.7302898706911595  0.4842997572555098   T   T   T
  0.3492486856814772  0.6549698651848632  0.5615330311245120   T   T   T
  0.6597887472873228  0.4260726285055388  0.4846020456573032   T   T   T
  0.3515101054567356  0.3502461451625232  0.4075714500361438   T   T   T
  0.3495426847275539  0.5809627578640123  0.3337403780340790   T   T   T
  0.4258325627598188  0.3514324676126352  0.6370485892246537   T   T   T
  0.6545159847246492  0.4265207800121664  0.6374120089858066   T   T   T
  0.5811467705906068  0.5813867985906072  0.5632067865906052   F   F   F
  0.5018643530529010  0.4263900473000646  0.3283280032430924   T   T   T
  0.5027899740000024  0.5030300020000027  0.4093145705347041   F   F   F
  0.6541417419266616  0.6556147350468554  0.5609895081410802   T   T   T
  0.5027195715529212  0.5804813036556165  0.6418305934461179   T   T   T
  0.4244332074093933  0.5813867985906072  0.5632067865906052   F   F   F
  0.4255962987216067  0.5029529094687809  0.6419802476324482   T   T   T
  0.5793993686418567  0.5040876419411402  0.3275597741893440   T   T   T
  0.6527267238656121  0.3518087720911522  0.4069732909161997   T   T   T
  0.5811467705906068  0.4246732054093982  0.5632067865906052   F   F   F
  0.3506920301326586  0.5796151638759508  0.6365654499417612   T   T   T
  0.5019485452957223  0.2758069586058173  0.4852430105423700   T   T   T
  0.6546557064150137  0.5807046801908982  0.6368298926218484   T   T   T
  0.3509381690695999  0.3512389090068463  0.5617664003753438   T   T   T
  0.5020558785182412  0.5823237181651325  0.3287870545157704   T   T   T
  0.6556348051986922  0.6547549017662572  0.4081874682410361   T   T   T
  0.5788075376571715  0.6565907506187770  0.3343196794173909   T   T   T
  0.5794163454667782  0.3454492866091622  0.4852150724833920   T   T   T
  0.4272545555347023  0.5030300020000027  0.4848499889999971   F   F   F
  0.5797217123333337  0.6604843198615297  0.4843546662780140   T   T   T
  0.5793464692804271  0.6545817820504838  0.6374037883785185   T   T   T
  0.5028468725954823  0.3448849352035775  0.4075719648444470   T   T   T
  0.4261349952489166  0.3504750802098621  0.3330014642985102   T   T   T
  0.5796492912671001  0.3511287892272817  0.6374903885665266   T   T   T
  0.5030712590766417  0.4261439807435404  0.6421059858828778   T   T   T
  0.7295301407451185  0.5034043462704640  0.4845968371349161   T   T   T
  0.3444443025849946  0.5035656429928477  0.4075797278623955   T   T   T
  0.2843896970476584  0.7065254266608844  0.3898967767206579   T   T   T
  0.2840593627154099  0.7354950646526384  0.3594767006549285   T   T   T
  0.2469989337860361  0.6969423334254569  0.4173960101481393   T   T   T
  0.2217718985801012  0.7175165177812995  0.4073280848959338   T   T   T
 
  0.00000000E+00  0.00000000E+00  0.00000000E+00
  0.00000000E+00  0.00000000E+00  0.00000000E+00
  0.00000000E+00  0.00000000E+00  0.00000000E+00
  0.00000000E+00  0.00000000E+00  0.00000000E+00
  0.00000000E+00  0.00000000E+00  0.00000000E+00
  0.00000000E+00  0.00000000E+00  0.00000000E+00
  0.00000000E+00  0.00000000E+00  0.00000000E+00
  0.00000000E+00  0.00000000E+00  0.00000000E+00
  0.00000000E+00  0.00000000E+00  0.00000000E+00
  0.00000000E+00  0.00000000E+00  0.00000000E+00
  0.00000000E+00  0.00000000E+00  0.00000000E+00
  0.00000000E+00  0.00000000E+00  0.00000000E+00
  0.00000000E+00  0.00000000E+00  0.00000000E+00
  0.00000000E+00  0.00000000E+00  0.00000000E+00
  0.00000000E+00  0.00000000E+00  0.00000000E+00
  0.00000000E+00  0.00000000E+00  0.00000000E+00
  0.00000000E+00  0.00000000E+00  0.00000000E+00
  0.00000000E+00  0.00000000E+00  0.00000000E+00
  0.00000000E+00  0.00000000E+00  0.00000000E+00
  0.00000000E+00  0.00000000E+00  0.00000000E+00
  0.00000000E+00  0.00000000E+00  0.00000000E+00
  0.00000000E+00  0.00000000E+00  0.00000000E+00
  0.00000000E+00  0.00000000E+00  0.00000000E+00
  0.00000000E+00  0.00000000E+00  0.00000000E+00
  0.00000000E+00  0.00000000E+00  0.00000000E+00
  0.00000000E+00  0.00000000E+00  0.00000000E+00
  0.00000000E+00  0.00000000E+00  0.00000000E+00
  0.00000000E+00  0.00000000E+00  0.00000000E+00
  0.00000000E+00  0.00000000E+00  0.00000000E+00
  0.00000000E+00  0.00000000E+00  0.00000000E+00
  0.00000000E+00  0.00000000E+00  0.00000000E+00
  0.00000000E+00  0.00000000E+00  0.00000000E+00
  0.00000000E+00  0.00000000E+00  0.00000000E+00
  0.00000000E+00  0.00000000E+00  0.00000000E+00
  0.00000000E+00  0.00000000E+00  0.00000000E+00
  0.00000000E+00  0.00000000E+00  0.00000000E+00
  0.00000000E+00  0.00000000E+00  0.00000000E+00
  0.00000000E+00  0.00000000E+00  0.00000000E+00
  0.00000000E+00  0.00000000E+00  0.00000000E+00
  0.00000000E+00  0.00000000E+00  0.00000000E+00
  0.00000000E+00  0.00000000E+00  0.00000000E+00
  0.00000000E+00  0.00000000E+00  0.00000000E+00
  0.00000000E+00  0.00000000E+00  0.00000000E+00
  0.00000000E+00  0.00000000E+00  0.00000000E+00
  0.00000000E+00  0.00000000E+00  0.00000000E+00
  0.00000000E+00  0.00000000E+00  0.00000000E+00
  0.00000000E+00  0.00000000E+00  0.00000000E+00
  0.00000000E+00  0.00000000E+00  0.00000000E+00
  0.00000000E+00  0.00000000E+00  0.00000000E+00
  0.00000000E+00  0.00000000E+00  0.00000000E+00
  0.00000000E+00  0.00000000E+00  0.00000000E+00
  0.00000000E+00  0.00000000E+00  0.00000000E+00
  0.00000000E+00  0.00000000E+00  0.00000000E+00
  0.00000000E+00  0.00000000E+00  0.00000000E+00
  0.00000000E+00  0.00000000E+00  0.00000000E+00
  0.00000000E+00  0.00000000E+00  0.00000000E+00
  0.00000000E+00  0.00000000E+00  0.00000000E+00
  0.00000000E+00  0.00000000E+00  0.00000000E+00
  0.00000000E+00  0.00000000E+00  0.00000000E+00
  0.00000000E+00  0.00000000E+00  0.00000000E+00
  0.00000000E+00  0.00000000E+00  0.00000000E+00
  0.00000000E+00  0.00000000E+00  0.00000000E+00
  0.00000000E+00  0.00000000E+00  0.00000000E+00
  0.00000000E+00  0.00000000E+00  0.00000000E+00
  0.00000000E+00  0.00000000E+00  0.00000000E+00
  0.00000000E+00  0.00000000E+00  0.00000000E+00
  0.00000000E+00  0.00000000E+00  0.00000000E+00
  0.00000000E+00  0.00000000E+00  0.00000000E+00
  0.00000000E+00  0.00000000E+00  0.00000000E+00
  0.00000000E+00  0.00000000E+00  0.00000000E+00
  0.00000000E+00  0.00000000E+00  0.00000000E+00
  0.00000000E+00  0.00000000E+00  0.00000000E+00
