Bi C  O  H                              
   1.00000000000000     
    29.0000000000000000    0.0000000000000000    0.0000000000000000
     0.0000000000000000   29.0000000000000000    0.0000000000000000
     0.0000000000000000    0.0000000000000000   29.0000000000000000
   Bi   C    O    H 
    68     1     2     1
Selective dynamics
Direct
  0.5037712761940818  0.5033457675259373  0.7118706114846238   T   T   T
  0.3519612920791825  0.6558266160705557  0.4079756103058099   T   T   T
  0.3472401123791679  0.5815732910781093  0.4850851487774334   T   T   T
  0.5811467705906068  0.4246732054093982  0.4064932224093951   F   F   F
  0.4244332074093933  0.4246732054093982  0.5632067865906052   F   F   F
  0.6618806842190612  0.5809681475811129  0.4848268263627181   T   T   T
  0.4252185023755310  0.5027707801285934  0.3279605306543445   T   T   T
  0.4237395807365356  0.3470167197268021  0.4850059439426967   T   T   T
  0.5805850819628510  0.5028328058476534  0.6416956053069763   T   T   T
  0.3508624227986129  0.4272198431093213  0.6377125226523541   T   T   T
  0.5032848951458102  0.6601882128434703  0.5613501393353895   T   T   T
  0.5795061404462428  0.3514933141480078  0.3329645135992789   T   T   T
  0.4268826479783033  0.6615217112911651  0.4851610920298786   T   T   T
  0.4264403228059717  0.6545614538323722  0.3324880547116993   T   T   T
  0.6604634005321841  0.5035819007317819  0.5612418124847822   T   T   T
  0.6546485262161859  0.5802570291155870  0.3328461316958609   T   T   T
  0.6545749596223566  0.3508059880257899  0.5611806779546679   T   T   T
  0.5027899740000024  0.4274945535347072  0.4848499889999971   F   F   F
  0.3405444658614292  0.4270961579804176  0.4852182688983129   T   T   T
  0.5027899740000024  0.5785654504652982  0.4848499889999971   F   F   F
  0.5027899740000024  0.5030300020000027  0.5603854384652962   F   F   F
  0.4269711765538962  0.6549265315550086  0.6370102636861780   T   T   T
  0.5783254224652978  0.5030300020000027  0.4848499889999971   F   F   F
  0.5020199157724130  0.3465509771100474  0.5623645765459427   T   T   T
  0.2749035467250659  0.5098111055399406  0.4856762106638869   T   T   T
  0.3449418950961629  0.5032116820272572  0.5625392611919405   T   T   T
  0.5030239530002328  0.5028877313762437  0.2579717778348952   T   T   T
  0.3499988267239045  0.4266995324215342  0.3329997793138149   T   T   T
  0.6555196708695129  0.4257244767023653  0.3336524079921930   T   T   T
  0.6602183207511317  0.5035006773729750  0.4080281934323802   T   T   T
  0.4244332074093933  0.4246732054093982  0.4064932224093951   F   F   F
  0.4244332074093933  0.5813867985906072  0.4064932224093951   F   F   F
  0.5811467705906068  0.5813867985906072  0.4064932224093951   F   F   F
  0.5030459079362529  0.6600799992403364  0.4084535697207136   T   T   T
  0.5058704398561743  0.7304963996029049  0.4848092058129742   T   T   T
  0.3516374187103495  0.6556024778599007  0.5623683167660425   T   T   T
  0.6597391038397454  0.4256468624049778  0.4847779715110471   T   T   T
  0.3504777228605416  0.3514002416553805  0.4070277765407838   T   T   T
  0.3509360760327148  0.5800632695910097  0.3331300855914847   T   T   T
  0.4250002586259972  0.3512854154883913  0.6368527283561258   T   T   T
  0.6563779506950737  0.4259573458205315  0.6356345537119406   T   T   T
  0.5811467705906068  0.5813867985906072  0.5632067865906052   F   F   F
  0.5025317239648858  0.4261975896620641  0.3276457312253005   T   T   T
  0.5027899740000024  0.5030300020000027  0.4093145705347041   F   F   F
  0.6559836731634997  0.6550736427677221  0.5622393646690230   T   T   T
  0.5034728884151759  0.5799396267548623  0.6418807763067932   T   T   T
  0.4244332074093933  0.5813867985906072  0.5632067865906052   F   F   F
  0.4260565655922758  0.5028871053058934  0.6420527125231372   T   T   T
  0.5802018058547064  0.5025037944218786  0.3278635461429411   T   T   T
  0.6541754396897416  0.3505514306058411  0.4085503403984431   T   T   T
  0.5811467705906068  0.4246732054093982  0.5632067865906052   F   F   F
  0.3514067445558947  0.5803250947516108  0.6372775769955160   T   T   T
  0.4999569613491257  0.2767860209886462  0.4852535869013844   T   T   T
  0.6553064951299140  0.5801733798192270  0.6363204050629681   T   T   T
  0.3505351846364607  0.3517319581978610  0.5629228564278496   T   T   T
  0.5031048828844686  0.5797380644431026  0.3280035357067501   T   T   T
  0.6560639355223286  0.6549680615882365  0.4070157046664472   T   T   T
  0.5794190627793918  0.6552334710388910  0.3330738027982624   T   T   T
  0.5786370111355112  0.3456958462430114  0.4849580421524128   T   T   T
  0.4272545555347023  0.5030300020000027  0.4848499889999971   F   F   F
  0.5815461092714765  0.6596758430422343  0.4847784441140465   T   T   T
  0.5798112117803181  0.6553800786245451  0.6363719596189500   T   T   T
  0.5021100898071340  0.3460463827594784  0.4077649219629274   T   T   T
  0.4248370902239446  0.3508521467402103  0.3332072506138958   T   T   T
  0.5802444629085470  0.3523091219841955  0.6373987017335722   T   T   T
  0.5031165004536611  0.4265087248003819  0.6423331999634402   T   T   T
  0.7303152599123337  0.5023253086383902  0.4845044954884510   T   T   T
  0.3444612306015826  0.5027053103628859  0.4084683369651189   T   T   T
  0.2641781728849010  0.3951409777924841  0.4738087571404815   T   T   T
  0.2343446128095069  0.4110970759736984  0.4485913186154412   T   T   T
  0.2563201431997360  0.3563173190836612  0.5002162741045754   T   T   T
  0.2243282906139431  0.3463753527207226  0.4939801809265625   T   T   T
 
  0.00000000E+00  0.00000000E+00  0.00000000E+00
  0.00000000E+00  0.00000000E+00  0.00000000E+00
  0.00000000E+00  0.00000000E+00  0.00000000E+00
  0.00000000E+00  0.00000000E+00  0.00000000E+00
  0.00000000E+00  0.00000000E+00  0.00000000E+00
  0.00000000E+00  0.00000000E+00  0.00000000E+00
  0.00000000E+00  0.00000000E+00  0.00000000E+00
  0.00000000E+00  0.00000000E+00  0.00000000E+00
  0.00000000E+00  0.00000000E+00  0.00000000E+00
  0.00000000E+00  0.00000000E+00  0.00000000E+00
  0.00000000E+00  0.00000000E+00  0.00000000E+00
  0.00000000E+00  0.00000000E+00  0.00000000E+00
  0.00000000E+00  0.00000000E+00  0.00000000E+00
  0.00000000E+00  0.00000000E+00  0.00000000E+00
  0.00000000E+00  0.00000000E+00  0.00000000E+00
  0.00000000E+00  0.00000000E+00  0.00000000E+00
  0.00000000E+00  0.00000000E+00  0.00000000E+00
  0.00000000E+00  0.00000000E+00  0.00000000E+00
  0.00000000E+00  0.00000000E+00  0.00000000E+00
  0.00000000E+00  0.00000000E+00  0.00000000E+00
  0.00000000E+00  0.00000000E+00  0.00000000E+00
  0.00000000E+00  0.00000000E+00  0.00000000E+00
  0.00000000E+00  0.00000000E+00  0.00000000E+00
  0.00000000E+00  0.00000000E+00  0.00000000E+00
  0.00000000E+00  0.00000000E+00  0.00000000E+00
  0.00000000E+00  0.00000000E+00  0.00000000E+00
  0.00000000E+00  0.00000000E+00  0.00000000E+00
  0.00000000E+00  0.00000000E+00  0.00000000E+00
  0.00000000E+00  0.00000000E+00  0.00000000E+00
  0.00000000E+00  0.00000000E+00  0.00000000E+00
  0.00000000E+00  0.00000000E+00  0.00000000E+00
  0.00000000E+00  0.00000000E+00  0.00000000E+00
  0.00000000E+00  0.00000000E+00  0.00000000E+00
  0.00000000E+00  0.00000000E+00  0.00000000E+00
  0.00000000E+00  0.00000000E+00  0.00000000E+00
  0.00000000E+00  0.00000000E+00  0.00000000E+00
  0.00000000E+00  0.00000000E+00  0.00000000E+00
  0.00000000E+00  0.00000000E+00  0.00000000E+00
  0.00000000E+00  0.00000000E+00  0.00000000E+00
  0.00000000E+00  0.00000000E+00  0.00000000E+00
  0.00000000E+00  0.00000000E+00  0.00000000E+00
  0.00000000E+00  0.00000000E+00  0.00000000E+00
  0.00000000E+00  0.00000000E+00  0.00000000E+00
  0.00000000E+00  0.00000000E+00  0.00000000E+00
  0.00000000E+00  0.00000000E+00  0.00000000E+00
  0.00000000E+00  0.00000000E+00  0.00000000E+00
  0.00000000E+00  0.00000000E+00  0.00000000E+00
  0.00000000E+00  0.00000000E+00  0.00000000E+00
  0.00000000E+00  0.00000000E+00  0.00000000E+00
  0.00000000E+00  0.00000000E+00  0.00000000E+00
  0.00000000E+00  0.00000000E+00  0.00000000E+00
  0.00000000E+00  0.00000000E+00  0.00000000E+00
  0.00000000E+00  0.00000000E+00  0.00000000E+00
  0.00000000E+00  0.00000000E+00  0.00000000E+00
  0.00000000E+00  0.00000000E+00  0.00000000E+00
  0.00000000E+00  0.00000000E+00  0.00000000E+00
  0.00000000E+00  0.00000000E+00  0.00000000E+00
  0.00000000E+00  0.00000000E+00  0.00000000E+00
  0.00000000E+00  0.00000000E+00  0.00000000E+00
  0.00000000E+00  0.00000000E+00  0.00000000E+00
  0.00000000E+00  0.00000000E+00  0.00000000E+00
  0.00000000E+00  0.00000000E+00  0.00000000E+00
  0.00000000E+00  0.00000000E+00  0.00000000E+00
  0.00000000E+00  0.00000000E+00  0.00000000E+00
  0.00000000E+00  0.00000000E+00  0.00000000E+00
  0.00000000E+00  0.00000000E+00  0.00000000E+00
  0.00000000E+00  0.00000000E+00  0.00000000E+00
  0.00000000E+00  0.00000000E+00  0.00000000E+00
  0.00000000E+00  0.00000000E+00  0.00000000E+00
  0.00000000E+00  0.00000000E+00  0.00000000E+00
  0.00000000E+00  0.00000000E+00  0.00000000E+00
  0.00000000E+00  0.00000000E+00  0.00000000E+00
