Bi C  O  H                              
   1.00000000000000     
    29.0000000000000000    0.0000000000000000    0.0000000000000000
     0.0000000000000000   29.0000000000000000    0.0000000000000000
     0.0000000000000000    0.0000000000000000   29.0000000000000000
   Bi   C    O    H 
    68     1     2     1
Selective dynamics
Direct
  0.4969918016858016  0.5031260258399146  0.7129981933217848   T   T   T
  0.3499172864080576  0.6531950595227037  0.4071063970590535   T   T   T
  0.3453027666204233  0.5794187521035820  0.4852125354612973   T   T   T
  0.5811467705906068  0.4246732054093982  0.4064932224093951   F   F   F
  0.4244332074093933  0.4246732054093982  0.5632067865906052   F   F   F
  0.6596847805858739  0.5803413907225510  0.4856760758278292   T   T   T
  0.4253698729260042  0.5027082696268633  0.3261697883411879   T   T   T
  0.4249174617025891  0.3466969568662674  0.4842090404205640   T   T   T
  0.5793747466377077  0.5021261495570543  0.6472651481964276   T   T   T
  0.3505386853785216  0.4263866419464488  0.6364457122828271   T   T   T
  0.5022011962856058  0.6598009752956605  0.5620006856345496   T   T   T
  0.5805327970413451  0.3521433962628768  0.3320877014323206   T   T   T
  0.4249448813274320  0.6595339622589151  0.4845511272053579   T   T   T
  0.4248607008519597  0.6535566091152598  0.3319518727454078   T   T   T
  0.6587680516245782  0.5028986247112875  0.5644930904963175   T   T   T
  0.6554883429579039  0.5792649455029732  0.3335013164081176   T   T   T
  0.6541712457951557  0.3500079747711370  0.5613648457519210   T   T   T
  0.5027899740000024  0.4274945535347072  0.4848499889999971   F   F   F
  0.3452783826099551  0.4271750934051640  0.4851976226933442   T   T   T
  0.5027899740000024  0.5785654504652982  0.4848499889999971   F   F   F
  0.5027899740000024  0.5030300020000027  0.5603854384652962   F   F   F
  0.4267652071252989  0.6543236362593770  0.6378334071667624   T   T   T
  0.5783254224652978  0.5030300020000027  0.4848499889999971   F   F   F
  0.5023823028396733  0.3460093120401112  0.5612174313267257   T   T   T
  0.2746242948574265  0.5034358340173311  0.4826742443108651   T   T   T
  0.3442998255808704  0.5033508372238189  0.5616708351816196   T   T   T
  0.5039690870273316  0.5028112114453971  0.2569309108575935   T   T   T
  0.3495877914153779  0.4272716455551804  0.3314417432959373   T   T   T
  0.6554785349698913  0.4266859972056184  0.3335797394758303   T   T   T
  0.6604102079677345  0.5030793995219545  0.4091254894909406   T   T   T
  0.4244332074093933  0.4246732054093982  0.4064932224093951   F   F   F
  0.4244332074093933  0.5813867985906072  0.4064932224093951   F   F   F
  0.5811467705906068  0.5813867985906072  0.4064932224093951   F   F   F
  0.5026369266320996  0.6596731962540329  0.4068872460147737   T   T   T
  0.5016494541357120  0.7295959883108676  0.4839066828302103   T   T   T
  0.3511637803663434  0.6542598168196454  0.5629499510076093   T   T   T
  0.6594512516989885  0.4256616973153924  0.4855132995358826   T   T   T
  0.3491339091906854  0.3531383546419144  0.4077687234542111   T   T   T
  0.3504843813639346  0.5790936855291314  0.3309294012022604   T   T   T
  0.4259616715821010  0.3511956261816892  0.6367777187196721   T   T   T
  0.6539564264292497  0.4229511503433910  0.6362896003525403   T   T   T
  0.5811467705906068  0.5813867985906072  0.5632067865906052   F   F   F
  0.5025794715938472  0.4263668850534284  0.3267029478850105   T   T   T
  0.5027899740000024  0.5030300020000027  0.4093145705347041   F   F   F
  0.6539933278540982  0.6555197432064130  0.5623534815996620   T   T   T
  0.5037850031732894  0.5798574582819206  0.6430964098170733   T   T   T
  0.4244332074093933  0.5813867985906072  0.5632067865906052   F   F   F
  0.4255728034347243  0.5029364963214170  0.6403351709386744   T   T   T
  0.5805572213255858  0.5029247985610261  0.3276852881191227   T   T   T
  0.6540828473650294  0.3504647761250335  0.4084033684826643   T   T   T
  0.5811467705906068  0.4246732054093982  0.5632067865906052   F   F   F
  0.3511866891846842  0.5795235266873439  0.6376555394637277   T   T   T
  0.5011636152080382  0.2763265674203740  0.4828468071955441   T   T   T
  0.6531426208739283  0.5820438744437586  0.6374342048076409   T   T   T
  0.3507261599968687  0.3514231158010600  0.5619127208658841   T   T   T
  0.5024586967061569  0.5793286425322025  0.3269884514133504   T   T   T
  0.6537226495542865  0.6554035234392324  0.4082435956239742   T   T   T
  0.5799816305681949  0.6536689816365385  0.3318064809159750   T   T   T
  0.5786271247563821  0.3456016472814717  0.4841554397071340   T   T   T
  0.4272545555347023  0.5030300020000027  0.4848499889999971   F   F   F
  0.5788532327635346  0.6602548975407275  0.4847327516403957   T   T   T
  0.5781850433373480  0.6564013766470069  0.6370355423855404   T   T   T
  0.5023822081086967  0.3466060687867114  0.4065330020298238   T   T   T
  0.4239654620759663  0.3528551975859383  0.3322326681142389   T   T   T
  0.5780104480894895  0.3490049548772793  0.6359700932706081   T   T   T
  0.5030713646157891  0.4254463463615326  0.6428164544835830   T   T   T
  0.7289645541793328  0.5028247514787472  0.4884607255855609   T   T   T
  0.3460949043177420  0.5032168954527629  0.4069884630577435   T   T   T
  0.6130603916029876  0.5092526068674487  0.7231912722426634   T   T   T
  0.5949971567715043  0.5281195684354604  0.7563726647398741   T   T   T
  0.6558168013638885  0.4885485050358250  0.7267857311529841   T   T   T
  0.6661380149713914  0.4924616351601490  0.7589868893218222   T   T   T
 
  0.00000000E+00  0.00000000E+00  0.00000000E+00
  0.00000000E+00  0.00000000E+00  0.00000000E+00
  0.00000000E+00  0.00000000E+00  0.00000000E+00
  0.00000000E+00  0.00000000E+00  0.00000000E+00
  0.00000000E+00  0.00000000E+00  0.00000000E+00
  0.00000000E+00  0.00000000E+00  0.00000000E+00
  0.00000000E+00  0.00000000E+00  0.00000000E+00
  0.00000000E+00  0.00000000E+00  0.00000000E+00
  0.00000000E+00  0.00000000E+00  0.00000000E+00
  0.00000000E+00  0.00000000E+00  0.00000000E+00
  0.00000000E+00  0.00000000E+00  0.00000000E+00
  0.00000000E+00  0.00000000E+00  0.00000000E+00
  0.00000000E+00  0.00000000E+00  0.00000000E+00
  0.00000000E+00  0.00000000E+00  0.00000000E+00
  0.00000000E+00  0.00000000E+00  0.00000000E+00
  0.00000000E+00  0.00000000E+00  0.00000000E+00
  0.00000000E+00  0.00000000E+00  0.00000000E+00
  0.00000000E+00  0.00000000E+00  0.00000000E+00
  0.00000000E+00  0.00000000E+00  0.00000000E+00
  0.00000000E+00  0.00000000E+00  0.00000000E+00
  0.00000000E+00  0.00000000E+00  0.00000000E+00
  0.00000000E+00  0.00000000E+00  0.00000000E+00
  0.00000000E+00  0.00000000E+00  0.00000000E+00
  0.00000000E+00  0.00000000E+00  0.00000000E+00
  0.00000000E+00  0.00000000E+00  0.00000000E+00
  0.00000000E+00  0.00000000E+00  0.00000000E+00
  0.00000000E+00  0.00000000E+00  0.00000000E+00
  0.00000000E+00  0.00000000E+00  0.00000000E+00
  0.00000000E+00  0.00000000E+00  0.00000000E+00
  0.00000000E+00  0.00000000E+00  0.00000000E+00
  0.00000000E+00  0.00000000E+00  0.00000000E+00
  0.00000000E+00  0.00000000E+00  0.00000000E+00
  0.00000000E+00  0.00000000E+00  0.00000000E+00
  0.00000000E+00  0.00000000E+00  0.00000000E+00
  0.00000000E+00  0.00000000E+00  0.00000000E+00
  0.00000000E+00  0.00000000E+00  0.00000000E+00
  0.00000000E+00  0.00000000E+00  0.00000000E+00
  0.00000000E+00  0.00000000E+00  0.00000000E+00
  0.00000000E+00  0.00000000E+00  0.00000000E+00
  0.00000000E+00  0.00000000E+00  0.00000000E+00
  0.00000000E+00  0.00000000E+00  0.00000000E+00
  0.00000000E+00  0.00000000E+00  0.00000000E+00
  0.00000000E+00  0.00000000E+00  0.00000000E+00
  0.00000000E+00  0.00000000E+00  0.00000000E+00
  0.00000000E+00  0.00000000E+00  0.00000000E+00
  0.00000000E+00  0.00000000E+00  0.00000000E+00
  0.00000000E+00  0.00000000E+00  0.00000000E+00
  0.00000000E+00  0.00000000E+00  0.00000000E+00
  0.00000000E+00  0.00000000E+00  0.00000000E+00
  0.00000000E+00  0.00000000E+00  0.00000000E+00
  0.00000000E+00  0.00000000E+00  0.00000000E+00
  0.00000000E+00  0.00000000E+00  0.00000000E+00
  0.00000000E+00  0.00000000E+00  0.00000000E+00
  0.00000000E+00  0.00000000E+00  0.00000000E+00
  0.00000000E+00  0.00000000E+00  0.00000000E+00
  0.00000000E+00  0.00000000E+00  0.00000000E+00
  0.00000000E+00  0.00000000E+00  0.00000000E+00
  0.00000000E+00  0.00000000E+00  0.00000000E+00
  0.00000000E+00  0.00000000E+00  0.00000000E+00
  0.00000000E+00  0.00000000E+00  0.00000000E+00
  0.00000000E+00  0.00000000E+00  0.00000000E+00
  0.00000000E+00  0.00000000E+00  0.00000000E+00
  0.00000000E+00  0.00000000E+00  0.00000000E+00
  0.00000000E+00  0.00000000E+00  0.00000000E+00
  0.00000000E+00  0.00000000E+00  0.00000000E+00
  0.00000000E+00  0.00000000E+00  0.00000000E+00
  0.00000000E+00  0.00000000E+00  0.00000000E+00
  0.00000000E+00  0.00000000E+00  0.00000000E+00
  0.00000000E+00  0.00000000E+00  0.00000000E+00
  0.00000000E+00  0.00000000E+00  0.00000000E+00
  0.00000000E+00  0.00000000E+00  0.00000000E+00
  0.00000000E+00  0.00000000E+00  0.00000000E+00
