Bi C  O  H                              
   1.00000000000000     
    29.0000000000000000    0.0000000000000000    0.0000000000000000
     0.0000000000000000   29.0000000000000000    0.0000000000000000
     0.0000000000000000    0.0000000000000000   29.0000000000000000
   Bi   C    O    H 
    68     1     2     1
Selective dynamics
Direct
  0.5058014007034064  0.5005290552529672  0.7103354195356854   T   T   T
  0.3512750189325688  0.6545998928167303  0.4084295463864652   T   T   T
  0.3457515542095679  0.5799199101927042  0.4851069114421494   T   T   T
  0.5811467705906068  0.4246732054093982  0.4064932224093951   F   F   F
  0.4244332074093933  0.4246732054093982  0.5632067865906052   F   F   F
  0.6599496525095999  0.5798929184438765  0.4847541692221245   T   T   T
  0.4255709500018843  0.5032077328373962  0.3272659641848588   T   T   T
  0.4255447258823051  0.3458000388192188  0.4854571040515960   T   T   T
  0.5822957448072352  0.5023836361171042  0.6407555143611456   T   T   T
  0.3512477330129102  0.4257982981542257  0.6373057358307093   T   T   T
  0.5027154494985965  0.6611159357371412  0.5622722609614964   T   T   T
  0.5795035386409388  0.3511898908903912  0.3331408652683281   T   T   T
  0.4259201966485837  0.6604563906400508  0.4846407018815858   T   T   T
  0.4257383605514841  0.6546830837347197  0.3322817391113777   T   T   T
  0.6611997147849920  0.5021107787282619  0.5618140507046421   T   T   T
  0.6548021899349401  0.5792242011084534  0.3328317241676817   T   T   T
  0.6568917903279606  0.3484928468368693  0.5620209162014945   T   T   T
  0.5027899740000024  0.4274945535347072  0.4848499889999971   F   F   F
  0.3453881886319018  0.4257026851250734  0.4850140399828528   T   T   T
  0.5027899740000024  0.5785654504652982  0.4848499889999971   F   F   F
  0.5027899740000024  0.5030300020000027  0.5603854384652962   F   F   F
  0.4287371112456668  0.6542808572622519  0.6382873370868697   T   T   T
  0.5783254224652978  0.5030300020000027  0.4848499889999971   F   F   F
  0.5042104918006616  0.3444970202523218  0.5621596642812549   T   T   T
  0.2759965602543996  0.5028349909292477  0.4850471365564003   T   T   T
  0.3449548504216688  0.5030420628243899  0.5628000909460890   T   T   T
  0.5028466790503263  0.5027444775784892  0.2576312375824023   T   T   T
  0.3511118791016704  0.4255227314225731  0.3326275664068714   T   T   T
  0.6544921624756745  0.4258798040277017  0.3328643252225417   T   T   T
  0.6594495153522141  0.5025429177048192  0.4083979461413381   T   T   T
  0.4244332074093933  0.4246732054093982  0.4064932224093951   F   F   F
  0.4244332074093933  0.5813867985906072  0.4064932224093951   F   F   F
  0.5811467705906068  0.5813867985906072  0.4064932224093951   F   F   F
  0.5026161633234789  0.6602022144463653  0.4069956911806348   T   T   T
  0.5030280423238752  0.7301749170243453  0.4846408266075005   T   T   T
  0.3529013092996997  0.6539090792717054  0.5631041928932327   T   T   T
  0.6605531151236764  0.4243432597701133  0.4849101266425639   T   T   T
  0.3510695077599802  0.3508109452978526  0.4087708798796733   T   T   T
  0.3507362509415416  0.5795446303371291  0.3324767355262456   T   T   T
  0.4268358220401293  0.3497086532877967  0.6355786998767037   T   T   T
  0.6562847219556890  0.4246616217422639  0.6356239032746527   T   T   T
  0.5811467705906068  0.5813867985906072  0.5632067865906052   F   F   F
  0.5027683516982586  0.4257198640452323  0.3280098486212296   T   T   T
  0.5027899740000024  0.5030300020000027  0.4093145705347041   F   F   F
  0.6541759506574195  0.6560490437277674  0.5614358027347965   T   T   T
  0.5040745432678083  0.5797687143618081  0.6414868487003961   T   T   T
  0.4244332074093933  0.5813867985906072  0.5632067865906052   F   F   F
  0.4264311287991873  0.5021361524211811  0.6420124861030517   T   T   T
  0.5801654332992142  0.5031712142268806  0.3276122366711867   T   T   T
  0.6555622084628803  0.3505120328881040  0.4084354541171579   T   T   T
  0.5811467705906068  0.4246732054093982  0.5632067865906052   F   F   F
  0.3526302768682191  0.5774829011462349  0.6387230474732074   T   T   T
  0.5023532657564561  0.2754886849271171  0.4855324143307983   T   T   T
  0.6562022772529645  0.5799295623038606  0.6353183361475523   T   T   T
  0.3499244414244517  0.3514503303355340  0.5622249235492902   T   T   T
  0.5026998691952530  0.5800898762799684  0.3272242897135887   T   T   T
  0.6545640846910731  0.6551088090783604  0.4083750457991415   T   T   T
  0.5797360757393947  0.6549326905311154  0.3328237634208987   T   T   T
  0.5808626117013959  0.3443982362156748  0.4839530667164204   T   T   T
  0.4272545555347023  0.5030300020000027  0.4848499889999971   F   F   F
  0.5796557719347517  0.6604664221978670  0.4843956576137742   T   T   T
  0.5800007598768505  0.6555706118459845  0.6364845706092868   T   T   T
  0.5029255592480782  0.3461166671525882  0.4089497737532894   T   T   T
  0.4261429126407932  0.3513899742164011  0.3326006488826125   T   T   T
  0.5799945422278548  0.3497999129497578  0.6367956254384044   T   T   T
  0.5037400695870901  0.4239795911254075  0.6406814189758546   T   T   T
  0.7298514498817839  0.5021343963929755  0.4847944409314770   T   T   T
  0.3460579961895109  0.5030366011063704  0.4076189186826555   T   T   T
  0.7203300310773547  0.2982753801774764  0.5745356389832807   T   T   T
  0.7250917016142059  0.2741274117972433  0.6085729554097410   T   T   T
  0.7517074779175230  0.3000342738785433  0.5391040947523676   T   T   T
  0.7769582037871526  0.2786595516941953  0.5472680577934171   T   T   T
 
  0.00000000E+00  0.00000000E+00  0.00000000E+00
  0.00000000E+00  0.00000000E+00  0.00000000E+00
  0.00000000E+00  0.00000000E+00  0.00000000E+00
  0.00000000E+00  0.00000000E+00  0.00000000E+00
  0.00000000E+00  0.00000000E+00  0.00000000E+00
  0.00000000E+00  0.00000000E+00  0.00000000E+00
  0.00000000E+00  0.00000000E+00  0.00000000E+00
  0.00000000E+00  0.00000000E+00  0.00000000E+00
  0.00000000E+00  0.00000000E+00  0.00000000E+00
  0.00000000E+00  0.00000000E+00  0.00000000E+00
  0.00000000E+00  0.00000000E+00  0.00000000E+00
  0.00000000E+00  0.00000000E+00  0.00000000E+00
  0.00000000E+00  0.00000000E+00  0.00000000E+00
  0.00000000E+00  0.00000000E+00  0.00000000E+00
  0.00000000E+00  0.00000000E+00  0.00000000E+00
  0.00000000E+00  0.00000000E+00  0.00000000E+00
  0.00000000E+00  0.00000000E+00  0.00000000E+00
  0.00000000E+00  0.00000000E+00  0.00000000E+00
  0.00000000E+00  0.00000000E+00  0.00000000E+00
  0.00000000E+00  0.00000000E+00  0.00000000E+00
  0.00000000E+00  0.00000000E+00  0.00000000E+00
  0.00000000E+00  0.00000000E+00  0.00000000E+00
  0.00000000E+00  0.00000000E+00  0.00000000E+00
  0.00000000E+00  0.00000000E+00  0.00000000E+00
  0.00000000E+00  0.00000000E+00  0.00000000E+00
  0.00000000E+00  0.00000000E+00  0.00000000E+00
  0.00000000E+00  0.00000000E+00  0.00000000E+00
  0.00000000E+00  0.00000000E+00  0.00000000E+00
  0.00000000E+00  0.00000000E+00  0.00000000E+00
  0.00000000E+00  0.00000000E+00  0.00000000E+00
  0.00000000E+00  0.00000000E+00  0.00000000E+00
  0.00000000E+00  0.00000000E+00  0.00000000E+00
  0.00000000E+00  0.00000000E+00  0.00000000E+00
  0.00000000E+00  0.00000000E+00  0.00000000E+00
  0.00000000E+00  0.00000000E+00  0.00000000E+00
  0.00000000E+00  0.00000000E+00  0.00000000E+00
  0.00000000E+00  0.00000000E+00  0.00000000E+00
  0.00000000E+00  0.00000000E+00  0.00000000E+00
  0.00000000E+00  0.00000000E+00  0.00000000E+00
  0.00000000E+00  0.00000000E+00  0.00000000E+00
  0.00000000E+00  0.00000000E+00  0.00000000E+00
  0.00000000E+00  0.00000000E+00  0.00000000E+00
  0.00000000E+00  0.00000000E+00  0.00000000E+00
  0.00000000E+00  0.00000000E+00  0.00000000E+00
  0.00000000E+00  0.00000000E+00  0.00000000E+00
  0.00000000E+00  0.00000000E+00  0.00000000E+00
  0.00000000E+00  0.00000000E+00  0.00000000E+00
  0.00000000E+00  0.00000000E+00  0.00000000E+00
  0.00000000E+00  0.00000000E+00  0.00000000E+00
  0.00000000E+00  0.00000000E+00  0.00000000E+00
  0.00000000E+00  0.00000000E+00  0.00000000E+00
  0.00000000E+00  0.00000000E+00  0.00000000E+00
  0.00000000E+00  0.00000000E+00  0.00000000E+00
  0.00000000E+00  0.00000000E+00  0.00000000E+00
  0.00000000E+00  0.00000000E+00  0.00000000E+00
  0.00000000E+00  0.00000000E+00  0.00000000E+00
  0.00000000E+00  0.00000000E+00  0.00000000E+00
  0.00000000E+00  0.00000000E+00  0.00000000E+00
  0.00000000E+00  0.00000000E+00  0.00000000E+00
  0.00000000E+00  0.00000000E+00  0.00000000E+00
  0.00000000E+00  0.00000000E+00  0.00000000E+00
  0.00000000E+00  0.00000000E+00  0.00000000E+00
  0.00000000E+00  0.00000000E+00  0.00000000E+00
  0.00000000E+00  0.00000000E+00  0.00000000E+00
  0.00000000E+00  0.00000000E+00  0.00000000E+00
  0.00000000E+00  0.00000000E+00  0.00000000E+00
  0.00000000E+00  0.00000000E+00  0.00000000E+00
  0.00000000E+00  0.00000000E+00  0.00000000E+00
  0.00000000E+00  0.00000000E+00  0.00000000E+00
  0.00000000E+00  0.00000000E+00  0.00000000E+00
  0.00000000E+00  0.00000000E+00  0.00000000E+00
  0.00000000E+00  0.00000000E+00  0.00000000E+00
