Ni C  O  H                              
   1.00000000000000     
    29.0000000000000000    0.0000000000000000    0.0000000000000000
     0.0000000000000000   29.0000000000000000    0.0000000000000000
     0.0000000000000000    0.0000000000000000   29.0000000000000000
   Ni   C    O    H 
    68     1     2     1
Selective dynamics
Direct
  0.4735762212782220  0.4999725502351245  0.6822876677486011   T   T   T
  0.3467680855268279  0.5978156955646432  0.4554578644366909   T   T   T
  0.3523006364643316  0.5602573438445636  0.5247374022506431   T   T   T
  0.5299894026218439  0.4443005803781617  0.4555705673781603   F   F   F
  0.4154505913781605  0.4443005803781617  0.5701094086218390   F   F   F
  0.5919695067823919  0.5601387055131107  0.5016983584933586   T   T   T
  0.4125456678362940  0.4910863889312631  0.3943161774169824   T   T   T
  0.4129421814180815  0.3833083026479359  0.5226468546632281   T   T   T
  0.5331924218682252  0.4906661473642797  0.6315627960786937   T   T   T
  0.3777769477001425  0.4415173430247041  0.6393105410981089   T   T   T
  0.4625528267604863  0.6199689460613379  0.5722241188080068   T   T   T
  0.5280189355484896  0.3749099848939627  0.4178873278310717   T   T   T
  0.4133285104461881  0.6198416282073489  0.5029912186111225   T   T   T
  0.4134402271478222  0.6273249904864474  0.4172722004300030   T   T   T
  0.5911370721643803  0.5114560814462464  0.5717167361810931   T   T   T
  0.5984511469814756  0.5604242386114902  0.4167035015018315   T   T   T
  0.5675840047015531  0.3749294972248053  0.5700153260849059   T   T   T
  0.4727199969999987  0.4440168789266536  0.5128399729999984   F   F   F
  0.3554863992551204  0.4441913045495666  0.5045210818488911   T   T   T
  0.4727199969999987  0.5591231230733484  0.5128399729999984   F   F   F
  0.4727199969999987  0.5015699859999998  0.5703931100733470   F   F   F
  0.4151917261585711  0.5970393281311240  0.6392497422762288   T   T   T
  0.5302731040733519  0.5015699859999998  0.5128399729999984   F   F   F
  0.4823530096055732  0.3834864399409099  0.5718886781628292   T   T   T
  0.3005384153325298  0.4996684752778485  0.5157023958185509   T   T   T
  0.3547547325024978  0.4916360396828001  0.5737890518563921   T   T   T
  0.4729797019591173  0.4988727739206592  0.3439336612576118   T   T   T
  0.3468123047767536  0.4457975947699993  0.4168025591259619   T   T   T
  0.5654318200116711  0.4407147688135630  0.3857535673562693   T   T   T
  0.5917489672997719  0.4902193180395387  0.4523798380544418   T   T   T
  0.4154505913781605  0.4443005803781617  0.4555705673781603   F   F   F
  0.4154505913781605  0.5588394216218404  0.4555705673781603   F   F   F
  0.5299894026218439  0.5588394216218404  0.4555705673781603   F   F   F
  0.4829074982005234  0.6198725467938145  0.4536048567960778   T   T   T
  0.4728657365752845  0.6708387716942728  0.5129278301183003   T   T   T
  0.3777251211986244  0.6277431131054237  0.5727136702720848   T   T   T
  0.5901985520826286  0.4410570930193237  0.5219518477432717   T   T   T
  0.3684665908470554  0.3764207413552779  0.4560289805600607   T   T   T
  0.3754243168533237  0.5604493807834672  0.3880575111105438   T   T   T
  0.4126443991960092  0.3750482570926635  0.6076896210777517   T   T   T
  0.5999589897210874  0.4414220418929746  0.6066010008475692   T   T   T
  0.5299894026218439  0.5588394216218404  0.5701094086218390   F   F   F
  0.4804108803384283  0.4408348437918667  0.3961230797279268   T   T   T
  0.4727199969999987  0.5015699859999998  0.4552868659266522   F   F   F
  0.5988960728848070  0.5970421525564816  0.5707683559950526   T   T   T
  0.4841129800482326  0.5600942558316623  0.6320715012449166   T   T   T
  0.4154505913781605  0.5588394216218404  0.5701094086218390   F   F   F
  0.4142982429999530  0.5113236590894921  0.6314486101965181   T   T   T
  0.5315962438376204  0.5112855371262476  0.3947343135776684   T   T   T
  0.5969704122424389  0.4038270400162314  0.4525624068755057   T   T   T
  0.5299894026218439  0.4443005803781617  0.5701094086218390   F   F   F
  0.3477300763078618  0.5611239276959136  0.6103799760071741   T   T   T
  0.4713608042784438  0.3306037090015161  0.5148028498066813   T   T   T
  0.5692790787259476  0.5609349515908626  0.6382016462700105   T   T   T
  0.3442155271163060  0.4053892027962301  0.5715195805374522   T   T   T
  0.4616947346192045  0.5599414807617579  0.3933893039370385   T   T   T
  0.5685937166491832  0.6272651529668806  0.4538420743192772   T   T   T
  0.5311321057113007  0.5970182604166552  0.3869473414752123   T   T   T
  0.5295913736073778  0.3820188130449117  0.5015830502872554   T   T   T
  0.4151668899266525  0.5015699859999998  0.5128399729999984   F   F   F
  0.5323163161396293  0.6203399328501393  0.5232537043106388   T   T   T
  0.5319881208440107  0.6276474102490391  0.6082603447198025   T   T   T
  0.4578398620934208  0.3798347705276458  0.4541358029165520   T   T   T
  0.4107752245293785  0.4035329262465744  0.3885368644763060   T   T   T
  0.5328716916111115  0.4053971062206883  0.6381418736067647   T   T   T
  0.4628588981670915  0.4413217485876194  0.6309252978617668   T   T   T
  0.6417863283863237  0.4997429926346073  0.5126631985764146   T   T   T
  0.3530868752588276  0.5130470685679093  0.4561758560329940   T   T   T
  0.3064154753866559  0.4002804843060648  0.5160313077010268   T   T   T
  0.3072187722451882  0.3660025729385809  0.4875788141447813   T   T   T
  0.2631928711339919  0.4231077810399971  0.5201068550884830   T   T   T
  0.2423555230297643  0.4088981279729019  0.4973369404181281   T   T   T
 
  0.00000000E+00  0.00000000E+00  0.00000000E+00
  0.00000000E+00  0.00000000E+00  0.00000000E+00
  0.00000000E+00  0.00000000E+00  0.00000000E+00
  0.00000000E+00  0.00000000E+00  0.00000000E+00
  0.00000000E+00  0.00000000E+00  0.00000000E+00
  0.00000000E+00  0.00000000E+00  0.00000000E+00
  0.00000000E+00  0.00000000E+00  0.00000000E+00
  0.00000000E+00  0.00000000E+00  0.00000000E+00
  0.00000000E+00  0.00000000E+00  0.00000000E+00
  0.00000000E+00  0.00000000E+00  0.00000000E+00
  0.00000000E+00  0.00000000E+00  0.00000000E+00
  0.00000000E+00  0.00000000E+00  0.00000000E+00
  0.00000000E+00  0.00000000E+00  0.00000000E+00
  0.00000000E+00  0.00000000E+00  0.00000000E+00
  0.00000000E+00  0.00000000E+00  0.00000000E+00
  0.00000000E+00  0.00000000E+00  0.00000000E+00
  0.00000000E+00  0.00000000E+00  0.00000000E+00
  0.00000000E+00  0.00000000E+00  0.00000000E+00
  0.00000000E+00  0.00000000E+00  0.00000000E+00
  0.00000000E+00  0.00000000E+00  0.00000000E+00
  0.00000000E+00  0.00000000E+00  0.00000000E+00
  0.00000000E+00  0.00000000E+00  0.00000000E+00
  0.00000000E+00  0.00000000E+00  0.00000000E+00
  0.00000000E+00  0.00000000E+00  0.00000000E+00
  0.00000000E+00  0.00000000E+00  0.00000000E+00
  0.00000000E+00  0.00000000E+00  0.00000000E+00
  0.00000000E+00  0.00000000E+00  0.00000000E+00
  0.00000000E+00  0.00000000E+00  0.00000000E+00
  0.00000000E+00  0.00000000E+00  0.00000000E+00
  0.00000000E+00  0.00000000E+00  0.00000000E+00
  0.00000000E+00  0.00000000E+00  0.00000000E+00
  0.00000000E+00  0.00000000E+00  0.00000000E+00
  0.00000000E+00  0.00000000E+00  0.00000000E+00
  0.00000000E+00  0.00000000E+00  0.00000000E+00
  0.00000000E+00  0.00000000E+00  0.00000000E+00
  0.00000000E+00  0.00000000E+00  0.00000000E+00
  0.00000000E+00  0.00000000E+00  0.00000000E+00
  0.00000000E+00  0.00000000E+00  0.00000000E+00
  0.00000000E+00  0.00000000E+00  0.00000000E+00
  0.00000000E+00  0.00000000E+00  0.00000000E+00
  0.00000000E+00  0.00000000E+00  0.00000000E+00
  0.00000000E+00  0.00000000E+00  0.00000000E+00
  0.00000000E+00  0.00000000E+00  0.00000000E+00
  0.00000000E+00  0.00000000E+00  0.00000000E+00
  0.00000000E+00  0.00000000E+00  0.00000000E+00
  0.00000000E+00  0.00000000E+00  0.00000000E+00
  0.00000000E+00  0.00000000E+00  0.00000000E+00
  0.00000000E+00  0.00000000E+00  0.00000000E+00
  0.00000000E+00  0.00000000E+00  0.00000000E+00
  0.00000000E+00  0.00000000E+00  0.00000000E+00
  0.00000000E+00  0.00000000E+00  0.00000000E+00
  0.00000000E+00  0.00000000E+00  0.00000000E+00
  0.00000000E+00  0.00000000E+00  0.00000000E+00
  0.00000000E+00  0.00000000E+00  0.00000000E+00
  0.00000000E+00  0.00000000E+00  0.00000000E+00
  0.00000000E+00  0.00000000E+00  0.00000000E+00
  0.00000000E+00  0.00000000E+00  0.00000000E+00
  0.00000000E+00  0.00000000E+00  0.00000000E+00
  0.00000000E+00  0.00000000E+00  0.00000000E+00
  0.00000000E+00  0.00000000E+00  0.00000000E+00
  0.00000000E+00  0.00000000E+00  0.00000000E+00
  0.00000000E+00  0.00000000E+00  0.00000000E+00
  0.00000000E+00  0.00000000E+00  0.00000000E+00
  0.00000000E+00  0.00000000E+00  0.00000000E+00
  0.00000000E+00  0.00000000E+00  0.00000000E+00
  0.00000000E+00  0.00000000E+00  0.00000000E+00
  0.00000000E+00  0.00000000E+00  0.00000000E+00
  0.00000000E+00  0.00000000E+00  0.00000000E+00
  0.00000000E+00  0.00000000E+00  0.00000000E+00
  0.00000000E+00  0.00000000E+00  0.00000000E+00
  0.00000000E+00  0.00000000E+00  0.00000000E+00
  0.00000000E+00  0.00000000E+00  0.00000000E+00
