Ni C  O  H                              
   1.00000000000000     
    29.0000000000000000    0.0000000000000000    0.0000000000000000
     0.0000000000000000   29.0000000000000000    0.0000000000000000
     0.0000000000000000    0.0000000000000000   29.0000000000000000
   Ni   C    O    H 
    68     1     2     1
Selective dynamics
Direct
  0.4746547724282807  0.5019335029132167  0.6828518034741544   T   T   T
  0.3462095118247767  0.5962898614443101  0.4545493987204507   T   T   T
  0.3536727793157131  0.5602878448403702  0.5240792784664757   T   T   T
  0.5299894026218439  0.4443005803781617  0.4555705673781603   F   F   F
  0.4154505913781605  0.4443005803781617  0.5701094086218390   F   F   F
  0.5911086400093752  0.5616095848396051  0.5022927143916421   T   T   T
  0.4130557172196249  0.4900257127039354  0.3932443206398107   T   T   T
  0.4139513080598973  0.3819342701901143  0.5244113276504401   T   T   T
  0.5332069181857755  0.4924202798586368  0.6309720746823568   T   T   T
  0.3782363124475549  0.4432491747267895  0.6398440368848295   T   T   T
  0.4624337425867885  0.6204968076880901  0.5717217535752224   T   T   T
  0.5315178195024612  0.3746976928302301  0.4188238913212689   T   T   T
  0.4130367100523517  0.6201361415900155  0.5025031418201543   T   T   T
  0.4126297162067502  0.6270795957360515  0.4168842750408562   T   T   T
  0.5916703614430056  0.5121192056639727  0.5716571079909687   T   T   T
  0.5984213961049039  0.5613557877002342  0.4171100046519130   T   T   T
  0.5685630620192359  0.3756818570322207  0.5726483243603375   T   T   T
  0.4727199969999987  0.4440168789266536  0.5128399729999984   F   F   F
  0.3551641153040938  0.4414710947633817  0.5036785508261141   T   T   T
  0.4727199969999987  0.5591231230733484  0.5128399729999984   F   F   F
  0.4727199969999987  0.5015699859999998  0.5703931100733470   F   F   F
  0.4149088727570552  0.5982312666948030  0.6385524930351710   T   T   T
  0.5302731040733519  0.5015699859999998  0.5128399729999984   F   F   F
  0.4834378482871482  0.3828239962812219  0.5729966077692552   T   T   T
  0.3037917711182311  0.5001191734062523  0.5132165800116241   T   T   T
  0.3543799349894805  0.4913062370490069  0.5731891469461835   T   T   T
  0.4737629428761308  0.4997061195452311  0.3433636921125720   T   T   T
  0.3463385146469279  0.4416087222150499  0.4182679148057121   T   T   T
  0.5669457730795605  0.4413972090804709  0.3863379987482619   T   T   T
  0.5910852767024891  0.4913513008650536  0.4529487168379460   T   T   T
  0.4154505913781605  0.4443005803781617  0.4555705673781603   F   F   F
  0.4154505913781605  0.5588394216218404  0.4555705673781603   F   F   F
  0.5299894026218439  0.5588394216218404  0.4555705673781603   F   F   F
  0.4823972609128576  0.6195009768560173  0.4526895001559259   T   T   T
  0.4727871236164835  0.6707669040832711  0.5114247776798253   T   T   T
  0.3767255736530550  0.6275044774089549  0.5719828517409311   T   T   T
  0.5918345743766690  0.4427381478893531  0.5234548636397374   T   T   T
  0.3772273093330130  0.3751007150786592  0.4550058144880547   T   T   T
  0.3762799478897859  0.5595252181454928  0.3873154071604279   T   T   T
  0.4144012265837679  0.3762604538850335  0.6098739522119989   T   T   T
  0.5988367809889927  0.4428979411217672  0.6086763382261917   T   T   T
  0.5299894026218439  0.5588394216218404  0.5701094086218390   F   F   F
  0.4824826923652450  0.4410964265138622  0.3950725643868422   T   T   T
  0.4727199969999987  0.5015699859999998  0.4552868659266522   F   F   F
  0.5987841099998219  0.5972762824321969  0.5722956222753947   T   T   T
  0.4837038354506058  0.5609933078846233  0.6315032517038125   T   T   T
  0.4154505913781605  0.5588394216218404  0.5701094086218390   F   F   F
  0.4146199577265401  0.5124880652107627  0.6321685460170927   T   T   T
  0.5321481487475159  0.5115938805284141  0.3944422989242482   T   T   T
  0.5987160603977524  0.4062953314740083  0.4539008099519661   T   T   T
  0.5299894026218439  0.4443005803781617  0.5701094086218390   F   F   F
  0.3476360719608030  0.5607172444316106  0.6100459756254643   T   T   T
  0.4741216066840162  0.3315483321300431  0.5137869963001709   T   T   T
  0.5701952151446851  0.5614618433957674  0.6402013614953396   T   T   T
  0.3469565646085502  0.4058245084998516  0.5735407431198497   T   T   T
  0.4614824128056850  0.5596973025452130  0.3932835450251062   T   T   T
  0.5667499946959345  0.6281932172960173  0.4530476710439228   T   T   T
  0.5308236130858656  0.5961055682909919  0.3860534768546852   T   T   T
  0.5321358684736632  0.3836926971967927  0.5033711162682529   T   T   T
  0.4151668899266525  0.5015699859999998  0.5128399729999984   F   F   F
  0.5320755778693922  0.6202630147249772  0.5234359271097445   T   T   T
  0.5315826028885574  0.6276801517042467  0.6084563474526123   T   T   T
  0.4619423468551814  0.3824829440522574  0.4547383294700644   T   T   T
  0.4131061756272333  0.4047476065491485  0.3875069947264310   T   T   T
  0.5319404440508440  0.4066765233584803  0.6394884202865279   T   T   T
  0.4631138758093462  0.4432866137090933  0.6313338622290644   T   T   T
  0.6422931547911430  0.5027343317176610  0.5114154480327480   T   T   T
  0.3544022426179264  0.5112530006579167  0.4539277740056503   T   T   T
  0.6155168987193975  0.5626719348977508  0.6853397062606000   T   T   T
  0.6511915054891632  0.5851274940894644  0.6803188556653325   T   T   T
  0.6073728864674836  0.5378014184632893  0.7251199923918125   T   T   T
  0.6343718078571148  0.5431688620486339  0.7450818181644741   T   T   T
 
  0.00000000E+00  0.00000000E+00  0.00000000E+00
  0.00000000E+00  0.00000000E+00  0.00000000E+00
  0.00000000E+00  0.00000000E+00  0.00000000E+00
  0.00000000E+00  0.00000000E+00  0.00000000E+00
  0.00000000E+00  0.00000000E+00  0.00000000E+00
  0.00000000E+00  0.00000000E+00  0.00000000E+00
  0.00000000E+00  0.00000000E+00  0.00000000E+00
  0.00000000E+00  0.00000000E+00  0.00000000E+00
  0.00000000E+00  0.00000000E+00  0.00000000E+00
  0.00000000E+00  0.00000000E+00  0.00000000E+00
  0.00000000E+00  0.00000000E+00  0.00000000E+00
  0.00000000E+00  0.00000000E+00  0.00000000E+00
  0.00000000E+00  0.00000000E+00  0.00000000E+00
  0.00000000E+00  0.00000000E+00  0.00000000E+00
  0.00000000E+00  0.00000000E+00  0.00000000E+00
  0.00000000E+00  0.00000000E+00  0.00000000E+00
  0.00000000E+00  0.00000000E+00  0.00000000E+00
  0.00000000E+00  0.00000000E+00  0.00000000E+00
  0.00000000E+00  0.00000000E+00  0.00000000E+00
  0.00000000E+00  0.00000000E+00  0.00000000E+00
  0.00000000E+00  0.00000000E+00  0.00000000E+00
  0.00000000E+00  0.00000000E+00  0.00000000E+00
  0.00000000E+00  0.00000000E+00  0.00000000E+00
  0.00000000E+00  0.00000000E+00  0.00000000E+00
  0.00000000E+00  0.00000000E+00  0.00000000E+00
  0.00000000E+00  0.00000000E+00  0.00000000E+00
  0.00000000E+00  0.00000000E+00  0.00000000E+00
  0.00000000E+00  0.00000000E+00  0.00000000E+00
  0.00000000E+00  0.00000000E+00  0.00000000E+00
  0.00000000E+00  0.00000000E+00  0.00000000E+00
  0.00000000E+00  0.00000000E+00  0.00000000E+00
  0.00000000E+00  0.00000000E+00  0.00000000E+00
  0.00000000E+00  0.00000000E+00  0.00000000E+00
  0.00000000E+00  0.00000000E+00  0.00000000E+00
  0.00000000E+00  0.00000000E+00  0.00000000E+00
  0.00000000E+00  0.00000000E+00  0.00000000E+00
  0.00000000E+00  0.00000000E+00  0.00000000E+00
  0.00000000E+00  0.00000000E+00  0.00000000E+00
  0.00000000E+00  0.00000000E+00  0.00000000E+00
  0.00000000E+00  0.00000000E+00  0.00000000E+00
  0.00000000E+00  0.00000000E+00  0.00000000E+00
  0.00000000E+00  0.00000000E+00  0.00000000E+00
  0.00000000E+00  0.00000000E+00  0.00000000E+00
  0.00000000E+00  0.00000000E+00  0.00000000E+00
  0.00000000E+00  0.00000000E+00  0.00000000E+00
  0.00000000E+00  0.00000000E+00  0.00000000E+00
  0.00000000E+00  0.00000000E+00  0.00000000E+00
  0.00000000E+00  0.00000000E+00  0.00000000E+00
  0.00000000E+00  0.00000000E+00  0.00000000E+00
  0.00000000E+00  0.00000000E+00  0.00000000E+00
  0.00000000E+00  0.00000000E+00  0.00000000E+00
  0.00000000E+00  0.00000000E+00  0.00000000E+00
  0.00000000E+00  0.00000000E+00  0.00000000E+00
  0.00000000E+00  0.00000000E+00  0.00000000E+00
  0.00000000E+00  0.00000000E+00  0.00000000E+00
  0.00000000E+00  0.00000000E+00  0.00000000E+00
  0.00000000E+00  0.00000000E+00  0.00000000E+00
  0.00000000E+00  0.00000000E+00  0.00000000E+00
  0.00000000E+00  0.00000000E+00  0.00000000E+00
  0.00000000E+00  0.00000000E+00  0.00000000E+00
  0.00000000E+00  0.00000000E+00  0.00000000E+00
  0.00000000E+00  0.00000000E+00  0.00000000E+00
  0.00000000E+00  0.00000000E+00  0.00000000E+00
  0.00000000E+00  0.00000000E+00  0.00000000E+00
  0.00000000E+00  0.00000000E+00  0.00000000E+00
  0.00000000E+00  0.00000000E+00  0.00000000E+00
  0.00000000E+00  0.00000000E+00  0.00000000E+00
  0.00000000E+00  0.00000000E+00  0.00000000E+00
  0.00000000E+00  0.00000000E+00  0.00000000E+00
  0.00000000E+00  0.00000000E+00  0.00000000E+00
  0.00000000E+00  0.00000000E+00  0.00000000E+00
  0.00000000E+00  0.00000000E+00  0.00000000E+00
