Ni C  O  H                              
   1.00000000000000     
    29.0000000000000000    0.0000000000000000    0.0000000000000000
     0.0000000000000000   29.0000000000000000    0.0000000000000000
     0.0000000000000000    0.0000000000000000   29.0000000000000000
   Ni   C    O    H 
    68     1     2     1
Selective dynamics
Direct
  0.4749494468704219  0.5026125738015454  0.6828394542542748   T   T   T
  0.3772189337318297  0.6277565307558866  0.4545696790361988   T   T   T
  0.3543845519501140  0.5608523876927122  0.5030598680050563   T   T   T
  0.5299894026218439  0.4443005803781617  0.4555705673781603   F   F   F
  0.4154505913781605  0.4443005803781617  0.5701094086218390   F   F   F
  0.5907312566825077  0.5615176083016883  0.5224016836976216   T   T   T
  0.4131212991688930  0.5118343046917666  0.3944115694107201   T   T   T
  0.4139587995088279  0.3830416939887202  0.5026824108593920   T   T   T
  0.5333720959704770  0.5101652263120223  0.6304322589467667   T   T   T
  0.3474874814307198  0.4415758795908020  0.6093903209334878   T   T   T
  0.4831522941918855  0.6204225664976796  0.5729382053576558   T   T   T
  0.5317142529794479  0.4062716870862887  0.3861290160557766   T   T   T
  0.4129956810885042  0.6208834131131987  0.5243044749352382   T   T   T
  0.4133429545785128  0.5975611617430348  0.3872166709450067   T   T   T
  0.5919779136208035  0.4901669440725344  0.5698883298576461   T   T   T
  0.5672802077338044  0.5610006218302623  0.3861636812445564   T   T   T
  0.6004021399734013  0.4024831965829554  0.5685523734299762   T   T   T
  0.4727199969999987  0.4440168789266536  0.5128399729999984   F   F   F
  0.3540332527600039  0.4413474655609547  0.5238253519837461   T   T   T
  0.4727199969999987  0.5591231230733484  0.5128399729999984   F   F   F
  0.4727199969999987  0.5015699859999998  0.5703931100733470   F   F   F
  0.4135393411859511  0.6267324249141218  0.6095200068892879   T   T   T
  0.5302731040733519  0.5015699859999998  0.5128399729999984   F   F   F
  0.4641679633406343  0.3844702264090698  0.5725057373055247   T   T   T
  0.3040098966361981  0.5012397911650218  0.5139141829529482   T   T   T
  0.3549535972606208  0.5110277950737754  0.5730193798115341   T   T   T
  0.4723395911993913  0.5017552346875289  0.3433859229091000   T   T   T
  0.3773997379504154  0.4418207931636520  0.3866797428861825   T   T   T
  0.5984534239319479  0.4435778214860427  0.4157343415777137   T   T   T
  0.5911305815562610  0.5124796051990286  0.4524248371936720   T   T   T
  0.4154505913781605  0.4443005803781617  0.4555705673781603   F   F   F
  0.4154505913781605  0.5588394216218404  0.4555705673781603   F   F   F
  0.5299894026218439  0.5588394216218404  0.4555705673781603   F   F   F
  0.4619412078701421  0.6207781444393741  0.4543282605131220   T   T   T
  0.4726411234359173  0.6714843087233667  0.5137802359120328   T   T   T
  0.3461720095389405  0.5959490927778357  0.5729802232335148   T   T   T
  0.5926094182189277  0.4431571097574417  0.5010791588032518   T   T   T
  0.3469254299867228  0.4057529986239327  0.4540902981337070   T   T   T
  0.3465943550555710  0.5608422692185798  0.4178413464797285   T   T   T
  0.4152508013584403  0.4055382595510225  0.6388960688374088   T   T   T
  0.5719805417887319  0.4419874676113856  0.6364664821014834   T   T   T
  0.5299894026218439  0.5588394216218404  0.5701094086218390   F   F   F
  0.4621696927747395  0.4419324125116282  0.3940624342518374   T   T   T
  0.4727199969999987  0.5015699859999998  0.4552868659266522   F   F   F
  0.5684259259317623  0.6271286606450667  0.5727257809859357   T   T   T
  0.4629000503496876  0.5601692672207357  0.6311024186998432   T   T   T
  0.4154505913781605  0.5588394216218404  0.5701094086218390   F   F   F
  0.4149943354893336  0.4901383189353295  0.6324727926304220   T   T   T
  0.5315718548135873  0.4911207120887176  0.3939484122560299   T   T   T
  0.5696546464542467  0.3761888062456963  0.4524254855547492   T   T   T
  0.5299894026218439  0.4443005803781617  0.5701094086218390   F   F   F
  0.3778583188387683  0.5591709056750233  0.6394765192674765   T   T   T
  0.4733522840925553  0.3327779441151328  0.5139313202510117   T   T   T
  0.5995147298109509  0.5589740049518581  0.6074475348515591   T   T   T
  0.3786315316777808  0.3747707419924420  0.5724983746683892   T   T   T
  0.4825759230379678  0.5610546076762458  0.3946126923332907   T   T   T
  0.5983960097503006  0.5974502370546554  0.4528214160426939   T   T   T
  0.5310180409561928  0.6279295164517159  0.4174850056884454   T   T   T
  0.5325120127917508  0.3844661510321487  0.5213151523416601   T   T   T
  0.4151668899266525  0.5015699859999998  0.5128399729999984   F   F   F
  0.5317339924752377  0.6203574163157533  0.5029353601698447   T   T   T
  0.5327871161827205  0.5951621365842240  0.6397381724172388   T   T   T
  0.4835652586748449  0.3826318801199484  0.4532402063792653   T   T   T
  0.4136967969985104  0.3749419645375171  0.4178561955707332   T   T   T
  0.5336916177256253  0.3727521132842176  0.6084881630863264   T   T   T
  0.4853270720119381  0.4415749187822525  0.6327222607972914   T   T   T
  0.6427532846965585  0.5034620900225408  0.5110648894136197   T   T   T
  0.3540188908634556  0.4908787050244479  0.4537418771941075   T   T   T
  0.6051737313090741  0.3390674382791630  0.5742502879932933   T   T   T
  0.5773582724684956  0.3178116042918992  0.6010465283943057   T   T   T
  0.6357502859205773  0.3132352578787979  0.5499212586562556   T   T   T
  0.6302602066293859  0.2806620775917912  0.5580749977389812   T   T   T
 
  0.00000000E+00  0.00000000E+00  0.00000000E+00
  0.00000000E+00  0.00000000E+00  0.00000000E+00
  0.00000000E+00  0.00000000E+00  0.00000000E+00
  0.00000000E+00  0.00000000E+00  0.00000000E+00
  0.00000000E+00  0.00000000E+00  0.00000000E+00
  0.00000000E+00  0.00000000E+00  0.00000000E+00
  0.00000000E+00  0.00000000E+00  0.00000000E+00
  0.00000000E+00  0.00000000E+00  0.00000000E+00
  0.00000000E+00  0.00000000E+00  0.00000000E+00
  0.00000000E+00  0.00000000E+00  0.00000000E+00
  0.00000000E+00  0.00000000E+00  0.00000000E+00
  0.00000000E+00  0.00000000E+00  0.00000000E+00
  0.00000000E+00  0.00000000E+00  0.00000000E+00
  0.00000000E+00  0.00000000E+00  0.00000000E+00
  0.00000000E+00  0.00000000E+00  0.00000000E+00
  0.00000000E+00  0.00000000E+00  0.00000000E+00
  0.00000000E+00  0.00000000E+00  0.00000000E+00
  0.00000000E+00  0.00000000E+00  0.00000000E+00
  0.00000000E+00  0.00000000E+00  0.00000000E+00
  0.00000000E+00  0.00000000E+00  0.00000000E+00
  0.00000000E+00  0.00000000E+00  0.00000000E+00
  0.00000000E+00  0.00000000E+00  0.00000000E+00
  0.00000000E+00  0.00000000E+00  0.00000000E+00
  0.00000000E+00  0.00000000E+00  0.00000000E+00
  0.00000000E+00  0.00000000E+00  0.00000000E+00
  0.00000000E+00  0.00000000E+00  0.00000000E+00
  0.00000000E+00  0.00000000E+00  0.00000000E+00
  0.00000000E+00  0.00000000E+00  0.00000000E+00
  0.00000000E+00  0.00000000E+00  0.00000000E+00
  0.00000000E+00  0.00000000E+00  0.00000000E+00
  0.00000000E+00  0.00000000E+00  0.00000000E+00
  0.00000000E+00  0.00000000E+00  0.00000000E+00
  0.00000000E+00  0.00000000E+00  0.00000000E+00
  0.00000000E+00  0.00000000E+00  0.00000000E+00
  0.00000000E+00  0.00000000E+00  0.00000000E+00
  0.00000000E+00  0.00000000E+00  0.00000000E+00
  0.00000000E+00  0.00000000E+00  0.00000000E+00
  0.00000000E+00  0.00000000E+00  0.00000000E+00
  0.00000000E+00  0.00000000E+00  0.00000000E+00
  0.00000000E+00  0.00000000E+00  0.00000000E+00
  0.00000000E+00  0.00000000E+00  0.00000000E+00
  0.00000000E+00  0.00000000E+00  0.00000000E+00
  0.00000000E+00  0.00000000E+00  0.00000000E+00
  0.00000000E+00  0.00000000E+00  0.00000000E+00
  0.00000000E+00  0.00000000E+00  0.00000000E+00
  0.00000000E+00  0.00000000E+00  0.00000000E+00
  0.00000000E+00  0.00000000E+00  0.00000000E+00
  0.00000000E+00  0.00000000E+00  0.00000000E+00
  0.00000000E+00  0.00000000E+00  0.00000000E+00
  0.00000000E+00  0.00000000E+00  0.00000000E+00
  0.00000000E+00  0.00000000E+00  0.00000000E+00
  0.00000000E+00  0.00000000E+00  0.00000000E+00
  0.00000000E+00  0.00000000E+00  0.00000000E+00
  0.00000000E+00  0.00000000E+00  0.00000000E+00
  0.00000000E+00  0.00000000E+00  0.00000000E+00
  0.00000000E+00  0.00000000E+00  0.00000000E+00
  0.00000000E+00  0.00000000E+00  0.00000000E+00
  0.00000000E+00  0.00000000E+00  0.00000000E+00
  0.00000000E+00  0.00000000E+00  0.00000000E+00
  0.00000000E+00  0.00000000E+00  0.00000000E+00
  0.00000000E+00  0.00000000E+00  0.00000000E+00
  0.00000000E+00  0.00000000E+00  0.00000000E+00
  0.00000000E+00  0.00000000E+00  0.00000000E+00
  0.00000000E+00  0.00000000E+00  0.00000000E+00
  0.00000000E+00  0.00000000E+00  0.00000000E+00
  0.00000000E+00  0.00000000E+00  0.00000000E+00
  0.00000000E+00  0.00000000E+00  0.00000000E+00
  0.00000000E+00  0.00000000E+00  0.00000000E+00
  0.00000000E+00  0.00000000E+00  0.00000000E+00
  0.00000000E+00  0.00000000E+00  0.00000000E+00
  0.00000000E+00  0.00000000E+00  0.00000000E+00
  0.00000000E+00  0.00000000E+00  0.00000000E+00
