Ni C  O  H                              
   1.00000000000000     
    29.0000000000000000    0.0000000000000000    0.0000000000000000
     0.0000000000000000   29.0000000000000000    0.0000000000000000
     0.0000000000000000    0.0000000000000000   29.0000000000000000
   Ni   C    O    H 
    68     1     2     1
Selective dynamics
Direct
  0.4783679117798345  0.4972470371219872  0.6828157793719822   T   T   T
  0.3463363528392354  0.5972239475933164  0.4560467082498270   T   T   T
  0.3530801657085840  0.5601475587073120  0.5250186994309809   T   T   T
  0.5299894026218439  0.4443005803781617  0.4555705673781603   F   F   F
  0.4154505913781605  0.4443005803781617  0.5701094086218390   F   F   F
  0.5909339064888799  0.5617103210583776  0.5020655855949224   T   T   T
  0.4122650734453271  0.4918211956864938  0.3949534652954501   T   T   T
  0.4109992408937581  0.3814167940742879  0.5222923608393299   T   T   T
  0.5348572805301015  0.4956091058778698  0.6279695137016523   T   T   T
  0.3811218326473198  0.4427338848311193  0.6409422986247995   T   T   T
  0.4620234489579507  0.6206764566885432  0.5724706889567803   T   T   T
  0.5329407959155213  0.3732059186642523  0.4236501318933547   T   T   T
  0.4128152573543150  0.6197076628713297  0.5031374173445020   T   T   T
  0.4126034308236105  0.6282759965841156  0.4183992308412897   T   T   T
  0.5935836716131669  0.5127956098838390  0.5715428904006263   T   T   T
  0.5985715716198945  0.5619114058369665  0.4169768104282295   T   T   T
  0.5978851088474690  0.4400703443401021  0.6074955545744957   T   T   T
  0.4727199969999987  0.4440168789266536  0.5128399729999984   F   F   F
  0.3553226850191697  0.4409276451253017  0.5050726756795861   T   T   T
  0.4727199969999987  0.5591231230733484  0.5128399729999984   F   F   F
  0.4727199969999987  0.5015699859999998  0.5703931100733470   F   F   F
  0.4151076114236993  0.5978738336766716  0.6388621223066816   T   T   T
  0.5302731040733519  0.5015699859999998  0.5128399729999984   F   F   F
  0.4770330034932228  0.3852239695539020  0.5660541756143429   T   T   T
  0.3038056936673522  0.4993830143543218  0.5145741898703604   T   T   T
  0.3545075176771487  0.4905476599386419  0.5746279579340258   T   T   T
  0.4718740593619680  0.4992941980228957  0.3441389145247459   T   T   T
  0.3458487666534570  0.4428847154674493  0.4189815641352997   T   T   T
  0.5663359532838956  0.4405562463339474  0.3862480509424954   T   T   T
  0.5904932392313696  0.4922360613398164  0.4524373146601198   T   T   T
  0.4154505913781605  0.4443005803781617  0.4555705673781603   F   F   F
  0.4154505913781605  0.5588394216218404  0.4555705673781603   F   F   F
  0.5299894026218439  0.5588394216218404  0.4555705673781603   F   F   F
  0.4823877375315672  0.6195514480711902  0.4529965327095649   T   T   T
  0.4717354147797964  0.6707777780088345  0.5117061917417524   T   T   T
  0.3767847027621726  0.6276381813494727  0.5726216805851476   T   T   T
  0.5925300883938720  0.4455168371940518  0.5238714734045690   T   T   T
  0.3764079360964900  0.3751673382738536  0.4521744600357850   T   T   T
  0.3754035630604992  0.5613254023296744  0.3881585271543539   T   T   T
  0.4167893633313741  0.3731857332193778  0.6144245498533141   T   T   T
  0.5352391537063245  0.4209843674733555  0.6548009908591995   T   T   T
  0.5299894026218439  0.5588394216218404  0.5701094086218390   F   F   F
  0.4827048309030380  0.4407762081526100  0.3952254228790605   T   T   T
  0.4727199969999987  0.5015699859999998  0.4552868659266522   F   F   F
  0.5984684076726473  0.5990883425458153  0.5704123251103446   T   T   T
  0.4847207989151701  0.5617577262571680  0.6329569287279118   T   T   T
  0.4154505913781605  0.5588394216218404  0.5701094086218390   F   F   F
  0.4168015556417493  0.5123500927646045  0.6327325751393177   T   T   T
  0.5314728271319515  0.5114068393183460  0.3941974523231124   T   T   T
  0.6001849702585457  0.4086744290371104  0.4542834149389399   T   T   T
  0.5299894026218439  0.4443005803781617  0.5701094086218390   F   F   F
  0.3481608841535380  0.5603624156272713  0.6105159338353033   T   T   T
  0.4811615923705195  0.3297023570772326  0.5074179810561851   T   T   T
  0.5708114134584797  0.5642030475504926  0.6381472085105734   T   T   T
  0.3486488878716348  0.4046596826518772  0.5764016802880163   T   T   T
  0.4613549821221416  0.5607240873403929  0.3931531123566969   T   T   T
  0.5668755297544698  0.6283818958131954  0.4539831410785160   T   T   T
  0.5310436017736128  0.5968042360979563  0.3867044531946811   T   T   T
  0.5369272531567296  0.3869874889855110  0.5090247436385954   T   T   T
  0.4151668899266525  0.5015699859999998  0.5128399729999984   F   F   F
  0.5312210245332722  0.6207854825479895  0.5235381317591378   T   T   T
  0.5315925644946651  0.6288627432697099  0.6076313739984159   T   T   T
  0.4617247117307403  0.3830100738321277  0.4544836189456642   T   T   T
  0.4124479391642968  0.4073485417263399  0.3861101323849814   T   T   T
  0.5487348078434036  0.3698484803767768  0.5938410055209417   T   T   T
  0.4657172779888463  0.4417389100249585  0.6283259704940681   T   T   T
  0.6435281465517806  0.5041076256384297  0.5095368186647029   T   T   T
  0.3537981170149031  0.5120565577896549  0.4551293032032287   T   T   T
  0.4937950342389112  0.3299316524989061  0.5994726093451973   T   T   T
  0.4627373848718986  0.3249057979135234  0.6311384736162374   T   T   T
  0.5002052090475937  0.2890264282057649  0.5717668127644242   T   T   T
  0.4771313300104229  0.2667765306013007  0.5829519110699594   T   T   T
 
  0.00000000E+00  0.00000000E+00  0.00000000E+00
  0.00000000E+00  0.00000000E+00  0.00000000E+00
  0.00000000E+00  0.00000000E+00  0.00000000E+00
  0.00000000E+00  0.00000000E+00  0.00000000E+00
  0.00000000E+00  0.00000000E+00  0.00000000E+00
  0.00000000E+00  0.00000000E+00  0.00000000E+00
  0.00000000E+00  0.00000000E+00  0.00000000E+00
  0.00000000E+00  0.00000000E+00  0.00000000E+00
  0.00000000E+00  0.00000000E+00  0.00000000E+00
  0.00000000E+00  0.00000000E+00  0.00000000E+00
  0.00000000E+00  0.00000000E+00  0.00000000E+00
  0.00000000E+00  0.00000000E+00  0.00000000E+00
  0.00000000E+00  0.00000000E+00  0.00000000E+00
  0.00000000E+00  0.00000000E+00  0.00000000E+00
  0.00000000E+00  0.00000000E+00  0.00000000E+00
  0.00000000E+00  0.00000000E+00  0.00000000E+00
  0.00000000E+00  0.00000000E+00  0.00000000E+00
  0.00000000E+00  0.00000000E+00  0.00000000E+00
  0.00000000E+00  0.00000000E+00  0.00000000E+00
  0.00000000E+00  0.00000000E+00  0.00000000E+00
  0.00000000E+00  0.00000000E+00  0.00000000E+00
  0.00000000E+00  0.00000000E+00  0.00000000E+00
  0.00000000E+00  0.00000000E+00  0.00000000E+00
  0.00000000E+00  0.00000000E+00  0.00000000E+00
  0.00000000E+00  0.00000000E+00  0.00000000E+00
  0.00000000E+00  0.00000000E+00  0.00000000E+00
  0.00000000E+00  0.00000000E+00  0.00000000E+00
  0.00000000E+00  0.00000000E+00  0.00000000E+00
  0.00000000E+00  0.00000000E+00  0.00000000E+00
  0.00000000E+00  0.00000000E+00  0.00000000E+00
  0.00000000E+00  0.00000000E+00  0.00000000E+00
  0.00000000E+00  0.00000000E+00  0.00000000E+00
  0.00000000E+00  0.00000000E+00  0.00000000E+00
  0.00000000E+00  0.00000000E+00  0.00000000E+00
  0.00000000E+00  0.00000000E+00  0.00000000E+00
  0.00000000E+00  0.00000000E+00  0.00000000E+00
  0.00000000E+00  0.00000000E+00  0.00000000E+00
  0.00000000E+00  0.00000000E+00  0.00000000E+00
  0.00000000E+00  0.00000000E+00  0.00000000E+00
  0.00000000E+00  0.00000000E+00  0.00000000E+00
  0.00000000E+00  0.00000000E+00  0.00000000E+00
  0.00000000E+00  0.00000000E+00  0.00000000E+00
  0.00000000E+00  0.00000000E+00  0.00000000E+00
  0.00000000E+00  0.00000000E+00  0.00000000E+00
  0.00000000E+00  0.00000000E+00  0.00000000E+00
  0.00000000E+00  0.00000000E+00  0.00000000E+00
  0.00000000E+00  0.00000000E+00  0.00000000E+00
  0.00000000E+00  0.00000000E+00  0.00000000E+00
  0.00000000E+00  0.00000000E+00  0.00000000E+00
  0.00000000E+00  0.00000000E+00  0.00000000E+00
  0.00000000E+00  0.00000000E+00  0.00000000E+00
  0.00000000E+00  0.00000000E+00  0.00000000E+00
  0.00000000E+00  0.00000000E+00  0.00000000E+00
  0.00000000E+00  0.00000000E+00  0.00000000E+00
  0.00000000E+00  0.00000000E+00  0.00000000E+00
  0.00000000E+00  0.00000000E+00  0.00000000E+00
  0.00000000E+00  0.00000000E+00  0.00000000E+00
  0.00000000E+00  0.00000000E+00  0.00000000E+00
  0.00000000E+00  0.00000000E+00  0.00000000E+00
  0.00000000E+00  0.00000000E+00  0.00000000E+00
  0.00000000E+00  0.00000000E+00  0.00000000E+00
  0.00000000E+00  0.00000000E+00  0.00000000E+00
  0.00000000E+00  0.00000000E+00  0.00000000E+00
  0.00000000E+00  0.00000000E+00  0.00000000E+00
  0.00000000E+00  0.00000000E+00  0.00000000E+00
  0.00000000E+00  0.00000000E+00  0.00000000E+00
  0.00000000E+00  0.00000000E+00  0.00000000E+00
  0.00000000E+00  0.00000000E+00  0.00000000E+00
  0.00000000E+00  0.00000000E+00  0.00000000E+00
  0.00000000E+00  0.00000000E+00  0.00000000E+00
  0.00000000E+00  0.00000000E+00  0.00000000E+00
  0.00000000E+00  0.00000000E+00  0.00000000E+00
