Ni C  O  H                              
   1.00000000000000     
    29.0000000000000000    0.0000000000000000    0.0000000000000000
     0.0000000000000000   29.0000000000000000    0.0000000000000000
     0.0000000000000000    0.0000000000000000   29.0000000000000000
   Ni   C    O    H 
    68     1     2     1
Selective dynamics
Direct
  0.4739593015207172  0.5012776030809479  0.6821382348900691   T   T   T
  0.3465571383961661  0.5968869018964946  0.4526695991812787   T   T   T
  0.3544826357273578  0.5609847922644632  0.5226105790384028   T   T   T
  0.5299894026218439  0.4443005803781617  0.4555705673781603   F   F   F
  0.4154505913781605  0.4443005803781617  0.5701094086218390   F   F   F
  0.5910973903460498  0.5616001156418409  0.5033548496601666   T   T   T
  0.4135565803324965  0.4901242992141870  0.3934413720501305   T   T   T
  0.4136298044925065  0.3827758973021348  0.5237361357173076   T   T   T
  0.5322934775021547  0.4927744970627902  0.6302532513022265   T   T   T
  0.3769166212344787  0.4427377151046644  0.6389326421367546   T   T   T
  0.4630940727840024  0.6201319695463923  0.5716420353864053   T   T   T
  0.5326514870855190  0.3751071462008314  0.4187365617829457   T   T   T
  0.4131268642071714  0.6205673368528494  0.5017066090938898   T   T   T
  0.4136290437974268  0.6269505078553175  0.4161056007133707   T   T   T
  0.5921719838009627  0.5137391198112844  0.5721817859210537   T   T   T
  0.5990249241484900  0.5606343102706327  0.4177501311879319   T   T   T
  0.5693588661540981  0.3765835592633404  0.5729729400829630   T   T   T
  0.4727199969999987  0.4440168789266536  0.5128399729999984   F   F   F
  0.3542359279195816  0.4421407608871592  0.5025792108217585   T   T   T
  0.4727199969999987  0.5591231230733484  0.5128399729999984   F   F   F
  0.4727199969999987  0.5015699859999998  0.5703931100733470   F   F   F
  0.4136773842077286  0.5983861336658618  0.6381348610875985   T   T   T
  0.5302731040733519  0.5015699859999998  0.5128399729999984   F   F   F
  0.4831898168850287  0.3831905046518996  0.5730605022078272   T   T   T
  0.3035669019944526  0.5015965106652621  0.5126831291493134   T   T   T
  0.3543499807141439  0.4914406458356570  0.5721533485440197   T   T   T
  0.4734868045657531  0.5010509098230549  0.3432828606465926   T   T   T
  0.3466595506001654  0.4420837576249100  0.4174890526764918   T   T   T
  0.5692897926324475  0.4420021696237693  0.3875125610977947   T   T   T
  0.5912926920968473  0.4913142158141141  0.4542360479757661   T   T   T
  0.4154505913781605  0.4443005803781617  0.4555705673781603   F   F   F
  0.4154505913781605  0.5588394216218404  0.4555705673781603   F   F   F
  0.5299894026218439  0.5588394216218404  0.4555705673781603   F   F   F
  0.4828375400980546  0.6199344865338680  0.4529212808524358   T   T   T
  0.4722288480511027  0.6713358578286556  0.5119775993911411   T   T   T
  0.3772122012677562  0.6276937433609265  0.5712236053713944   T   T   T
  0.5921195715998593  0.4433892240106471  0.5240716564590244   T   T   T
  0.3774502228616555  0.3752145977882625  0.4542626983217309   T   T   T
  0.3776484232235356  0.5595816639093767  0.3862159575148825   T   T   T
  0.4133277856571660  0.3756777014938367  0.6088111134538471   T   T   T
  0.5988571270308023  0.4443738027406252  0.6087731913220439   T   T   T
  0.5299894026218439  0.5588394216218404  0.5701094086218390   F   F   F
  0.4835237919969427  0.4414238725043090  0.3939600962424443   T   T   T
  0.4727199969999987  0.5015699859999998  0.4552868659266522   F   F   F
  0.5966508439156853  0.5998033813175169  0.5718055712947280   T   T   T
  0.4819809090991650  0.5604226085795920  0.6304799332215163   T   T   T
  0.4154505913781605  0.5588394216218404  0.5701094086218390   F   F   F
  0.4134048269044414  0.5120883003267894  0.6317911662744231   T   T   T
  0.5323852126539400  0.5112720434532776  0.3946960224672887   T   T   T
  0.5993862577554397  0.4063226014529708  0.4551200891176678   T   T   T
  0.5299894026218439  0.4443005803781617  0.5701094086218390   F   F   F
  0.3466940426223915  0.5609559517473650  0.6081798954650575   T   T   T
  0.4734838674213933  0.3324708601985812  0.5135518106591294   T   T   T
  0.5689224690595400  0.5613421757747132  0.6415725323269895   T   T   T
  0.3465184478313589  0.4061990707962207  0.5722422740278572   T   T   T
  0.4625046048287456  0.5600560165734948  0.3941430394366685   T   T   T
  0.5681995157504129  0.6276114655916991  0.4540197535383604   T   T   T
  0.5319868582209845  0.5964909018735909  0.3867040191787986   T   T   T
  0.5323865450589367  0.3838745530055278  0.5035688721953373   T   T   T
  0.4151668899266525  0.5015699859999998  0.5128399729999984   F   F   F
  0.5308989228311947  0.6201408295291037  0.5231614493870385   T   T   T
  0.5308397463034660  0.6291816354196438  0.6120101739033073   T   T   T
  0.4626001936044092  0.3828775142068058  0.4538534550734595   T   T   T
  0.4137480909983756  0.4053309966320073  0.3870194125762297   T   T   T
  0.5323768166473908  0.4076198641867387  0.6396324886361286   T   T   T
  0.4622911915464263  0.4424229852949500  0.6313787585133043   T   T   T
  0.6429300399837861  0.5028257126926569  0.5122732790111055   T   T   T
  0.3543439313571140  0.5117958799074491  0.4531684472830431   T   T   T
  0.5663289848819001  0.6441874026193040  0.6631587423905312   T   T   T
  0.5875390525464577  0.6126497040187249  0.6855130500026534   T   T   T
  0.5688654704800277  0.6879080649456930  0.6798178331582300   T   T   T
  0.5876959610712121  0.6870190897225217  0.7081741334598848   T   T   T
 
  0.00000000E+00  0.00000000E+00  0.00000000E+00
  0.00000000E+00  0.00000000E+00  0.00000000E+00
  0.00000000E+00  0.00000000E+00  0.00000000E+00
  0.00000000E+00  0.00000000E+00  0.00000000E+00
  0.00000000E+00  0.00000000E+00  0.00000000E+00
  0.00000000E+00  0.00000000E+00  0.00000000E+00
  0.00000000E+00  0.00000000E+00  0.00000000E+00
  0.00000000E+00  0.00000000E+00  0.00000000E+00
  0.00000000E+00  0.00000000E+00  0.00000000E+00
  0.00000000E+00  0.00000000E+00  0.00000000E+00
  0.00000000E+00  0.00000000E+00  0.00000000E+00
  0.00000000E+00  0.00000000E+00  0.00000000E+00
  0.00000000E+00  0.00000000E+00  0.00000000E+00
  0.00000000E+00  0.00000000E+00  0.00000000E+00
  0.00000000E+00  0.00000000E+00  0.00000000E+00
  0.00000000E+00  0.00000000E+00  0.00000000E+00
  0.00000000E+00  0.00000000E+00  0.00000000E+00
  0.00000000E+00  0.00000000E+00  0.00000000E+00
  0.00000000E+00  0.00000000E+00  0.00000000E+00
  0.00000000E+00  0.00000000E+00  0.00000000E+00
  0.00000000E+00  0.00000000E+00  0.00000000E+00
  0.00000000E+00  0.00000000E+00  0.00000000E+00
  0.00000000E+00  0.00000000E+00  0.00000000E+00
  0.00000000E+00  0.00000000E+00  0.00000000E+00
  0.00000000E+00  0.00000000E+00  0.00000000E+00
  0.00000000E+00  0.00000000E+00  0.00000000E+00
  0.00000000E+00  0.00000000E+00  0.00000000E+00
  0.00000000E+00  0.00000000E+00  0.00000000E+00
  0.00000000E+00  0.00000000E+00  0.00000000E+00
  0.00000000E+00  0.00000000E+00  0.00000000E+00
  0.00000000E+00  0.00000000E+00  0.00000000E+00
  0.00000000E+00  0.00000000E+00  0.00000000E+00
  0.00000000E+00  0.00000000E+00  0.00000000E+00
  0.00000000E+00  0.00000000E+00  0.00000000E+00
  0.00000000E+00  0.00000000E+00  0.00000000E+00
  0.00000000E+00  0.00000000E+00  0.00000000E+00
  0.00000000E+00  0.00000000E+00  0.00000000E+00
  0.00000000E+00  0.00000000E+00  0.00000000E+00
  0.00000000E+00  0.00000000E+00  0.00000000E+00
  0.00000000E+00  0.00000000E+00  0.00000000E+00
  0.00000000E+00  0.00000000E+00  0.00000000E+00
  0.00000000E+00  0.00000000E+00  0.00000000E+00
  0.00000000E+00  0.00000000E+00  0.00000000E+00
  0.00000000E+00  0.00000000E+00  0.00000000E+00
  0.00000000E+00  0.00000000E+00  0.00000000E+00
  0.00000000E+00  0.00000000E+00  0.00000000E+00
  0.00000000E+00  0.00000000E+00  0.00000000E+00
  0.00000000E+00  0.00000000E+00  0.00000000E+00
  0.00000000E+00  0.00000000E+00  0.00000000E+00
  0.00000000E+00  0.00000000E+00  0.00000000E+00
  0.00000000E+00  0.00000000E+00  0.00000000E+00
  0.00000000E+00  0.00000000E+00  0.00000000E+00
  0.00000000E+00  0.00000000E+00  0.00000000E+00
  0.00000000E+00  0.00000000E+00  0.00000000E+00
  0.00000000E+00  0.00000000E+00  0.00000000E+00
  0.00000000E+00  0.00000000E+00  0.00000000E+00
  0.00000000E+00  0.00000000E+00  0.00000000E+00
  0.00000000E+00  0.00000000E+00  0.00000000E+00
  0.00000000E+00  0.00000000E+00  0.00000000E+00
  0.00000000E+00  0.00000000E+00  0.00000000E+00
  0.00000000E+00  0.00000000E+00  0.00000000E+00
  0.00000000E+00  0.00000000E+00  0.00000000E+00
  0.00000000E+00  0.00000000E+00  0.00000000E+00
  0.00000000E+00  0.00000000E+00  0.00000000E+00
  0.00000000E+00  0.00000000E+00  0.00000000E+00
  0.00000000E+00  0.00000000E+00  0.00000000E+00
  0.00000000E+00  0.00000000E+00  0.00000000E+00
  0.00000000E+00  0.00000000E+00  0.00000000E+00
  0.00000000E+00  0.00000000E+00  0.00000000E+00
  0.00000000E+00  0.00000000E+00  0.00000000E+00
  0.00000000E+00  0.00000000E+00  0.00000000E+00
  0.00000000E+00  0.00000000E+00  0.00000000E+00
