Ni C  O  H                              
   1.00000000000000     
    29.0000000000000000    0.0000000000000000    0.0000000000000000
     0.0000000000000000   29.0000000000000000    0.0000000000000000
     0.0000000000000000    0.0000000000000000   29.0000000000000000
   Ni   C    O    H 
    68     1     2     1
Selective dynamics
Direct
  0.4778554261411871  0.5070484457092397  0.6806195719594550   T   T   T
  0.3721392803111881  0.6251272774349611  0.4534173192564629   T   T   T
  0.3527955076481911  0.5581616998522201  0.5013909094974860   T   T   T
  0.5299894026218439  0.4443005803781617  0.4555705673781603   F   F   F
  0.4154505913781605  0.4443005803781617  0.5701094086218390   F   F   F
  0.5873324771947421  0.5654454049145456  0.5171604333747809   T   T   T
  0.4131491705584797  0.5117458431720385  0.3944519396528967   T   T   T
  0.4143111023820014  0.3825593482200547  0.5035131954156825   T   T   T
  0.5387139601772591  0.5044910534867607  0.6275809687577860   T   T   T
  0.3471239794290011  0.4409512963517698  0.6090732349201687   T   T   T
  0.4814399726665166  0.6194285020900818  0.5751720094465417   T   T   T
  0.5289325505309317  0.3989806149984083  0.3899941475662048   T   T   T
  0.4111852553655839  0.6179020656056297  0.5212157280957845   T   T   T
  0.4083072495387292  0.5971825090961279  0.3860757937682955   T   T   T
  0.5918242010293657  0.4959275825443098  0.5653252618864149   T   T   T
  0.6096057286529073  0.5788185641825728  0.4396210788222378   T   T   T
  0.5439768454546047  0.3759154872606512  0.5391601977662169   T   T   T
  0.4727199969999987  0.4440168789266536  0.5128399729999984   F   F   F
  0.3538124728257492  0.4400028106851399  0.5242067137503865   T   T   T
  0.4727199969999987  0.5591231230733484  0.5128399729999984   F   F   F
  0.4727199969999987  0.5015699859999998  0.5703931100733470   F   F   F
  0.4099212889554585  0.6300914426277751  0.6046697928538687   T   T   T
  0.5302731040733519  0.5015699859999998  0.5128399729999984   F   F   F
  0.4662045397909496  0.3838368251479171  0.5733981604755169   T   T   T
  0.3025917427441580  0.4993497393989362  0.5166503718602907   T   T   T
  0.3558797775270341  0.5103877882118643  0.5732015230988544   T   T   T
  0.4757606687554338  0.5106100587043393  0.3448895470209107   T   T   T
  0.3740177432103325  0.4437993418597018  0.3879516050270699   T   T   T
  0.5340257293009549  0.4813649329012781  0.3875385924118492   T   T   T
  0.5843341881159235  0.5041453691575619  0.4481200838551895   T   T   T
  0.4154505913781605  0.4443005803781617  0.4555705673781603   F   F   F
  0.4154505913781605  0.5588394216218404  0.4555705673781603   F   F   F
  0.5299894026218439  0.5588394216218404  0.4555705673781603   F   F   F
  0.4591593089338681  0.6251676384398763  0.4525607017820903   T   T   T
  0.4653008702378714  0.6734897982879400  0.5197088375401760   T   T   T
  0.3446363670093578  0.5942591169455814  0.5701961548517346   T   T   T
  0.5898638192208173  0.4390537409097719  0.5066131860773094   T   T   T
  0.3469750131100203  0.4044286990555844  0.4546797191890201   T   T   T
  0.3453627264782677  0.5566263041957108  0.4169378194872784   T   T   T
  0.4146223209283091  0.4055023878485562  0.6393325363930255   T   T   T
  0.6004453609948780  0.4170814093061352  0.5857477519124673   T   T   T
  0.5299894026218439  0.5588394216218404  0.5701094086218390   F   F   F
  0.4609803868741144  0.4434935216905794  0.3916758838289809   T   T   T
  0.4727199969999987  0.5015699859999998  0.4552868659266522   F   F   F
  0.5646312977148608  0.6311413048167170  0.5699522278475490   T   T   T
  0.4624816388537421  0.5624951761556264  0.6305577591401876   T   T   T
  0.4154505913781605  0.5588394216218404  0.5701094086218390   F   F   F
  0.4132286366308355  0.4919481080193074  0.6329678958956189   T   T   T
  0.5569791714956064  0.5556297935508446  0.3813382981375985   T   T   T
  0.5990878762102348  0.4306927215716533  0.4218900911304251   T   T   T
  0.5299894026218439  0.4443005803781617  0.5701094086218390   F   F   F
  0.3770985754967203  0.5622119907295431  0.6384374768264094   T   T   T
  0.4825160451252444  0.3349540666885473  0.5113137399726300   T   T   T
  0.6016767394676213  0.5653081556970381  0.6008943429732211   T   T   T
  0.3792424102811992  0.3744662442623714  0.5729904697105855   T   T   T
  0.4793049284575218  0.5664657513383640  0.3989151642370573   T   T   T
  0.5939059836227849  0.6422387524827629  0.4892340791954246   T   T   T
  0.5384137960123782  0.6287850966174343  0.4244174026569853   T   T   T
  0.5589410324181536  0.3711033981565689  0.4622143530346989   T   T   T
  0.4151668899266525  0.5015699859999998  0.5128399729999984   F   F   F
  0.5206886515253333  0.6204259558216779  0.5048260389625728   T   T   T
  0.5350413640835525  0.5915660964977082  0.6403153860290646   T   T   T
  0.4792527407791284  0.3856676199374818  0.4535259398990594   T   T   T
  0.4122655761937126  0.3768195338969221  0.4147935990100415   T   T   T
  0.5327798909947289  0.3852731073781941  0.6214805952358138   T   T   T
  0.4805607439688427  0.4462489879589566  0.6307571284910652   T   T   T
  0.6390236049819420  0.5060048866699056  0.5020245957770580   T   T   T
  0.3521992091327844  0.4890622375312941  0.4553427424936159   T   T   T
  0.6200152567425457  0.6648850325619808  0.4345443965138164   T   T   T
  0.6114955713401056  0.6979811163197751  0.4098202294586503   T   T   T
  0.6556818692906172  0.6321592904505249  0.4183543913075317   T   T   T
  0.6620960251877677  0.6397773141918796  0.3858974732292467   T   T   T
 
  0.00000000E+00  0.00000000E+00  0.00000000E+00
  0.00000000E+00  0.00000000E+00  0.00000000E+00
  0.00000000E+00  0.00000000E+00  0.00000000E+00
  0.00000000E+00  0.00000000E+00  0.00000000E+00
  0.00000000E+00  0.00000000E+00  0.00000000E+00
  0.00000000E+00  0.00000000E+00  0.00000000E+00
  0.00000000E+00  0.00000000E+00  0.00000000E+00
  0.00000000E+00  0.00000000E+00  0.00000000E+00
  0.00000000E+00  0.00000000E+00  0.00000000E+00
  0.00000000E+00  0.00000000E+00  0.00000000E+00
  0.00000000E+00  0.00000000E+00  0.00000000E+00
  0.00000000E+00  0.00000000E+00  0.00000000E+00
  0.00000000E+00  0.00000000E+00  0.00000000E+00
  0.00000000E+00  0.00000000E+00  0.00000000E+00
  0.00000000E+00  0.00000000E+00  0.00000000E+00
  0.00000000E+00  0.00000000E+00  0.00000000E+00
  0.00000000E+00  0.00000000E+00  0.00000000E+00
  0.00000000E+00  0.00000000E+00  0.00000000E+00
  0.00000000E+00  0.00000000E+00  0.00000000E+00
  0.00000000E+00  0.00000000E+00  0.00000000E+00
  0.00000000E+00  0.00000000E+00  0.00000000E+00
  0.00000000E+00  0.00000000E+00  0.00000000E+00
  0.00000000E+00  0.00000000E+00  0.00000000E+00
  0.00000000E+00  0.00000000E+00  0.00000000E+00
  0.00000000E+00  0.00000000E+00  0.00000000E+00
  0.00000000E+00  0.00000000E+00  0.00000000E+00
  0.00000000E+00  0.00000000E+00  0.00000000E+00
  0.00000000E+00  0.00000000E+00  0.00000000E+00
  0.00000000E+00  0.00000000E+00  0.00000000E+00
  0.00000000E+00  0.00000000E+00  0.00000000E+00
  0.00000000E+00  0.00000000E+00  0.00000000E+00
  0.00000000E+00  0.00000000E+00  0.00000000E+00
  0.00000000E+00  0.00000000E+00  0.00000000E+00
  0.00000000E+00  0.00000000E+00  0.00000000E+00
  0.00000000E+00  0.00000000E+00  0.00000000E+00
  0.00000000E+00  0.00000000E+00  0.00000000E+00
  0.00000000E+00  0.00000000E+00  0.00000000E+00
  0.00000000E+00  0.00000000E+00  0.00000000E+00
  0.00000000E+00  0.00000000E+00  0.00000000E+00
  0.00000000E+00  0.00000000E+00  0.00000000E+00
  0.00000000E+00  0.00000000E+00  0.00000000E+00
  0.00000000E+00  0.00000000E+00  0.00000000E+00
  0.00000000E+00  0.00000000E+00  0.00000000E+00
  0.00000000E+00  0.00000000E+00  0.00000000E+00
  0.00000000E+00  0.00000000E+00  0.00000000E+00
  0.00000000E+00  0.00000000E+00  0.00000000E+00
  0.00000000E+00  0.00000000E+00  0.00000000E+00
  0.00000000E+00  0.00000000E+00  0.00000000E+00
  0.00000000E+00  0.00000000E+00  0.00000000E+00
  0.00000000E+00  0.00000000E+00  0.00000000E+00
  0.00000000E+00  0.00000000E+00  0.00000000E+00
  0.00000000E+00  0.00000000E+00  0.00000000E+00
  0.00000000E+00  0.00000000E+00  0.00000000E+00
  0.00000000E+00  0.00000000E+00  0.00000000E+00
  0.00000000E+00  0.00000000E+00  0.00000000E+00
  0.00000000E+00  0.00000000E+00  0.00000000E+00
  0.00000000E+00  0.00000000E+00  0.00000000E+00
  0.00000000E+00  0.00000000E+00  0.00000000E+00
  0.00000000E+00  0.00000000E+00  0.00000000E+00
  0.00000000E+00  0.00000000E+00  0.00000000E+00
  0.00000000E+00  0.00000000E+00  0.00000000E+00
  0.00000000E+00  0.00000000E+00  0.00000000E+00
  0.00000000E+00  0.00000000E+00  0.00000000E+00
  0.00000000E+00  0.00000000E+00  0.00000000E+00
  0.00000000E+00  0.00000000E+00  0.00000000E+00
  0.00000000E+00  0.00000000E+00  0.00000000E+00
  0.00000000E+00  0.00000000E+00  0.00000000E+00
  0.00000000E+00  0.00000000E+00  0.00000000E+00
  0.00000000E+00  0.00000000E+00  0.00000000E+00
  0.00000000E+00  0.00000000E+00  0.00000000E+00
  0.00000000E+00  0.00000000E+00  0.00000000E+00
  0.00000000E+00  0.00000000E+00  0.00000000E+00
