Ni C  O  H                              
   1.00000000000000     
    29.0000000000000000    0.0000000000000000    0.0000000000000000
     0.0000000000000000   29.0000000000000000    0.0000000000000000
     0.0000000000000000    0.0000000000000000   29.0000000000000000
   Ni   C    O    H 
    68     1     2     1
Selective dynamics
Direct
  0.4768913567083430  0.5060690271586026  0.6821615254077358   T   T   T
  0.3465842398592045  0.5971357616761068  0.4530754218023674   T   T   T
  0.3542714010545751  0.5608244310638000  0.5227022062660112   T   T   T
  0.5299894026218439  0.4443005803781617  0.4555705673781603   F   F   F
  0.4154505913781605  0.4443005803781617  0.5701094086218390   F   F   F
  0.5910033804123813  0.5618626312226453  0.5030483306881592   T   T   T
  0.4131119422232814  0.4896717109138535  0.3931617334100466   T   T   T
  0.4132626044765217  0.3817170773141854  0.5253246326531880   T   T   T
  0.5327747699612644  0.4947153316421549  0.6289017550494620   T   T   T
  0.3775512441994806  0.4461773726926666  0.6394945753546750   T   T   T
  0.4614323636494291  0.6216822775774276  0.5668301010202939   T   T   T
  0.5315186632152873  0.3743529722095928  0.4195897186788216   T   T   T
  0.4138258330024129  0.6220360115464061  0.4993786017550406   T   T   T
  0.4129268693108088  0.6264077317573040  0.4143565252033454   T   T   T
  0.5925432425015416  0.5130757133138530  0.5705595263067593   T   T   T
  0.5990818790910311  0.5606985906757629  0.4178489701482420   T   T   T
  0.5675742955547776  0.3757417811733603  0.5743607647842310   T   T   T
  0.4727199969999987  0.4440168789266536  0.5128399729999984   F   F   F
  0.3552051786897650  0.4419571710066705  0.5037862413113245   T   T   T
  0.4727199969999987  0.5591231230733484  0.5128399729999984   F   F   F
  0.4727199969999987  0.5015699859999998  0.5703931100733470   F   F   F
  0.4136979456153895  0.6071497331829718  0.6365617084258730   T   T   T
  0.5302731040733519  0.5015699859999998  0.5128399729999984   F   F   F
  0.4825851672067643  0.3839967662309647  0.5747309638284079   T   T   T
  0.3040995135655322  0.5003704319758739  0.5146207703455516   T   T   T
  0.3559703595197377  0.4936666111299530  0.5733840619759647   T   T   T
  0.4740481850399263  0.4987522836355183  0.3433349075589192   T   T   T
  0.3462774186084658  0.4416962707059824  0.4182244343966204   T   T   T
  0.5671914303581786  0.4408224609173388  0.3865188439082701   T   T   T
  0.5911746542368448  0.4909365248485216  0.4533135504759258   T   T   T
  0.4154505913781605  0.4443005803781617  0.4555705673781603   F   F   F
  0.4154505913781605  0.5588394216218404  0.4555705673781603   F   F   F
  0.5299894026218439  0.5588394216218404  0.4555705673781603   F   F   F
  0.4822730490311287  0.6188057651522527  0.4507455209286846   T   T   T
  0.4752053381856598  0.6721816698006435  0.5072632845139964   T   T   T
  0.3749553919643063  0.6273028515360153  0.5668887192539458   T   T   T
  0.5923586510229910  0.4425480828907737  0.5239371628514959   T   T   T
  0.3771316248277685  0.3752866712311729  0.4555932815382135   T   T   T
  0.3761259598739031  0.5587087718527712  0.3869270593311072   T   T   T
  0.4132742077459071  0.3778245898455594  0.6115962138699800   T   T   T
  0.5983026508563327  0.4440322414876050  0.6090162647998980   T   T   T
  0.5299894026218439  0.5588394216218404  0.5701094086218390   F   F   F
  0.4825328692036379  0.4403619207882912  0.3950913212773841   T   T   T
  0.4727199969999987  0.5015699859999998  0.4552868659266522   F   F   F
  0.5963151214219735  0.6002239915047340  0.5726962470326953   T   T   T
  0.4795146252046223  0.5633901664607990  0.6280364677639625   T   T   T
  0.4154505913781605  0.5588394216218404  0.5701094086218390   F   F   F
  0.4130463691238191  0.5165643952184809  0.6348701808574191   T   T   T
  0.5319679383209888  0.5108303072929488  0.3950548831978367   T   T   T
  0.5989017470729436  0.4060997708412870  0.4543104710992552   T   T   T
  0.5299894026218439  0.4443005803781617  0.5701094086218390   F   F   F
  0.3474373897277161  0.5636532541169785  0.6096686984577957   T   T   T
  0.4745628004257512  0.3327542004254909  0.5152979714147676   T   T   T
  0.5696260152701953  0.5631221678051048  0.6454413066787765   T   T   T
  0.3460906998251829  0.4078854642955534  0.5741695686629456   T   T   T
  0.4613859789784840  0.5590007231489054  0.3929579479013299   T   T   T
  0.5666575448871143  0.6281513564909886  0.4521177846032813   T   T   T
  0.5313537254742329  0.5945843474315495  0.3855370976499444   T   T   T
  0.5323806358336682  0.3843865562347304  0.5041956995131898   T   T   T
  0.4151668899266525  0.5015699859999998  0.5128399729999984   F   F   F
  0.5318571249291040  0.6195939458945290  0.5222151812246736   T   T   T
  0.5267508613330278  0.6313197597126674  0.6087426310808155   T   T   T
  0.4617825489472267  0.3820609760043254  0.4549547707043544   T   T   T
  0.4129304901471542  0.4042868912552535  0.3878156809573099   T   T   T
  0.5307644582768560  0.4096640253145196  0.6406177239411193   T   T   T
  0.4617473808759129  0.4463391964060577  0.6325858542722855   T   T   T
  0.6428421971069440  0.5026723526799302  0.5106942348646299   T   T   T
  0.3541512650565153  0.5113693161279400  0.4540941181766556   T   T   T
  0.4820797032319462  0.6715747022103145  0.6327660894982117   T   T   T
  0.4465453423089585  0.6623383843247126  0.6576014749862864   T   T   T
  0.4909376283884512  0.7174399363015453  0.6263152410057202   T   T   T
  0.4662749192606626  0.7348848212586319  0.6419478169883064   T   T   T
 
  0.00000000E+00  0.00000000E+00  0.00000000E+00
  0.00000000E+00  0.00000000E+00  0.00000000E+00
  0.00000000E+00  0.00000000E+00  0.00000000E+00
  0.00000000E+00  0.00000000E+00  0.00000000E+00
  0.00000000E+00  0.00000000E+00  0.00000000E+00
  0.00000000E+00  0.00000000E+00  0.00000000E+00
  0.00000000E+00  0.00000000E+00  0.00000000E+00
  0.00000000E+00  0.00000000E+00  0.00000000E+00
  0.00000000E+00  0.00000000E+00  0.00000000E+00
  0.00000000E+00  0.00000000E+00  0.00000000E+00
  0.00000000E+00  0.00000000E+00  0.00000000E+00
  0.00000000E+00  0.00000000E+00  0.00000000E+00
  0.00000000E+00  0.00000000E+00  0.00000000E+00
  0.00000000E+00  0.00000000E+00  0.00000000E+00
  0.00000000E+00  0.00000000E+00  0.00000000E+00
  0.00000000E+00  0.00000000E+00  0.00000000E+00
  0.00000000E+00  0.00000000E+00  0.00000000E+00
  0.00000000E+00  0.00000000E+00  0.00000000E+00
  0.00000000E+00  0.00000000E+00  0.00000000E+00
  0.00000000E+00  0.00000000E+00  0.00000000E+00
  0.00000000E+00  0.00000000E+00  0.00000000E+00
  0.00000000E+00  0.00000000E+00  0.00000000E+00
  0.00000000E+00  0.00000000E+00  0.00000000E+00
  0.00000000E+00  0.00000000E+00  0.00000000E+00
  0.00000000E+00  0.00000000E+00  0.00000000E+00
  0.00000000E+00  0.00000000E+00  0.00000000E+00
  0.00000000E+00  0.00000000E+00  0.00000000E+00
  0.00000000E+00  0.00000000E+00  0.00000000E+00
  0.00000000E+00  0.00000000E+00  0.00000000E+00
  0.00000000E+00  0.00000000E+00  0.00000000E+00
  0.00000000E+00  0.00000000E+00  0.00000000E+00
  0.00000000E+00  0.00000000E+00  0.00000000E+00
  0.00000000E+00  0.00000000E+00  0.00000000E+00
  0.00000000E+00  0.00000000E+00  0.00000000E+00
  0.00000000E+00  0.00000000E+00  0.00000000E+00
  0.00000000E+00  0.00000000E+00  0.00000000E+00
  0.00000000E+00  0.00000000E+00  0.00000000E+00
  0.00000000E+00  0.00000000E+00  0.00000000E+00
  0.00000000E+00  0.00000000E+00  0.00000000E+00
  0.00000000E+00  0.00000000E+00  0.00000000E+00
  0.00000000E+00  0.00000000E+00  0.00000000E+00
  0.00000000E+00  0.00000000E+00  0.00000000E+00
  0.00000000E+00  0.00000000E+00  0.00000000E+00
  0.00000000E+00  0.00000000E+00  0.00000000E+00
  0.00000000E+00  0.00000000E+00  0.00000000E+00
  0.00000000E+00  0.00000000E+00  0.00000000E+00
  0.00000000E+00  0.00000000E+00  0.00000000E+00
  0.00000000E+00  0.00000000E+00  0.00000000E+00
  0.00000000E+00  0.00000000E+00  0.00000000E+00
  0.00000000E+00  0.00000000E+00  0.00000000E+00
  0.00000000E+00  0.00000000E+00  0.00000000E+00
  0.00000000E+00  0.00000000E+00  0.00000000E+00
  0.00000000E+00  0.00000000E+00  0.00000000E+00
  0.00000000E+00  0.00000000E+00  0.00000000E+00
  0.00000000E+00  0.00000000E+00  0.00000000E+00
  0.00000000E+00  0.00000000E+00  0.00000000E+00
  0.00000000E+00  0.00000000E+00  0.00000000E+00
  0.00000000E+00  0.00000000E+00  0.00000000E+00
  0.00000000E+00  0.00000000E+00  0.00000000E+00
  0.00000000E+00  0.00000000E+00  0.00000000E+00
  0.00000000E+00  0.00000000E+00  0.00000000E+00
  0.00000000E+00  0.00000000E+00  0.00000000E+00
  0.00000000E+00  0.00000000E+00  0.00000000E+00
  0.00000000E+00  0.00000000E+00  0.00000000E+00
  0.00000000E+00  0.00000000E+00  0.00000000E+00
  0.00000000E+00  0.00000000E+00  0.00000000E+00
  0.00000000E+00  0.00000000E+00  0.00000000E+00
  0.00000000E+00  0.00000000E+00  0.00000000E+00
  0.00000000E+00  0.00000000E+00  0.00000000E+00
  0.00000000E+00  0.00000000E+00  0.00000000E+00
  0.00000000E+00  0.00000000E+00  0.00000000E+00
  0.00000000E+00  0.00000000E+00  0.00000000E+00
