Ni C  O  H                              
   1.00000000000000     
    29.0000000000000000    0.0000000000000000    0.0000000000000000
     0.0000000000000000   29.0000000000000000    0.0000000000000000
     0.0000000000000000    0.0000000000000000   29.0000000000000000
   Ni   C    O    H 
    68     1     2     1
Selective dynamics
Direct
  0.4951612489777599  0.5049212120333625  0.6873829145196760   T   T   T
  0.3680387030775873  0.6191897347168704  0.4555356548033578   T   T   T
  0.3590463080292707  0.5644883180312196  0.5131803045063409   T   T   T
  0.5299894026218439  0.4443005803781617  0.4555705673781603   F   F   F
  0.4154505913781605  0.4443005803781617  0.5701094086218390   F   F   F
  0.5850653833865140  0.5689029035690724  0.5162913267219165   T   T   T
  0.4145501793161523  0.4936606096388423  0.3949038667860402   T   T   T
  0.4103385444701279  0.3852079310123139  0.5212458093625808   T   T   T
  0.5396502797513620  0.5052681148423566  0.6252287361046373   T   T   T
  0.3612475040742393  0.4574741054434422  0.6404648168335038   T   T   T
  0.4764122585316625  0.6144742246775244  0.5793122134791209   T   T   T
  0.5361430795239882  0.3764793528023857  0.4202493076522424   T   T   T
  0.4001561736930876  0.6304095120908264  0.5411579763976108   T   T   T
  0.4293458504714661  0.6301002696316508  0.4022095963306487   T   T   T
  0.5932526294463035  0.4937093608595279  0.5644958740841621   T   T   T
  0.5538652837691923  0.5767234643925322  0.3820287666891410   T   T   T
  0.6003727543278718  0.4138371771189434  0.5476026243354977   T   T   T
  0.4727199969999987  0.4440168789266536  0.5128399729999984   F   F   F
  0.3526779206117700  0.4446432625720657  0.5008810891286564   T   T   T
  0.4727199969999987  0.5591231230733484  0.5128399729999984   F   F   F
  0.4727199969999987  0.5015699859999998  0.5703931100733470   F   F   F
  0.4086990236113207  0.6155773241140065  0.6239531537953934   T   T   T
  0.5302731040733519  0.5015699859999998  0.5128399729999984   F   F   F
  0.4720735275337253  0.3880990169594526  0.5747921731379368   T   T   T
  0.3059073954076479  0.5061375229892700  0.5159751709746175   T   T   T
  0.3582649910824802  0.5006149876237574  0.5724980027883640   T   T   T
  0.4760668123328072  0.5052529006640041  0.3464795912247627   T   T   T
  0.3474010960331583  0.4443165954903844  0.4155558828160038   T   T   T
  0.5907069310866565  0.4464427196487853  0.4082757942047547   T   T   T
  0.6014978473443935  0.5311236490414459  0.4405784637384751   T   T   T
  0.4154505913781605  0.4443005803781617  0.4555705673781603   F   F   F
  0.4154505913781605  0.5588394216218404  0.4555705673781603   F   F   F
  0.5299894026218439  0.5588394216218404  0.4555705673781603   F   F   F
  0.4472171745749264  0.6284134169344608  0.4785431930195789   T   T   T
  0.4744915491262702  0.6765741576313536  0.5348816276718382   T   T   T
  0.3418436323048216  0.5825010568402937  0.5879133023434624   T   T   T
  0.6001177425460177  0.4683718297997892  0.4875847523920687   T   T   T
  0.3764227238031426  0.3761159824179824  0.4514161218379134   T   T   T
  0.3841030992902307  0.5660881945844858  0.3855907520685893   T   T   T
  0.4198246072783843  0.3970007161389169  0.6344487236184023   T   T   T
  0.5845135975095435  0.4376563718854600  0.6259848057784183   T   T   T
  0.5299894026218439  0.5588394216218404  0.5701094086218390   F   F   F
  0.4828508241004306  0.4411844190952907  0.3941655421870588   T   T   T
  0.4727199969999987  0.5015699859999998  0.4552868659266522   F   F   F
  0.5583068402785283  0.6315629116722404  0.5748377459873031   T   T   T
  0.4654052885341066  0.5543634325613623  0.6333350558596685   T   T   T
  0.4154505913781605  0.5588394216218404  0.5701094086218390   F   F   F
  0.4387029079389050  0.4780283675098937  0.6387079937256224   T   T   T
  0.5350189024994930  0.5022120789139729  0.3991192580237559   T   T   T
  0.5983607030931394  0.3918363829367296  0.4685672116365779   T   T   T
  0.5299894026218439  0.4443005803781617  0.5701094086218390   F   F   F
  0.3856342505785086  0.5374298100271826  0.6418762690765190   T   T   T
  0.4724548899893850  0.3355671030931348  0.5157947440049131   T   T   T
  0.6033615287825852  0.5640146010393702  0.5974043120123360   T   T   T
  0.3435856375368843  0.4167073013288637  0.5731376523925419   T   T   T
  0.4708947226389035  0.5625466124549123  0.3978934400464718   T   T   T
  0.5858903128219239  0.6139813987448278  0.4491285176189850   T   T   T
  0.5082398216030907  0.6308547533506229  0.4252752115411043   T   T   T
  0.5315903874101311  0.3854203994105451  0.5107994485616261   T   T   T
  0.4151668899266525  0.5015699859999998  0.5128399729999984   F   F   F
  0.5238810725662337  0.6223254284549462  0.5049645728286222   T   T   T
  0.5362858750674597  0.5868546650539298  0.6428217599357353   T   T   T
  0.4641636763551407  0.3832982722677415  0.4532641893307116   T   T   T
  0.4133710222175438  0.4069552849471112  0.3857589602572904   T   T   T
  0.5465564904493667  0.3709259213599365  0.5941230356925058   T   T   T
  0.5008075024226368  0.4297282495188907  0.6412190286463159   T   T   T
  0.6473820903790654  0.5252000312889055  0.5165304993493921   T   T   T
  0.3520236292626129  0.5148353303603240  0.4500475326292693   T   T   T
  0.3353713721019614  0.4007044197116494  0.6570897083908294   T   T   T
  0.3634651896094584  0.3670675528936782  0.6635000474263266   T   T   T
  0.2909459203899143  0.3946720238840494  0.6708598085748031   T   T   T
  0.2884825841228372  0.3636075757320811  0.6845376972954373   T   T   T
 
  0.00000000E+00  0.00000000E+00  0.00000000E+00
  0.00000000E+00  0.00000000E+00  0.00000000E+00
  0.00000000E+00  0.00000000E+00  0.00000000E+00
  0.00000000E+00  0.00000000E+00  0.00000000E+00
  0.00000000E+00  0.00000000E+00  0.00000000E+00
  0.00000000E+00  0.00000000E+00  0.00000000E+00
  0.00000000E+00  0.00000000E+00  0.00000000E+00
  0.00000000E+00  0.00000000E+00  0.00000000E+00
  0.00000000E+00  0.00000000E+00  0.00000000E+00
  0.00000000E+00  0.00000000E+00  0.00000000E+00
  0.00000000E+00  0.00000000E+00  0.00000000E+00
  0.00000000E+00  0.00000000E+00  0.00000000E+00
  0.00000000E+00  0.00000000E+00  0.00000000E+00
  0.00000000E+00  0.00000000E+00  0.00000000E+00
  0.00000000E+00  0.00000000E+00  0.00000000E+00
  0.00000000E+00  0.00000000E+00  0.00000000E+00
  0.00000000E+00  0.00000000E+00  0.00000000E+00
  0.00000000E+00  0.00000000E+00  0.00000000E+00
  0.00000000E+00  0.00000000E+00  0.00000000E+00
  0.00000000E+00  0.00000000E+00  0.00000000E+00
  0.00000000E+00  0.00000000E+00  0.00000000E+00
  0.00000000E+00  0.00000000E+00  0.00000000E+00
  0.00000000E+00  0.00000000E+00  0.00000000E+00
  0.00000000E+00  0.00000000E+00  0.00000000E+00
  0.00000000E+00  0.00000000E+00  0.00000000E+00
  0.00000000E+00  0.00000000E+00  0.00000000E+00
  0.00000000E+00  0.00000000E+00  0.00000000E+00
  0.00000000E+00  0.00000000E+00  0.00000000E+00
  0.00000000E+00  0.00000000E+00  0.00000000E+00
  0.00000000E+00  0.00000000E+00  0.00000000E+00
  0.00000000E+00  0.00000000E+00  0.00000000E+00
  0.00000000E+00  0.00000000E+00  0.00000000E+00
  0.00000000E+00  0.00000000E+00  0.00000000E+00
  0.00000000E+00  0.00000000E+00  0.00000000E+00
  0.00000000E+00  0.00000000E+00  0.00000000E+00
  0.00000000E+00  0.00000000E+00  0.00000000E+00
  0.00000000E+00  0.00000000E+00  0.00000000E+00
  0.00000000E+00  0.00000000E+00  0.00000000E+00
  0.00000000E+00  0.00000000E+00  0.00000000E+00
  0.00000000E+00  0.00000000E+00  0.00000000E+00
  0.00000000E+00  0.00000000E+00  0.00000000E+00
  0.00000000E+00  0.00000000E+00  0.00000000E+00
  0.00000000E+00  0.00000000E+00  0.00000000E+00
  0.00000000E+00  0.00000000E+00  0.00000000E+00
  0.00000000E+00  0.00000000E+00  0.00000000E+00
  0.00000000E+00  0.00000000E+00  0.00000000E+00
  0.00000000E+00  0.00000000E+00  0.00000000E+00
  0.00000000E+00  0.00000000E+00  0.00000000E+00
  0.00000000E+00  0.00000000E+00  0.00000000E+00
  0.00000000E+00  0.00000000E+00  0.00000000E+00
  0.00000000E+00  0.00000000E+00  0.00000000E+00
  0.00000000E+00  0.00000000E+00  0.00000000E+00
  0.00000000E+00  0.00000000E+00  0.00000000E+00
  0.00000000E+00  0.00000000E+00  0.00000000E+00
  0.00000000E+00  0.00000000E+00  0.00000000E+00
  0.00000000E+00  0.00000000E+00  0.00000000E+00
  0.00000000E+00  0.00000000E+00  0.00000000E+00
  0.00000000E+00  0.00000000E+00  0.00000000E+00
  0.00000000E+00  0.00000000E+00  0.00000000E+00
  0.00000000E+00  0.00000000E+00  0.00000000E+00
  0.00000000E+00  0.00000000E+00  0.00000000E+00
  0.00000000E+00  0.00000000E+00  0.00000000E+00
  0.00000000E+00  0.00000000E+00  0.00000000E+00
  0.00000000E+00  0.00000000E+00  0.00000000E+00
  0.00000000E+00  0.00000000E+00  0.00000000E+00
  0.00000000E+00  0.00000000E+00  0.00000000E+00
  0.00000000E+00  0.00000000E+00  0.00000000E+00
  0.00000000E+00  0.00000000E+00  0.00000000E+00
  0.00000000E+00  0.00000000E+00  0.00000000E+00
  0.00000000E+00  0.00000000E+00  0.00000000E+00
  0.00000000E+00  0.00000000E+00  0.00000000E+00
  0.00000000E+00  0.00000000E+00  0.00000000E+00
