Bi H                                    
   1.00000000000000     
    29.0000000000000000    0.0000000000000000    0.0000000000000000
     0.0000000000000000   29.0000000000000000    0.0000000000000000
     0.0000000000000000    0.0000000000000000   29.0000000000000000
   Bi   H 
    68     1
Selective dynamics
Direct
  0.5024040420280933  0.5030258678176435  0.7117619367708645   T   T   T
  0.3503522253445102  0.6551986806320333  0.4072849142168335   T   T   T
  0.3445929738839015  0.5810531999491125  0.4849548154064012   T   T   T
  0.5811467705906068  0.4246732054093982  0.4064932224093951   F   F   F
  0.4244332074093933  0.4246732054093982  0.5632067865906052   F   F   F
  0.6584853455733670  0.5800228439666183  0.4849006881223749   T   T   T
  0.4253860474081552  0.5026742972604933  0.3277534818845187   T   T   T
  0.4259614048079082  0.3459958240020079  0.4849849660870540   T   T   T
  0.5800072601945748  0.5026852607065326  0.6419091799911006   T   T   T
  0.3501026720020994  0.4261431288299072  0.6364068211699190   T   T   T
  0.5025876412688391  0.6601217429410369  0.5613342378869256   T   T   T
  0.5795293100375484  0.3502387801591751  0.3330430282593804   T   T   T
  0.4245387968613940  0.6603173833275523  0.4849025924691640   T   T   T
  0.4261606602153465  0.6551252228955511  0.3329609547247470   T   T   T
  0.6608490398061005  0.5018408330472806  0.5621309865947933   T   T   T
  0.6543478600280344  0.5795189471919809  0.3327643527617170   T   T   T
  0.6544836237234986  0.3508246977987218  0.5625307465945376   T   T   T
  0.5027899740000024  0.4274945535347072  0.4848499889999971   F   F   F
  0.3453668141041731  0.4258464920870997  0.4850252132335856   T   T   T
  0.5027899740000024  0.5785654504652982  0.4848499889999971   F   F   F
  0.5027899740000024  0.5030300020000027  0.5603854384652962   F   F   F
  0.4263388543773436  0.6550082874158893  0.6367366057948081   T   T   T
  0.5783254224652978  0.5030300020000027  0.4848499889999971   F   F   F
  0.5029288006988686  0.3461957594548906  0.5618309884260632   T   T   T
  0.2754761103121003  0.5031695621278159  0.4848697179054834   T   T   T
  0.3452841038332677  0.5033794239256149  0.5617129714461063   T   T   T
  0.5024635198612027  0.5029802537646191  0.2577343733757999   T   T   T
  0.3500634399124876  0.4260806025207997  0.3333918427557310   T   T   T
  0.6544219706790887  0.4257036403228898  0.3321622004325201   T   T   T
  0.6608918511881794  0.5021033198243139  0.4075994875298209   T   T   T
  0.4244332074093933  0.4246732054093982  0.4064932224093951   F   F   F
  0.4244332074093933  0.5813867985906072  0.4064932224093951   F   F   F
  0.5811467705906068  0.5813867985906072  0.4064932224093951   F   F   F
  0.5024844397742119  0.6599554234747775  0.4082758580113403   T   T   T
  0.5013204349323043  0.7302847003490771  0.4847132483485185   T   T   T
  0.3502718366376252  0.6552445565306583  0.5623855913704467   T   T   T
  0.6655972525270309  0.4257162213239953  0.4846374985573111   T   T   T
  0.3508529424212448  0.3511219117790607  0.4082339955660790   T   T   T
  0.3507501576984834  0.5799136044620480  0.3331736582593469   T   T   T
  0.4260114917407805  0.3520113739835928  0.6373325828898981   T   T   T
  0.6544618854796598  0.4259965939854403  0.6377092673649204   T   T   T
  0.5811467705906068  0.5813867985906072  0.5632067865906052   F   F   F
  0.5028682757252414  0.4261852473710043  0.3274864711622557   T   T   T
  0.5027899740000024  0.5030300020000027  0.4093145705347041   F   F   F
  0.6548166518684734  0.6548371257098367  0.5617172979597992   T   T   T
  0.5027885609505484  0.5799404290122888  0.6414414929307232   T   T   T
  0.4244332074093933  0.5813867985906072  0.5632067865906052   F   F   F
  0.4254224950935566  0.5029730940276369  0.6417718781368693   T   T   T
  0.5800504863092074  0.5027368382425893  0.3276823590335581   T   T   T
  0.6538678758237159  0.3503306609381774  0.4068528397233531   T   T   T
  0.5811467705906068  0.4246732054093982  0.5632067865906052   F   F   F
  0.3506435156334956  0.5799472286499893  0.6364822818339793   T   T   T
  0.5038768588223117  0.2764674535134890  0.4850131152763894   T   T   T
  0.6542648773437904  0.5793430900139112  0.6369055701275929   T   T   T
  0.3506900718986265  0.3512582099621606  0.5618380747757299   T   T   T
  0.5026223551221024  0.5798576601631364  0.3280548690848843   T   T   T
  0.6546474992647774  0.6548817603544795  0.4080001883408962   T   T   T
  0.5793560634953590  0.6551588735628243  0.3332034366034021   T   T   T
  0.5808140818105855  0.3463426922806725  0.4849063717472020   T   T   T
  0.4272545555347023  0.5030300020000027  0.4848499889999971   F   F   F
  0.5796844320122480  0.6608625952667728  0.4848570514769546   T   T   T
  0.5795754291977866  0.6552721749430293  0.6362894124077022   T   T   T
  0.5029241428013647  0.3462011032917460  0.4080412811310402   T   T   T
  0.4260872065279245  0.3515966936778693  0.3328138539665352   T   T   T
  0.5797618690092891  0.3505337108669728  0.6365284776543892   T   T   T
  0.5028480193203074  0.4261735170302279  0.6421793877391544   T   T   T
  0.7309818699769206  0.5085366059188179  0.4849426494965955   T   T   T
  0.3452738023657873  0.5033195107651429  0.4080629958204045   T   T   T
  0.7253089700175777  0.3998670487194241  0.4812338815290587   T   T   T
 
  0.00000000E+00  0.00000000E+00  0.00000000E+00
  0.00000000E+00  0.00000000E+00  0.00000000E+00
  0.00000000E+00  0.00000000E+00  0.00000000E+00
  0.00000000E+00  0.00000000E+00  0.00000000E+00
  0.00000000E+00  0.00000000E+00  0.00000000E+00
  0.00000000E+00  0.00000000E+00  0.00000000E+00
  0.00000000E+00  0.00000000E+00  0.00000000E+00
  0.00000000E+00  0.00000000E+00  0.00000000E+00
  0.00000000E+00  0.00000000E+00  0.00000000E+00
  0.00000000E+00  0.00000000E+00  0.00000000E+00
  0.00000000E+00  0.00000000E+00  0.00000000E+00
  0.00000000E+00  0.00000000E+00  0.00000000E+00
  0.00000000E+00  0.00000000E+00  0.00000000E+00
  0.00000000E+00  0.00000000E+00  0.00000000E+00
  0.00000000E+00  0.00000000E+00  0.00000000E+00
  0.00000000E+00  0.00000000E+00  0.00000000E+00
  0.00000000E+00  0.00000000E+00  0.00000000E+00
  0.00000000E+00  0.00000000E+00  0.00000000E+00
  0.00000000E+00  0.00000000E+00  0.00000000E+00
  0.00000000E+00  0.00000000E+00  0.00000000E+00
  0.00000000E+00  0.00000000E+00  0.00000000E+00
  0.00000000E+00  0.00000000E+00  0.00000000E+00
  0.00000000E+00  0.00000000E+00  0.00000000E+00
  0.00000000E+00  0.00000000E+00  0.00000000E+00
  0.00000000E+00  0.00000000E+00  0.00000000E+00
  0.00000000E+00  0.00000000E+00  0.00000000E+00
  0.00000000E+00  0.00000000E+00  0.00000000E+00
  0.00000000E+00  0.00000000E+00  0.00000000E+00
  0.00000000E+00  0.00000000E+00  0.00000000E+00
  0.00000000E+00  0.00000000E+00  0.00000000E+00
  0.00000000E+00  0.00000000E+00  0.00000000E+00
  0.00000000E+00  0.00000000E+00  0.00000000E+00
  0.00000000E+00  0.00000000E+00  0.00000000E+00
  0.00000000E+00  0.00000000E+00  0.00000000E+00
  0.00000000E+00  0.00000000E+00  0.00000000E+00
  0.00000000E+00  0.00000000E+00  0.00000000E+00
  0.00000000E+00  0.00000000E+00  0.00000000E+00
  0.00000000E+00  0.00000000E+00  0.00000000E+00
  0.00000000E+00  0.00000000E+00  0.00000000E+00
  0.00000000E+00  0.00000000E+00  0.00000000E+00
  0.00000000E+00  0.00000000E+00  0.00000000E+00
  0.00000000E+00  0.00000000E+00  0.00000000E+00
  0.00000000E+00  0.00000000E+00  0.00000000E+00
  0.00000000E+00  0.00000000E+00  0.00000000E+00
  0.00000000E+00  0.00000000E+00  0.00000000E+00
  0.00000000E+00  0.00000000E+00  0.00000000E+00
  0.00000000E+00  0.00000000E+00  0.00000000E+00
  0.00000000E+00  0.00000000E+00  0.00000000E+00
  0.00000000E+00  0.00000000E+00  0.00000000E+00
  0.00000000E+00  0.00000000E+00  0.00000000E+00
  0.00000000E+00  0.00000000E+00  0.00000000E+00
  0.00000000E+00  0.00000000E+00  0.00000000E+00
  0.00000000E+00  0.00000000E+00  0.00000000E+00
  0.00000000E+00  0.00000000E+00  0.00000000E+00
  0.00000000E+00  0.00000000E+00  0.00000000E+00
  0.00000000E+00  0.00000000E+00  0.00000000E+00
  0.00000000E+00  0.00000000E+00  0.00000000E+00
  0.00000000E+00  0.00000000E+00  0.00000000E+00
  0.00000000E+00  0.00000000E+00  0.00000000E+00
  0.00000000E+00  0.00000000E+00  0.00000000E+00
  0.00000000E+00  0.00000000E+00  0.00000000E+00
  0.00000000E+00  0.00000000E+00  0.00000000E+00
  0.00000000E+00  0.00000000E+00  0.00000000E+00
  0.00000000E+00  0.00000000E+00  0.00000000E+00
  0.00000000E+00  0.00000000E+00  0.00000000E+00
  0.00000000E+00  0.00000000E+00  0.00000000E+00
  0.00000000E+00  0.00000000E+00  0.00000000E+00
  0.00000000E+00  0.00000000E+00  0.00000000E+00
  0.00000000E+00  0.00000000E+00  0.00000000E+00
