Bi H                                    
   1.00000000000000     
    29.0000000000000000    0.0000000000000000    0.0000000000000000
     0.0000000000000000   29.0000000000000000    0.0000000000000000
     0.0000000000000000    0.0000000000000000   29.0000000000000000
   Bi   H 
    68     1
Selective dynamics
Direct
  0.5019374512354083  0.5029852540818986  0.7116513590207785   T   T   T
  0.3507646394205604  0.6549075114674301  0.4077700135947549   T   T   T
  0.3446584914846754  0.5805777773228618  0.4853479769442944   T   T   T
  0.5811467705906068  0.4246732054093982  0.4064932224093951   F   F   F
  0.4244332074093933  0.4246732054093982  0.5632067865906052   F   F   F
  0.6600507277924500  0.5797924207965018  0.4846764690784522   T   T   T
  0.4257708427355779  0.5030309937405802  0.3273225302409519   T   T   T
  0.4256405949736572  0.3461083179102815  0.4852705847851134   T   T   T
  0.5797840491949776  0.5032628356912130  0.6421954732868012   T   T   T
  0.3508997749567959  0.4254715891183599  0.6370293288450692   T   T   T
  0.5019861905278525  0.6598256013120739  0.5617241357579081   T   T   T
  0.5790984126248687  0.3510505015537513  0.3329352224138720   T   T   T
  0.4252013106339274  0.6599605015586634  0.4849026525388023   T   T   T
  0.4260843503884221  0.6549372311242456  0.3327383206763824   T   T   T
  0.6604631019868760  0.5028507460816379  0.5620713361635468   T   T   T
  0.6552127686616606  0.5802652205258324  0.3330061024469516   T   T   T
  0.6554704788211894  0.3515568349184834  0.5620182320157541   T   T   T
  0.5027899740000024  0.4274945535347072  0.4848499889999971   F   F   F
  0.3448116527588599  0.4254015851310164  0.4850156898786731   T   T   T
  0.5027899740000024  0.5785654504652982  0.4848499889999971   F   F   F
  0.5027899740000024  0.5030300020000027  0.5603854384652962   F   F   F
  0.4257561050557911  0.6547332201615331  0.6381092400103893   T   T   T
  0.5783254224652978  0.5030300020000027  0.4848499889999971   F   F   F
  0.5025702541909466  0.3458054264499024  0.5619587867036325   T   T   T
  0.2745467961006468  0.5030263161979494  0.4815418272774625   T   T   T
  0.3421223034789649  0.5028687592366242  0.5614807807525261   T   T   T
  0.5035402659932753  0.5029561857851392  0.2573580965414621   T   T   T
  0.3506485742422682  0.4262425546298745  0.3331385052614407   T   T   T
  0.6550322549615051  0.4257710457219028  0.3329068802273769   T   T   T
  0.6606682022194577  0.5028642638571207  0.4068497623398774   T   T   T
  0.4244332074093933  0.4246732054093982  0.4064932224093951   F   F   F
  0.4244332074093933  0.5813867985906072  0.4064932224093951   F   F   F
  0.5811467705906068  0.5813867985906072  0.4064932224093951   F   F   F
  0.5026911179352843  0.6599578617490364  0.4076080266282907   T   T   T
  0.5025103290717587  0.7298195791684200  0.4846725185956854   T   T   T
  0.3511953258137796  0.6556090841188161  0.5621856081498688   T   T   T
  0.6601458429985667  0.4260802186067710  0.4844323280797166   T   T   T
  0.3510509640016636  0.3510780488250819  0.4076715346306808   T   T   T
  0.3507018578800790  0.5798117519883378  0.3330688677205564   T   T   T
  0.4256311291666153  0.3515853584603343  0.6376863426324109   T   T   T
  0.6548219429679296  0.4264322271520332  0.6368337400152574   T   T   T
  0.5811467705906068  0.5813867985906072  0.5632067865906052   F   F   F
  0.5027521682802553  0.4263694076786456  0.3275764888652820   T   T   T
  0.5027899740000024  0.5030300020000027  0.4093145705347041   F   F   F
  0.6548912300255463  0.6546545858887047  0.5618589374302750   T   T   T
  0.5027971674332158  0.5799731655808148  0.6420950853431966   T   T   T
  0.4244332074093933  0.5813867985906072  0.5632067865906052   F   F   F
  0.4247811562709866  0.5030542519975024  0.6415881853867188   T   T   T
  0.5804895979023379  0.5030473709991170  0.3272042137848596   T   T   T
  0.6545154377994972  0.3509740151300197  0.4079698381125865   T   T   T
  0.5811467705906068  0.4246732054093982  0.5632067865906052   F   F   F
  0.3512144968646197  0.5813465933278976  0.6377361802949505   T   T   T
  0.5031751666674479  0.2761565486936978  0.4850232537364048   T   T   T
  0.6547587016516033  0.5797656011332488  0.6368447603233770   T   T   T
  0.3510652142731386  0.3505701662787556  0.5619527926035693   T   T   T
  0.5027214740660891  0.5795617356481323  0.3276831885749623   T   T   T
  0.6542276850014157  0.6549797114259617  0.4079736965678821   T   T   T
  0.5792712022434672  0.6550777962761360  0.3328761422366497   T   T   T
  0.5800975735652830  0.3459582758083484  0.4850910598196305   T   T   T
  0.4272545555347023  0.5030300020000027  0.4848499889999971   F   F   F
  0.5796926998396003  0.6603047655009878  0.4851399868276400   T   T   T
  0.5792868787181688  0.6549855425199798  0.6366310255990451   T   T   T
  0.5028155235806681  0.3461845587682374  0.4079661831587510   T   T   T
  0.4264120770111690  0.3512399449535309  0.3327353439769354   T   T   T
  0.5796694511478788  0.3507123068685238  0.6360821030039199   T   T   T
  0.5026967417858513  0.4262207802370008  0.6418988615076971   T   T   T
  0.7298899122598318  0.5029764394012934  0.4844776859216374   T   T   T
  0.3459973022820957  0.5030706049661829  0.4076185013533424   T   T   T
  0.2933414149116907  0.5134425259569457  0.6052300359428467   T   T   T
 
  0.00000000E+00  0.00000000E+00  0.00000000E+00
  0.00000000E+00  0.00000000E+00  0.00000000E+00
  0.00000000E+00  0.00000000E+00  0.00000000E+00
  0.00000000E+00  0.00000000E+00  0.00000000E+00
  0.00000000E+00  0.00000000E+00  0.00000000E+00
  0.00000000E+00  0.00000000E+00  0.00000000E+00
  0.00000000E+00  0.00000000E+00  0.00000000E+00
  0.00000000E+00  0.00000000E+00  0.00000000E+00
  0.00000000E+00  0.00000000E+00  0.00000000E+00
  0.00000000E+00  0.00000000E+00  0.00000000E+00
  0.00000000E+00  0.00000000E+00  0.00000000E+00
  0.00000000E+00  0.00000000E+00  0.00000000E+00
  0.00000000E+00  0.00000000E+00  0.00000000E+00
  0.00000000E+00  0.00000000E+00  0.00000000E+00
  0.00000000E+00  0.00000000E+00  0.00000000E+00
  0.00000000E+00  0.00000000E+00  0.00000000E+00
  0.00000000E+00  0.00000000E+00  0.00000000E+00
  0.00000000E+00  0.00000000E+00  0.00000000E+00
  0.00000000E+00  0.00000000E+00  0.00000000E+00
  0.00000000E+00  0.00000000E+00  0.00000000E+00
  0.00000000E+00  0.00000000E+00  0.00000000E+00
  0.00000000E+00  0.00000000E+00  0.00000000E+00
  0.00000000E+00  0.00000000E+00  0.00000000E+00
  0.00000000E+00  0.00000000E+00  0.00000000E+00
  0.00000000E+00  0.00000000E+00  0.00000000E+00
  0.00000000E+00  0.00000000E+00  0.00000000E+00
  0.00000000E+00  0.00000000E+00  0.00000000E+00
  0.00000000E+00  0.00000000E+00  0.00000000E+00
  0.00000000E+00  0.00000000E+00  0.00000000E+00
  0.00000000E+00  0.00000000E+00  0.00000000E+00
  0.00000000E+00  0.00000000E+00  0.00000000E+00
  0.00000000E+00  0.00000000E+00  0.00000000E+00
  0.00000000E+00  0.00000000E+00  0.00000000E+00
  0.00000000E+00  0.00000000E+00  0.00000000E+00
  0.00000000E+00  0.00000000E+00  0.00000000E+00
  0.00000000E+00  0.00000000E+00  0.00000000E+00
  0.00000000E+00  0.00000000E+00  0.00000000E+00
  0.00000000E+00  0.00000000E+00  0.00000000E+00
  0.00000000E+00  0.00000000E+00  0.00000000E+00
  0.00000000E+00  0.00000000E+00  0.00000000E+00
  0.00000000E+00  0.00000000E+00  0.00000000E+00
  0.00000000E+00  0.00000000E+00  0.00000000E+00
  0.00000000E+00  0.00000000E+00  0.00000000E+00
  0.00000000E+00  0.00000000E+00  0.00000000E+00
  0.00000000E+00  0.00000000E+00  0.00000000E+00
  0.00000000E+00  0.00000000E+00  0.00000000E+00
  0.00000000E+00  0.00000000E+00  0.00000000E+00
  0.00000000E+00  0.00000000E+00  0.00000000E+00
  0.00000000E+00  0.00000000E+00  0.00000000E+00
  0.00000000E+00  0.00000000E+00  0.00000000E+00
  0.00000000E+00  0.00000000E+00  0.00000000E+00
  0.00000000E+00  0.00000000E+00  0.00000000E+00
  0.00000000E+00  0.00000000E+00  0.00000000E+00
  0.00000000E+00  0.00000000E+00  0.00000000E+00
  0.00000000E+00  0.00000000E+00  0.00000000E+00
  0.00000000E+00  0.00000000E+00  0.00000000E+00
  0.00000000E+00  0.00000000E+00  0.00000000E+00
  0.00000000E+00  0.00000000E+00  0.00000000E+00
  0.00000000E+00  0.00000000E+00  0.00000000E+00
  0.00000000E+00  0.00000000E+00  0.00000000E+00
  0.00000000E+00  0.00000000E+00  0.00000000E+00
  0.00000000E+00  0.00000000E+00  0.00000000E+00
  0.00000000E+00  0.00000000E+00  0.00000000E+00
  0.00000000E+00  0.00000000E+00  0.00000000E+00
  0.00000000E+00  0.00000000E+00  0.00000000E+00
  0.00000000E+00  0.00000000E+00  0.00000000E+00
  0.00000000E+00  0.00000000E+00  0.00000000E+00
  0.00000000E+00  0.00000000E+00  0.00000000E+00
  0.00000000E+00  0.00000000E+00  0.00000000E+00
