Bi H                                    
   1.00000000000000     
    29.0000000000000000    0.0000000000000000    0.0000000000000000
     0.0000000000000000   29.0000000000000000    0.0000000000000000
     0.0000000000000000    0.0000000000000000   29.0000000000000000
   Bi   H 
    68     1
Selective dynamics
Direct
  0.4993234214868494  0.4996808983791843  0.7168377872887778   T   T   T
  0.3489827633650344  0.6530418466940487  0.4077760815636873   T   T   T
  0.3450938537725389  0.5792893365269235  0.4856295055417481   T   T   T
  0.5811467705906068  0.4246732054093982  0.4064932224093951   F   F   F
  0.4244332074093933  0.4246732054093982  0.5632067865906052   F   F   F
  0.6600300552677143  0.5795506282411230  0.4835330945766609   T   T   T
  0.4262625714515343  0.5034552982643755  0.3281100389044073   T   T   T
  0.4245039911801732  0.3460442003924789  0.4849119250080069   T   T   T
  0.5797205411627543  0.5046706409842313  0.6421198726909593   T   T   T
  0.3516350896029138  0.4271300267272529  0.6389724696758173   T   T   T
  0.5024736284733462  0.6590069430355523  0.5618391970075440   T   T   T
  0.5786387825404349  0.3497415101700958  0.3326587832019518   T   T   T
  0.4243202339133267  0.6598097055035531  0.4847103304583948   T   T   T
  0.4241931277939193  0.6538391901098849  0.3325282254621180   T   T   T
  0.6588119918203497  0.5027640927895136  0.5613863420167423   T   T   T
  0.6552000036822910  0.5806308667579657  0.3333636575337911   T   T   T
  0.6538629210802314  0.3503621500932210  0.5615531811690050   T   T   T
  0.5027899740000024  0.4274945535347072  0.4848499889999971   F   F   F
  0.3454043319115027  0.4250904851728579  0.4849561037793557   T   T   T
  0.5027899740000024  0.5785654504652982  0.4848499889999971   F   F   F
  0.5027899740000024  0.5030300020000027  0.5603854384652962   F   F   F
  0.4265009214971429  0.6535602689121000  0.6370385046038030   T   T   T
  0.5783254224652978  0.5030300020000027  0.4848499889999971   F   F   F
  0.5017775625833192  0.3465689295375720  0.5624619289047555   T   T   T
  0.2756995640724061  0.5017231770370226  0.4848373140124827   T   T   T
  0.3460429085154739  0.5021094039478663  0.5622230376563383   T   T   T
  0.5034675889761580  0.5035188330528976  0.2577356062526738   T   T   T
  0.3512389326892701  0.4266725727250205  0.3318094360160133   T   T   T
  0.6537521714614954  0.4241714992236047  0.3325918361412670   T   T   T
  0.6601462491067036  0.5019316109258826  0.4070498364649983   T   T   T
  0.4244332074093933  0.4246732054093982  0.4064932224093951   F   F   F
  0.4244332074093933  0.5813867985906072  0.4064932224093951   F   F   F
  0.5811467705906068  0.5813867985906072  0.4064932224093951   F   F   F
  0.5017324460131135  0.6600756187845561  0.4073046801987384   T   T   T
  0.5012915430763719  0.7291832990888977  0.4853274223594451   T   T   T
  0.3499864934626717  0.6539226329428509  0.5619572243944624   T   T   T
  0.6596396333407927  0.4245933011249551  0.4844516230058012   T   T   T
  0.3507227250494585  0.3514374916120934  0.4061853723082774   T   T   T
  0.3495584901811118  0.5787869624241183  0.3325533762784523   T   T   T
  0.4262865818939487  0.3524534397917444  0.6391672224970992   T   T   T
  0.6536364658392319  0.4268151319060829  0.6367433767337293   T   T   T
  0.5811467705906068  0.5813867985906072  0.5632067865906052   F   F   F
  0.5034124245285179  0.4262842991869601  0.3279610397283580   T   T   T
  0.5027899740000024  0.5030300020000027  0.4093145705347041   F   F   F
  0.6550354488701704  0.6549258149235099  0.5587655984732287   T   T   T
  0.5046018053356320  0.5799105938621184  0.6426595670941637   T   T   T
  0.4244332074093933  0.5813867985906072  0.5632067865906052   F   F   F
  0.4270555386499769  0.5035043061736815  0.6413823935328085   T   T   T
  0.5806768280284675  0.5034965344786850  0.3270702667505992   T   T   T
  0.6530225588494548  0.3491566094314522  0.4078279129635621   T   T   T
  0.5811467705906068  0.4246732054093982  0.5632067865906052   F   F   F
  0.3511170762338395  0.5786891201945356  0.6372044483984883   T   T   T
  0.5010026044279017  0.2764360415349282  0.4852018162680292   T   T   T
  0.6557617511183125  0.5806819724193728  0.6354624467541644   T   T   T
  0.3513437381093091  0.3518915625384341  0.5646167715530737   T   T   T
  0.5033277044261210  0.5806309818092393  0.3271201858805566   T   T   T
  0.6552076157666008  0.6556121003377725  0.4086345692337277   T   T   T
  0.5802450617306365  0.6553044879570592  0.3333614574271044   T   T   T
  0.5790027627837718  0.3454258816599289  0.4855687134787668   T   T   T
  0.4272545555347023  0.5030300020000027  0.4848499889999971   F   F   F
  0.5795023376425644  0.6600953642781662  0.4837004923081610   T   T   T
  0.5808652731300640  0.6558353896952971  0.6355063272297286   T   T   T
  0.5021885664864635  0.3463276234646228  0.4081231802710236   T   T   T
  0.4262478229041881  0.3516260573481234  0.3319762428685886   T   T   T
  0.5789641892191323  0.3515547738803471  0.6372047187625131   T   T   T
  0.5034327485107803  0.4271627295234560  0.6419621222794324   T   T   T
  0.7292374763070367  0.5013711364537500  0.4851109500493171   T   T   T
  0.3459468364418481  0.5024883771441280  0.4081084839430193   T   T   T
  0.4532867697904984  0.4574819084657556  0.7359797688110016   T   T   T
 
  0.00000000E+00  0.00000000E+00  0.00000000E+00
  0.00000000E+00  0.00000000E+00  0.00000000E+00
  0.00000000E+00  0.00000000E+00  0.00000000E+00
  0.00000000E+00  0.00000000E+00  0.00000000E+00
  0.00000000E+00  0.00000000E+00  0.00000000E+00
  0.00000000E+00  0.00000000E+00  0.00000000E+00
  0.00000000E+00  0.00000000E+00  0.00000000E+00
  0.00000000E+00  0.00000000E+00  0.00000000E+00
  0.00000000E+00  0.00000000E+00  0.00000000E+00
  0.00000000E+00  0.00000000E+00  0.00000000E+00
  0.00000000E+00  0.00000000E+00  0.00000000E+00
  0.00000000E+00  0.00000000E+00  0.00000000E+00
  0.00000000E+00  0.00000000E+00  0.00000000E+00
  0.00000000E+00  0.00000000E+00  0.00000000E+00
  0.00000000E+00  0.00000000E+00  0.00000000E+00
  0.00000000E+00  0.00000000E+00  0.00000000E+00
  0.00000000E+00  0.00000000E+00  0.00000000E+00
  0.00000000E+00  0.00000000E+00  0.00000000E+00
  0.00000000E+00  0.00000000E+00  0.00000000E+00
  0.00000000E+00  0.00000000E+00  0.00000000E+00
  0.00000000E+00  0.00000000E+00  0.00000000E+00
  0.00000000E+00  0.00000000E+00  0.00000000E+00
  0.00000000E+00  0.00000000E+00  0.00000000E+00
  0.00000000E+00  0.00000000E+00  0.00000000E+00
  0.00000000E+00  0.00000000E+00  0.00000000E+00
  0.00000000E+00  0.00000000E+00  0.00000000E+00
  0.00000000E+00  0.00000000E+00  0.00000000E+00
  0.00000000E+00  0.00000000E+00  0.00000000E+00
  0.00000000E+00  0.00000000E+00  0.00000000E+00
  0.00000000E+00  0.00000000E+00  0.00000000E+00
  0.00000000E+00  0.00000000E+00  0.00000000E+00
  0.00000000E+00  0.00000000E+00  0.00000000E+00
  0.00000000E+00  0.00000000E+00  0.00000000E+00
  0.00000000E+00  0.00000000E+00  0.00000000E+00
  0.00000000E+00  0.00000000E+00  0.00000000E+00
  0.00000000E+00  0.00000000E+00  0.00000000E+00
  0.00000000E+00  0.00000000E+00  0.00000000E+00
  0.00000000E+00  0.00000000E+00  0.00000000E+00
  0.00000000E+00  0.00000000E+00  0.00000000E+00
  0.00000000E+00  0.00000000E+00  0.00000000E+00
  0.00000000E+00  0.00000000E+00  0.00000000E+00
  0.00000000E+00  0.00000000E+00  0.00000000E+00
  0.00000000E+00  0.00000000E+00  0.00000000E+00
  0.00000000E+00  0.00000000E+00  0.00000000E+00
  0.00000000E+00  0.00000000E+00  0.00000000E+00
  0.00000000E+00  0.00000000E+00  0.00000000E+00
  0.00000000E+00  0.00000000E+00  0.00000000E+00
  0.00000000E+00  0.00000000E+00  0.00000000E+00
  0.00000000E+00  0.00000000E+00  0.00000000E+00
  0.00000000E+00  0.00000000E+00  0.00000000E+00
  0.00000000E+00  0.00000000E+00  0.00000000E+00
  0.00000000E+00  0.00000000E+00  0.00000000E+00
  0.00000000E+00  0.00000000E+00  0.00000000E+00
  0.00000000E+00  0.00000000E+00  0.00000000E+00
  0.00000000E+00  0.00000000E+00  0.00000000E+00
  0.00000000E+00  0.00000000E+00  0.00000000E+00
  0.00000000E+00  0.00000000E+00  0.00000000E+00
  0.00000000E+00  0.00000000E+00  0.00000000E+00
  0.00000000E+00  0.00000000E+00  0.00000000E+00
  0.00000000E+00  0.00000000E+00  0.00000000E+00
  0.00000000E+00  0.00000000E+00  0.00000000E+00
  0.00000000E+00  0.00000000E+00  0.00000000E+00
  0.00000000E+00  0.00000000E+00  0.00000000E+00
  0.00000000E+00  0.00000000E+00  0.00000000E+00
  0.00000000E+00  0.00000000E+00  0.00000000E+00
  0.00000000E+00  0.00000000E+00  0.00000000E+00
  0.00000000E+00  0.00000000E+00  0.00000000E+00
  0.00000000E+00  0.00000000E+00  0.00000000E+00
  0.00000000E+00  0.00000000E+00  0.00000000E+00
