Bi H                                    
   1.00000000000000     
    29.0000000000000000    0.0000000000000000    0.0000000000000000
     0.0000000000000000   29.0000000000000000    0.0000000000000000
     0.0000000000000000    0.0000000000000000   29.0000000000000000
   Bi   H 
    68     1
Selective dynamics
Direct
  0.5035652265198898  0.5037682082486318  0.7117497758994838   T   T   T
  0.3503074166441047  0.6542052156973657  0.4086331661314279   T   T   T
  0.3455446746072467  0.5787165796217104  0.4851142312353064   T   T   T
  0.5811467705906068  0.4246732054093982  0.4064932224093951   F   F   F
  0.4244332074093933  0.4246732054093982  0.5632067865906052   F   F   F
  0.6596133031182257  0.5814867478099067  0.4846321873604616   T   T   T
  0.4261774715263126  0.5024718049990120  0.3280147959726555   T   T   T
  0.4263258994311938  0.3410703612014216  0.4842000666664985   T   T   T
  0.5804520466474459  0.5035706531583324  0.6415336338212216   T   T   T
  0.3516013608821038  0.4250771414307925  0.6371897562888807   T   T   T
  0.5036443519729030  0.6605918740742677  0.5609792380738596   T   T   T
  0.5799339636394725  0.3507587328311749  0.3332592567143209   T   T   T
  0.4253344170914929  0.6600195431740884  0.4849780829631347   T   T   T
  0.4250215604707772  0.6550849363471641  0.3334408207451766   T   T   T
  0.6604113566806834  0.5035118847142375  0.5612340546839794   T   T   T
  0.6552271122242731  0.5796164274164047  0.3328710989172322   T   T   T
  0.6555449207328389  0.3515088710082084  0.5614971689401017   T   T   T
  0.5027899740000024  0.4274945535347072  0.4848499889999971   F   F   F
  0.3466753504005038  0.4235476561806140  0.4848709229437427   T   T   T
  0.5027899740000024  0.5785654504652982  0.4848499889999971   F   F   F
  0.5027899740000024  0.5030300020000027  0.5603854384652962   F   F   F
  0.4259790887777022  0.6563015318857173  0.6354927314222917   T   T   T
  0.5783254224652978  0.5030300020000027  0.4848499889999971   F   F   F
  0.5028455913509123  0.3457686210646883  0.5619343043321456   T   T   T
  0.2765884712811825  0.4999094789264248  0.4856962906116711   T   T   T
  0.3465740138820199  0.5018025470830110  0.5622405390497612   T   T   T
  0.5027946136616983  0.5025149280981243  0.2575842036326941   T   T   T
  0.3498488131338558  0.4261639477128949  0.3325613311583278   T   T   T
  0.6543529638398674  0.4264129755346388  0.3322794432831197   T   T   T
  0.6596737826623679  0.5032446739568442  0.4079984530089374   T   T   T
  0.4244332074093933  0.4246732054093982  0.4064932224093951   F   F   F
  0.4244332074093933  0.5813867985906072  0.4064932224093951   F   F   F
  0.5811467705906068  0.5813867985906072  0.4064932224093951   F   F   F
  0.5029177848392569  0.6600242037081999  0.4075935121205647   T   T   T
  0.5021632504891359  0.7302890980023844  0.4838004945226920   T   T   T
  0.3505890051831024  0.6548377640413054  0.5612770500812477   T   T   T
  0.6608860989036615  0.4270530966475937  0.4848674117527489   T   T   T
  0.3500751518921962  0.3512808193119529  0.4051828841044885   T   T   T
  0.3505753364424458  0.5789186406714116  0.3332517055972041   T   T   T
  0.4272685758123122  0.3510493537472201  0.6378070160769906   T   T   T
  0.6552330132411449  0.4268995376798740  0.6362114594716837   T   T   T
  0.5811467705906068  0.5813867985906072  0.5632067865906052   F   F   F
  0.5029785462447820  0.4254777168450826  0.3278028257142472   T   T   T
  0.5027899740000024  0.5030300020000027  0.4093145705347041   F   F   F
  0.6546651915606486  0.6560299984622731  0.5616734422025248   T   T   T
  0.5031082163205242  0.5807662666268789  0.6416656871095169   T   T   T
  0.4244332074093933  0.5813867985906072  0.5632067865906052   F   F   F
  0.4261809173121887  0.5033279246030224  0.6425542215991575   T   T   T
  0.5797637045109609  0.5034213344757371  0.3276397329725165   T   T   T
  0.6557708134031999  0.3519971628372864  0.4076902257709149   T   T   T
  0.5811467705906068  0.4246732054093982  0.5632067865906052   F   F   F
  0.3524215661612277  0.5803738040015999  0.6376707909582640   T   T   T
  0.5083230039073158  0.2752503933255118  0.4851533195494919   T   T   T
  0.6553571553093537  0.5799264184772356  0.6362785770156482   T   T   T
  0.3522827591662752  0.3498923498888020  0.5624313174228409   T   T   T
  0.5023491177521525  0.5799683773671517  0.3273621876938984   T   T   T
  0.6548636968672150  0.6558750993416232  0.4074103940448556   T   T   T
  0.5803166087171741  0.6543412719832001  0.3326673796136397   T   T   T
  0.5812089154654486  0.3471445589076642  0.4846081378926373   T   T   T
  0.4272545555347023  0.5030300020000027  0.4848499889999971   F   F   F
  0.5808192240597795  0.6619742413714610  0.4847957824001251   T   T   T
  0.5799753756122121  0.6555288286783892  0.6363932903062004   T   T   T
  0.5024768466051384  0.3450896648348815  0.4078340699103470   T   T   T
  0.4261879462198985  0.3512930234747943  0.3320665576423015   T   T   T
  0.5801248851847434  0.3510720130043191  0.6361524414829508   T   T   T
  0.5027771107765877  0.4262627654977518  0.6417747157396502   T   T   T
  0.7302495151260397  0.5056298280238083  0.4841194101925788   T   T   T
  0.3454110976330083  0.5023640006445479  0.4078475615295439   T   T   T
  0.3932781028704592  0.2886057293349922  0.4620883239366910   T   T   T
 
  0.00000000E+00  0.00000000E+00  0.00000000E+00
  0.00000000E+00  0.00000000E+00  0.00000000E+00
  0.00000000E+00  0.00000000E+00  0.00000000E+00
  0.00000000E+00  0.00000000E+00  0.00000000E+00
  0.00000000E+00  0.00000000E+00  0.00000000E+00
  0.00000000E+00  0.00000000E+00  0.00000000E+00
  0.00000000E+00  0.00000000E+00  0.00000000E+00
  0.00000000E+00  0.00000000E+00  0.00000000E+00
  0.00000000E+00  0.00000000E+00  0.00000000E+00
  0.00000000E+00  0.00000000E+00  0.00000000E+00
  0.00000000E+00  0.00000000E+00  0.00000000E+00
  0.00000000E+00  0.00000000E+00  0.00000000E+00
  0.00000000E+00  0.00000000E+00  0.00000000E+00
  0.00000000E+00  0.00000000E+00  0.00000000E+00
  0.00000000E+00  0.00000000E+00  0.00000000E+00
  0.00000000E+00  0.00000000E+00  0.00000000E+00
  0.00000000E+00  0.00000000E+00  0.00000000E+00
  0.00000000E+00  0.00000000E+00  0.00000000E+00
  0.00000000E+00  0.00000000E+00  0.00000000E+00
  0.00000000E+00  0.00000000E+00  0.00000000E+00
  0.00000000E+00  0.00000000E+00  0.00000000E+00
  0.00000000E+00  0.00000000E+00  0.00000000E+00
  0.00000000E+00  0.00000000E+00  0.00000000E+00
  0.00000000E+00  0.00000000E+00  0.00000000E+00
  0.00000000E+00  0.00000000E+00  0.00000000E+00
  0.00000000E+00  0.00000000E+00  0.00000000E+00
  0.00000000E+00  0.00000000E+00  0.00000000E+00
  0.00000000E+00  0.00000000E+00  0.00000000E+00
  0.00000000E+00  0.00000000E+00  0.00000000E+00
  0.00000000E+00  0.00000000E+00  0.00000000E+00
  0.00000000E+00  0.00000000E+00  0.00000000E+00
  0.00000000E+00  0.00000000E+00  0.00000000E+00
  0.00000000E+00  0.00000000E+00  0.00000000E+00
  0.00000000E+00  0.00000000E+00  0.00000000E+00
  0.00000000E+00  0.00000000E+00  0.00000000E+00
  0.00000000E+00  0.00000000E+00  0.00000000E+00
  0.00000000E+00  0.00000000E+00  0.00000000E+00
  0.00000000E+00  0.00000000E+00  0.00000000E+00
  0.00000000E+00  0.00000000E+00  0.00000000E+00
  0.00000000E+00  0.00000000E+00  0.00000000E+00
  0.00000000E+00  0.00000000E+00  0.00000000E+00
  0.00000000E+00  0.00000000E+00  0.00000000E+00
  0.00000000E+00  0.00000000E+00  0.00000000E+00
  0.00000000E+00  0.00000000E+00  0.00000000E+00
  0.00000000E+00  0.00000000E+00  0.00000000E+00
  0.00000000E+00  0.00000000E+00  0.00000000E+00
  0.00000000E+00  0.00000000E+00  0.00000000E+00
  0.00000000E+00  0.00000000E+00  0.00000000E+00
  0.00000000E+00  0.00000000E+00  0.00000000E+00
  0.00000000E+00  0.00000000E+00  0.00000000E+00
  0.00000000E+00  0.00000000E+00  0.00000000E+00
  0.00000000E+00  0.00000000E+00  0.00000000E+00
  0.00000000E+00  0.00000000E+00  0.00000000E+00
  0.00000000E+00  0.00000000E+00  0.00000000E+00
  0.00000000E+00  0.00000000E+00  0.00000000E+00
  0.00000000E+00  0.00000000E+00  0.00000000E+00
  0.00000000E+00  0.00000000E+00  0.00000000E+00
  0.00000000E+00  0.00000000E+00  0.00000000E+00
  0.00000000E+00  0.00000000E+00  0.00000000E+00
  0.00000000E+00  0.00000000E+00  0.00000000E+00
  0.00000000E+00  0.00000000E+00  0.00000000E+00
  0.00000000E+00  0.00000000E+00  0.00000000E+00
  0.00000000E+00  0.00000000E+00  0.00000000E+00
  0.00000000E+00  0.00000000E+00  0.00000000E+00
  0.00000000E+00  0.00000000E+00  0.00000000E+00
  0.00000000E+00  0.00000000E+00  0.00000000E+00
  0.00000000E+00  0.00000000E+00  0.00000000E+00
  0.00000000E+00  0.00000000E+00  0.00000000E+00
  0.00000000E+00  0.00000000E+00  0.00000000E+00
