Bi H                                    
   1.00000000000000     
    29.0000000000000000    0.0000000000000000    0.0000000000000000
     0.0000000000000000   29.0000000000000000    0.0000000000000000
     0.0000000000000000    0.0000000000000000   29.0000000000000000
   Bi   H 
    68     1
Selective dynamics
Direct
  0.5073518791477775  0.5015557796186508  0.7093856193740963   T   T   T
  0.3503563108947100  0.6528398692085644  0.4049903121707333   T   T   T
  0.3462911301464999  0.5794147859330689  0.4849109780333902   T   T   T
  0.5811467705906068  0.4246732054093982  0.4064932224093951   F   F   F
  0.4244332074093933  0.4246732054093982  0.5632067865906052   F   F   F
  0.6590190523539452  0.5816628930559159  0.4847819295951037   T   T   T
  0.4276763738222388  0.5025940905130775  0.3287166597282365   T   T   T
  0.4210841148588961  0.3452735817960085  0.4849621872919658   T   T   T
  0.5833658804685389  0.5027866874172141  0.6395451998657505   T   T   T
  0.3501669598360468  0.4282227004231000  0.6381705943977960   T   T   T
  0.5023098269054034  0.6609705625938108  0.5616893162634523   T   T   T
  0.5804859846881840  0.3480819027810937  0.3381164788425886   T   T   T
  0.4246973892903997  0.6597520723649910  0.4845476455530342   T   T   T
  0.4260537971907209  0.6542001075380787  0.3320051873718721   T   T   T
  0.6634036717938876  0.5041719249491002  0.5599082731299450   T   T   T
  0.6572458482462431  0.5817367426246595  0.3363733656102167   T   T   T
  0.6544011126540574  0.3473329438916800  0.5560553110810323   T   T   T
  0.5027899740000024  0.4274945535347072  0.4848499889999971   F   F   F
  0.3446167291691178  0.4264854212802114  0.4851352300969090   T   T   T
  0.5027899740000024  0.5785654504652982  0.4848499889999971   F   F   F
  0.5027899740000024  0.5030300020000027  0.5603854384652962   F   F   F
  0.4266875010221673  0.6553160129021007  0.6368324188024665   T   T   T
  0.5783254224652978  0.5030300020000027  0.4848499889999971   F   F   F
  0.4991360160616548  0.3440886463098808  0.5607904774504098   T   T   T
  0.2752728169642460  0.5037781511343681  0.4853470190955438   T   T   T
  0.3448480479254710  0.5031766703972428  0.5627161620308291   T   T   T
  0.5073339229586604  0.5023089270946427  0.2599390705951310   T   T   T
  0.3496340621206909  0.4285461124363585  0.3319740912534710   T   T   T
  0.6578136672065008  0.4228603087476046  0.3388854202775050   T   T   T
  0.6636460433165932  0.5042380475519466  0.4096122682479820   T   T   T
  0.4244332074093933  0.4246732054093982  0.4064932224093951   F   F   F
  0.4244332074093933  0.5813867985906072  0.4064932224093951   F   F   F
  0.5811467705906068  0.5813867985906072  0.4064932224093951   F   F   F
  0.5020532593045194  0.6613936669547943  0.4068417800535992   T   T   T
  0.4998181641762569  0.7304143475493431  0.4843655735758309   T   T   T
  0.3509896975894208  0.6537039449727006  0.5640490735492747   T   T   T
  0.6565631408534391  0.4272598690375098  0.4848758136719565   T   T   T
  0.3480510411892302  0.3535623852613960  0.4056824809469939   T   T   T
  0.3505792667168298  0.5772657975679246  0.3314635222354654   T   T   T
  0.4243159115613413  0.3517057852727347  0.6371891522955164   T   T   T
  0.6573098913912913  0.4223409041837448  0.6307730640251189   T   T   T
  0.5811467705906068  0.5813867985906072  0.5632067865906052   F   F   F
  0.5041611089303822  0.4246036333146690  0.3287448780250006   T   T   T
  0.5027899740000024  0.5030300020000027  0.4093145705347041   F   F   F
  0.6540117287465288  0.6585509414980568  0.5593588604587121   T   T   T
  0.5041667270490510  0.5802493765973721  0.6411857886908811   T   T   T
  0.4244332074093933  0.5813867985906072  0.5632067865906052   F   F   F
  0.4273399636259939  0.5028248633873547  0.6411903977530621   T   T   T
  0.5834370660062260  0.5026142806073363  0.3299946246306193   T   T   T
  0.6548418361869863  0.3476676737484917  0.4131575171663563   T   T   T
  0.5811467705906068  0.4246732054093982  0.5632067865906052   F   F   F
  0.3514051358272411  0.5784657830582584  0.6382978178916968   T   T   T
  0.4954561203726466  0.2738933749085485  0.4843787594422698   T   T   T
  0.6567414497992404  0.5822740981992216  0.6329551662983057   T   T   T
  0.3476442119896815  0.3536122936027373  0.5638128180244334   T   T   T
  0.5042818845187602  0.5801481134036265  0.3286196839223186   T   T   T
  0.6545453319711871  0.6580840204653998  0.4097010289932672   T   T   T
  0.5806193607813506  0.6566113856472670  0.3346930678312141   T   T   T
  0.5745925256153096  0.3460512451585475  0.4846627445569535   T   T   T
  0.4272545555347023  0.5030300020000027  0.4848499889999971   F   F   F
  0.5787596184014570  0.6610357239813532  0.4844031047628859   T   T   T
  0.5800361886044424  0.6570485913425741  0.6346965953822804   T   T   T
  0.4990796622152919  0.3441948732809282  0.4083242516568095   T   T   T
  0.4242305797558796  0.3521879221445628  0.3321405025394400   T   T   T
  0.5802147064403410  0.3483302611504198  0.6317319788686463   T   T   T
  0.5036700645524048  0.4243375307624331  0.6405773972916398   T   T   T
  0.7350365994769879  0.5038720834582890  0.4849083663908657   T   T   T
  0.3447683000523966  0.5031280876722204  0.4073333771305158   T   T   T
  0.7416327960447818  0.5700393988000682  0.4840993805592799   T   T   T
 
  0.00000000E+00  0.00000000E+00  0.00000000E+00
  0.00000000E+00  0.00000000E+00  0.00000000E+00
  0.00000000E+00  0.00000000E+00  0.00000000E+00
  0.00000000E+00  0.00000000E+00  0.00000000E+00
  0.00000000E+00  0.00000000E+00  0.00000000E+00
  0.00000000E+00  0.00000000E+00  0.00000000E+00
  0.00000000E+00  0.00000000E+00  0.00000000E+00
  0.00000000E+00  0.00000000E+00  0.00000000E+00
  0.00000000E+00  0.00000000E+00  0.00000000E+00
  0.00000000E+00  0.00000000E+00  0.00000000E+00
  0.00000000E+00  0.00000000E+00  0.00000000E+00
  0.00000000E+00  0.00000000E+00  0.00000000E+00
  0.00000000E+00  0.00000000E+00  0.00000000E+00
  0.00000000E+00  0.00000000E+00  0.00000000E+00
  0.00000000E+00  0.00000000E+00  0.00000000E+00
  0.00000000E+00  0.00000000E+00  0.00000000E+00
  0.00000000E+00  0.00000000E+00  0.00000000E+00
  0.00000000E+00  0.00000000E+00  0.00000000E+00
  0.00000000E+00  0.00000000E+00  0.00000000E+00
  0.00000000E+00  0.00000000E+00  0.00000000E+00
  0.00000000E+00  0.00000000E+00  0.00000000E+00
  0.00000000E+00  0.00000000E+00  0.00000000E+00
  0.00000000E+00  0.00000000E+00  0.00000000E+00
  0.00000000E+00  0.00000000E+00  0.00000000E+00
  0.00000000E+00  0.00000000E+00  0.00000000E+00
  0.00000000E+00  0.00000000E+00  0.00000000E+00
  0.00000000E+00  0.00000000E+00  0.00000000E+00
  0.00000000E+00  0.00000000E+00  0.00000000E+00
  0.00000000E+00  0.00000000E+00  0.00000000E+00
  0.00000000E+00  0.00000000E+00  0.00000000E+00
  0.00000000E+00  0.00000000E+00  0.00000000E+00
  0.00000000E+00  0.00000000E+00  0.00000000E+00
  0.00000000E+00  0.00000000E+00  0.00000000E+00
  0.00000000E+00  0.00000000E+00  0.00000000E+00
  0.00000000E+00  0.00000000E+00  0.00000000E+00
  0.00000000E+00  0.00000000E+00  0.00000000E+00
  0.00000000E+00  0.00000000E+00  0.00000000E+00
  0.00000000E+00  0.00000000E+00  0.00000000E+00
  0.00000000E+00  0.00000000E+00  0.00000000E+00
  0.00000000E+00  0.00000000E+00  0.00000000E+00
  0.00000000E+00  0.00000000E+00  0.00000000E+00
  0.00000000E+00  0.00000000E+00  0.00000000E+00
  0.00000000E+00  0.00000000E+00  0.00000000E+00
  0.00000000E+00  0.00000000E+00  0.00000000E+00
  0.00000000E+00  0.00000000E+00  0.00000000E+00
  0.00000000E+00  0.00000000E+00  0.00000000E+00
  0.00000000E+00  0.00000000E+00  0.00000000E+00
  0.00000000E+00  0.00000000E+00  0.00000000E+00
  0.00000000E+00  0.00000000E+00  0.00000000E+00
  0.00000000E+00  0.00000000E+00  0.00000000E+00
  0.00000000E+00  0.00000000E+00  0.00000000E+00
  0.00000000E+00  0.00000000E+00  0.00000000E+00
  0.00000000E+00  0.00000000E+00  0.00000000E+00
  0.00000000E+00  0.00000000E+00  0.00000000E+00
  0.00000000E+00  0.00000000E+00  0.00000000E+00
  0.00000000E+00  0.00000000E+00  0.00000000E+00
  0.00000000E+00  0.00000000E+00  0.00000000E+00
  0.00000000E+00  0.00000000E+00  0.00000000E+00
  0.00000000E+00  0.00000000E+00  0.00000000E+00
  0.00000000E+00  0.00000000E+00  0.00000000E+00
  0.00000000E+00  0.00000000E+00  0.00000000E+00
  0.00000000E+00  0.00000000E+00  0.00000000E+00
  0.00000000E+00  0.00000000E+00  0.00000000E+00
  0.00000000E+00  0.00000000E+00  0.00000000E+00
  0.00000000E+00  0.00000000E+00  0.00000000E+00
  0.00000000E+00  0.00000000E+00  0.00000000E+00
  0.00000000E+00  0.00000000E+00  0.00000000E+00
  0.00000000E+00  0.00000000E+00  0.00000000E+00
  0.00000000E+00  0.00000000E+00  0.00000000E+00
