Bi H                                    
   1.00000000000000     
    29.0000000000000000    0.0000000000000000    0.0000000000000000
     0.0000000000000000   29.0000000000000000    0.0000000000000000
     0.0000000000000000    0.0000000000000000   29.0000000000000000
   Bi   H 
    68     1
Selective dynamics
Direct
  0.5065027418920072  0.5003851447103015  0.7103925017941003   T   T   T
  0.3513206013282330  0.6545338146080094  0.4083682320140849   T   T   T
  0.3459667907474745  0.5800062971245851  0.4853467877488541   T   T   T
  0.5811467705906068  0.4246732054093982  0.4064932224093951   F   F   F
  0.4244332074093933  0.4246732054093982  0.5632067865906052   F   F   F
  0.6601093640779427  0.5792947124184745  0.4848405606651038   T   T   T
  0.4257067549952914  0.5032663094409755  0.3273391222904703   T   T   T
  0.4254056944939911  0.3458854227515342  0.4854712074687446   T   T   T
  0.5827013662515768  0.5019930867115954  0.6405648217270350   T   T   T
  0.3518317140682560  0.4256534270928019  0.6377869387172095   T   T   T
  0.5025870514436883  0.6610920631450894  0.5621202818919134   T   T   T
  0.5790918814930243  0.3508585378008727  0.3332180673797775   T   T   T
  0.4257890190870720  0.6605925811190416  0.4847512219090023   T   T   T
  0.4255634057437153  0.6545242169160500  0.3322210722815754   T   T   T
  0.6610314841325132  0.5019924016684333  0.5617350975836561   T   T   T
  0.6553008179765656  0.5791805674531113  0.3334569893684514   T   T   T
  0.6568240682595913  0.3472479120392574  0.5607603666772384   T   T   T
  0.5027899740000024  0.4274945535347072  0.4848499889999971   F   F   F
  0.3453852147516179  0.4257632041269625  0.4850430341485769   T   T   T
  0.5027899740000024  0.5785654504652982  0.4848499889999971   F   F   F
  0.5027899740000024  0.5030300020000027  0.5603854384652962   F   F   F
  0.4288773708281104  0.6539213116975152  0.6386592590733596   T   T   T
  0.5783254224652978  0.5030300020000027  0.4848499889999971   F   F   F
  0.5042455973977871  0.3445355221940522  0.5619394488061842   T   T   T
  0.2762457349870588  0.5029351813771706  0.4852746114703163   T   T   T
  0.3455350364467560  0.5029460778295211  0.5629342065432502   T   T   T
  0.5030789453291294  0.5026848441450911  0.2577580460790895   T   T   T
  0.3509215932087510  0.4261130916954517  0.3327161888962133   T   T   T
  0.6544307784324345  0.4253029041126167  0.3330202699419617   T   T   T
  0.6596249587633254  0.5020177156009166  0.4085600113166479   T   T   T
  0.4244332074093933  0.4246732054093982  0.4064932224093951   F   F   F
  0.4244332074093933  0.5813867985906072  0.4064932224093951   F   F   F
  0.5811467705906068  0.5813867985906072  0.4064932224093951   F   F   F
  0.5024756278454277  0.6602203166653335  0.4066540691714257   T   T   T
  0.5030175419554206  0.7300357331983094  0.4842525950191174   T   T   T
  0.3531949875206604  0.6540290763488288  0.5632721900406714   T   T   T
  0.6604072321160946  0.4233086134365460  0.4852352104384758   T   T   T
  0.3509688246211314  0.3511235816450428  0.4085345084373133   T   T   T
  0.3504763756596647  0.5794589395788835  0.3324016566307592   T   T   T
  0.4270808874015777  0.3498686289394105  0.6358158915120038   T   T   T
  0.6564326138704014  0.4234931413938934  0.6348473287129182   T   T   T
  0.5811467705906068  0.5813867985906072  0.5632067865906052   F   F   F
  0.5028015535421371  0.4256106379230072  0.3278766483208557   T   T   T
  0.5027899740000024  0.5030300020000027  0.4093145705347041   F   F   F
  0.6539963990845461  0.6560630608056973  0.5610868718182350   T   T   T
  0.5045677093315519  0.5797206531404540  0.6416640377648791   T   T   T
  0.4244332074093933  0.5813867985906072  0.5632067865906052   F   F   F
  0.4268335709670757  0.5021521398203272  0.6423438157344904   T   T   T
  0.5803095896177760  0.5030471718128583  0.3278431007853518   T   T   T
  0.6551716474562026  0.3500091932756227  0.4083604246757267   T   T   T
  0.5811467705906068  0.4246732054093982  0.5632067865906052   F   F   F
  0.3532328311970331  0.5772525269994714  0.6392198550507591   T   T   T
  0.5017105538097631  0.2752399973879459  0.4851949132335281   T   T   T
  0.6560477112869542  0.5799788597519445  0.6352528110138682   T   T   T
  0.3499709792335767  0.3515865826034686  0.5623671593256901   T   T   T
  0.5029038341525007  0.5800209372460319  0.3273114143180550   T   T   T
  0.6549552030623549  0.6548336644493775  0.4086323267656103   T   T   T
  0.5802322056473618  0.6550120962887713  0.3330442180554428   T   T   T
  0.5805065960964585  0.3440253071543152  0.4838823123090766   T   T   T
  0.4272545555347023  0.5030300020000027  0.4848499889999971   F   F   F
  0.5795269087803318  0.6600946352225636  0.4842450365594382   T   T   T
  0.5800237714703069  0.6558534770803687  0.6363924975505483   T   T   T
  0.5026954238292508  0.3461183400312314  0.4088210060990018   T   T   T
  0.4257847392630322  0.3515953825268714  0.3323771163252766   T   T   T
  0.5793428858003918  0.3500370559369524  0.6374876383652254   T   T   T
  0.5041602495525542  0.4237662844890955  0.6406957569490715   T   T   T
  0.7299523889852717  0.5009708967681291  0.4851773904818885   T   T   T
  0.3460879377360548  0.5032883751506918  0.4077204803973482   T   T   T
  0.7097163474585936  0.3105808634635634  0.5570423446518176   T   T   T
 
  0.00000000E+00  0.00000000E+00  0.00000000E+00
  0.00000000E+00  0.00000000E+00  0.00000000E+00
  0.00000000E+00  0.00000000E+00  0.00000000E+00
  0.00000000E+00  0.00000000E+00  0.00000000E+00
  0.00000000E+00  0.00000000E+00  0.00000000E+00
  0.00000000E+00  0.00000000E+00  0.00000000E+00
  0.00000000E+00  0.00000000E+00  0.00000000E+00
  0.00000000E+00  0.00000000E+00  0.00000000E+00
  0.00000000E+00  0.00000000E+00  0.00000000E+00
  0.00000000E+00  0.00000000E+00  0.00000000E+00
  0.00000000E+00  0.00000000E+00  0.00000000E+00
  0.00000000E+00  0.00000000E+00  0.00000000E+00
  0.00000000E+00  0.00000000E+00  0.00000000E+00
  0.00000000E+00  0.00000000E+00  0.00000000E+00
  0.00000000E+00  0.00000000E+00  0.00000000E+00
  0.00000000E+00  0.00000000E+00  0.00000000E+00
  0.00000000E+00  0.00000000E+00  0.00000000E+00
  0.00000000E+00  0.00000000E+00  0.00000000E+00
  0.00000000E+00  0.00000000E+00  0.00000000E+00
  0.00000000E+00  0.00000000E+00  0.00000000E+00
  0.00000000E+00  0.00000000E+00  0.00000000E+00
  0.00000000E+00  0.00000000E+00  0.00000000E+00
  0.00000000E+00  0.00000000E+00  0.00000000E+00
  0.00000000E+00  0.00000000E+00  0.00000000E+00
  0.00000000E+00  0.00000000E+00  0.00000000E+00
  0.00000000E+00  0.00000000E+00  0.00000000E+00
  0.00000000E+00  0.00000000E+00  0.00000000E+00
  0.00000000E+00  0.00000000E+00  0.00000000E+00
  0.00000000E+00  0.00000000E+00  0.00000000E+00
  0.00000000E+00  0.00000000E+00  0.00000000E+00
  0.00000000E+00  0.00000000E+00  0.00000000E+00
  0.00000000E+00  0.00000000E+00  0.00000000E+00
  0.00000000E+00  0.00000000E+00  0.00000000E+00
  0.00000000E+00  0.00000000E+00  0.00000000E+00
  0.00000000E+00  0.00000000E+00  0.00000000E+00
  0.00000000E+00  0.00000000E+00  0.00000000E+00
  0.00000000E+00  0.00000000E+00  0.00000000E+00
  0.00000000E+00  0.00000000E+00  0.00000000E+00
  0.00000000E+00  0.00000000E+00  0.00000000E+00
  0.00000000E+00  0.00000000E+00  0.00000000E+00
  0.00000000E+00  0.00000000E+00  0.00000000E+00
  0.00000000E+00  0.00000000E+00  0.00000000E+00
  0.00000000E+00  0.00000000E+00  0.00000000E+00
  0.00000000E+00  0.00000000E+00  0.00000000E+00
  0.00000000E+00  0.00000000E+00  0.00000000E+00
  0.00000000E+00  0.00000000E+00  0.00000000E+00
  0.00000000E+00  0.00000000E+00  0.00000000E+00
  0.00000000E+00  0.00000000E+00  0.00000000E+00
  0.00000000E+00  0.00000000E+00  0.00000000E+00
  0.00000000E+00  0.00000000E+00  0.00000000E+00
  0.00000000E+00  0.00000000E+00  0.00000000E+00
  0.00000000E+00  0.00000000E+00  0.00000000E+00
  0.00000000E+00  0.00000000E+00  0.00000000E+00
  0.00000000E+00  0.00000000E+00  0.00000000E+00
  0.00000000E+00  0.00000000E+00  0.00000000E+00
  0.00000000E+00  0.00000000E+00  0.00000000E+00
  0.00000000E+00  0.00000000E+00  0.00000000E+00
  0.00000000E+00  0.00000000E+00  0.00000000E+00
  0.00000000E+00  0.00000000E+00  0.00000000E+00
  0.00000000E+00  0.00000000E+00  0.00000000E+00
  0.00000000E+00  0.00000000E+00  0.00000000E+00
  0.00000000E+00  0.00000000E+00  0.00000000E+00
  0.00000000E+00  0.00000000E+00  0.00000000E+00
  0.00000000E+00  0.00000000E+00  0.00000000E+00
  0.00000000E+00  0.00000000E+00  0.00000000E+00
  0.00000000E+00  0.00000000E+00  0.00000000E+00
  0.00000000E+00  0.00000000E+00  0.00000000E+00
  0.00000000E+00  0.00000000E+00  0.00000000E+00
  0.00000000E+00  0.00000000E+00  0.00000000E+00
