Bi H                                    
   1.00000000000000     
    29.0000000000000000    0.0000000000000000    0.0000000000000000
     0.0000000000000000   29.0000000000000000    0.0000000000000000
     0.0000000000000000    0.0000000000000000   29.0000000000000000
   Bi   H 
    68     1
Selective dynamics
Direct
  0.5023799808798416  0.5032358408097060  0.7119812789597326   T   T   T
  0.3507827566898543  0.6551680605435164  0.4083216917716982   T   T   T
  0.3451659610193686  0.5804310713219769  0.4850443321970281   T   T   T
  0.5811467705906068  0.4246732054093982  0.4064932224093951   F   F   F
  0.4244332074093933  0.4246732054093982  0.5632067865906052   F   F   F
  0.6630940856521023  0.5794592690608767  0.4853742793606749   T   T   T
  0.4258509146555299  0.5034028247519601  0.3275041488691950   T   T   T
  0.4249852300599536  0.3457705383717886  0.4850208070666734   T   T   T
  0.5798113920030407  0.5035006818261135  0.6420156162294717   T   T   T
  0.3508165471301375  0.4263187396364563  0.6367254026252842   T   T   T
  0.5029044476715517  0.6599512376759823  0.5615929485982235   T   T   T
  0.5793340857426033  0.3509679133434798  0.3328576309887182   T   T   T
  0.4256738920775776  0.6602035282619974  0.4846756783834883   T   T   T
  0.4264433536359629  0.6551154606375956  0.3331006229474595   T   T   T
  0.6605261819951038  0.5026611692783244  0.5626506209069335   T   T   T
  0.6544470094135718  0.5804791616264048  0.3323989291486439   T   T   T
  0.6551233172375002  0.3513516788973901  0.5618747818222780   T   T   T
  0.5027899740000024  0.4274945535347072  0.4848499889999971   F   F   F
  0.3447593609596646  0.4251211197212916  0.4850215982540789   T   T   T
  0.5027899740000024  0.5785654504652982  0.4848499889999971   F   F   F
  0.5027899740000024  0.5030300020000027  0.5603854384652962   F   F   F
  0.4258676711126157  0.6540321116288006  0.6373155652129142   T   T   T
  0.5783254224652978  0.5030300020000027  0.4848499889999971   F   F   F
  0.5027497194551839  0.3459725803610970  0.5616033616991088   T   T   T
  0.2757878854108334  0.5028863114817308  0.4847372207704438   T   T   T
  0.3455384525680777  0.5026172285354438  0.5616547221868542   T   T   T
  0.5029321102925361  0.5029630800931548  0.2576486510373978   T   T   T
  0.3513292808814367  0.4261133641608456  0.3330180834494326   T   T   T
  0.6545621504035160  0.4259914697207102  0.3328064362189972   T   T   T
  0.6606035001836474  0.5034737599165403  0.4075264845804000   T   T   T
  0.4244332074093933  0.4246732054093982  0.4064932224093951   F   F   F
  0.4244332074093933  0.5813867985906072  0.4064932224093951   F   F   F
  0.5811467705906068  0.5813867985906072  0.4064932224093951   F   F   F
  0.5029436547362154  0.6603241797491215  0.4078952635324075   T   T   T
  0.5034026069498315  0.7297303749195106  0.4848322103020241   T   T   T
  0.3507480416530167  0.6550079803878340  0.5615957514752767   T   T   T
  0.6597675359381924  0.4254965299689936  0.4846796929681426   T   T   T
  0.3504477907757912  0.3509637274550615  0.4075610895713811   T   T   T
  0.3509885021694960  0.5803628248506920  0.3329611348358276   T   T   T
  0.4264236517318160  0.3510277091199287  0.6366792200631427   T   T   T
  0.6539641871533821  0.4255906145780494  0.6372558954458966   T   T   T
  0.5811467705906068  0.5813867985906072  0.5632067865906052   F   F   F
  0.5028655744684314  0.4258307356772482  0.3275116613635071   T   T   T
  0.5027899740000024  0.5030300020000027  0.4093145705347041   F   F   F
  0.6548556830986703  0.6550147291399362  0.5622836678882160   T   T   T
  0.5031254317991943  0.5801733130860421  0.6421928155399045   T   T   T
  0.4244332074093933  0.5813867985906072  0.5632067865906052   F   F   F
  0.4255686911045433  0.5030970220514619  0.6419161959232369   T   T   T
  0.5802017263510119  0.5030509703432856  0.3276350731854960   T   T   T
  0.6548894254480657  0.3511906055697409  0.4078465379112862   T   T   T
  0.5811467705906068  0.4246732054093982  0.5632067865906052   F   F   F
  0.3502508104575359  0.5799706727851601  0.6363973899518224   T   T   T
  0.5020062663710760  0.2758859421407813  0.4849565347685387   T   T   T
  0.6547341369069712  0.5798730435450890  0.6370559135729741   T   T   T
  0.3503400181407428  0.3512080171381761  0.5621361223359612   T   T   T
  0.5033077719329468  0.5798549257781371  0.3279936881728760   T   T   T
  0.6543682080065741  0.6559774703104322  0.4062737983268545   T   T   T
  0.5793549514840151  0.6558382267347601  0.3325804635284069   T   T   T
  0.5799138640994448  0.3457983033010094  0.4849150211782287   T   T   T
  0.4272545555347023  0.5030300020000027  0.4848499889999971   F   F   F
  0.5807490154351387  0.6597234166352326  0.4847349973790781   T   T   T
  0.5798464109653820  0.6556092527174555  0.6362538913750598   T   T   T
  0.5027539355763595  0.3461029210331934  0.4083599349166521   T   T   T
  0.4262049650209453  0.3509485085169373  0.3329422560397790   T   T   T
  0.5790489197297005  0.3504658322817665  0.6364908996231531   T   T   T
  0.5027914829217804  0.4260173041303501  0.6419953839786104   T   T   T
  0.7306034036472273  0.4998672276480130  0.4850497541593947   T   T   T
  0.3458169799084572  0.5030479628879382  0.4079959772837736   T   T   T
  0.7094097742046437  0.6247339816245927  0.4676967807926272   T   T   T
 
  0.00000000E+00  0.00000000E+00  0.00000000E+00
  0.00000000E+00  0.00000000E+00  0.00000000E+00
  0.00000000E+00  0.00000000E+00  0.00000000E+00
  0.00000000E+00  0.00000000E+00  0.00000000E+00
  0.00000000E+00  0.00000000E+00  0.00000000E+00
  0.00000000E+00  0.00000000E+00  0.00000000E+00
  0.00000000E+00  0.00000000E+00  0.00000000E+00
  0.00000000E+00  0.00000000E+00  0.00000000E+00
  0.00000000E+00  0.00000000E+00  0.00000000E+00
  0.00000000E+00  0.00000000E+00  0.00000000E+00
  0.00000000E+00  0.00000000E+00  0.00000000E+00
  0.00000000E+00  0.00000000E+00  0.00000000E+00
  0.00000000E+00  0.00000000E+00  0.00000000E+00
  0.00000000E+00  0.00000000E+00  0.00000000E+00
  0.00000000E+00  0.00000000E+00  0.00000000E+00
  0.00000000E+00  0.00000000E+00  0.00000000E+00
  0.00000000E+00  0.00000000E+00  0.00000000E+00
  0.00000000E+00  0.00000000E+00  0.00000000E+00
  0.00000000E+00  0.00000000E+00  0.00000000E+00
  0.00000000E+00  0.00000000E+00  0.00000000E+00
  0.00000000E+00  0.00000000E+00  0.00000000E+00
  0.00000000E+00  0.00000000E+00  0.00000000E+00
  0.00000000E+00  0.00000000E+00  0.00000000E+00
  0.00000000E+00  0.00000000E+00  0.00000000E+00
  0.00000000E+00  0.00000000E+00  0.00000000E+00
  0.00000000E+00  0.00000000E+00  0.00000000E+00
  0.00000000E+00  0.00000000E+00  0.00000000E+00
  0.00000000E+00  0.00000000E+00  0.00000000E+00
  0.00000000E+00  0.00000000E+00  0.00000000E+00
  0.00000000E+00  0.00000000E+00  0.00000000E+00
  0.00000000E+00  0.00000000E+00  0.00000000E+00
  0.00000000E+00  0.00000000E+00  0.00000000E+00
  0.00000000E+00  0.00000000E+00  0.00000000E+00
  0.00000000E+00  0.00000000E+00  0.00000000E+00
  0.00000000E+00  0.00000000E+00  0.00000000E+00
  0.00000000E+00  0.00000000E+00  0.00000000E+00
  0.00000000E+00  0.00000000E+00  0.00000000E+00
  0.00000000E+00  0.00000000E+00  0.00000000E+00
  0.00000000E+00  0.00000000E+00  0.00000000E+00
  0.00000000E+00  0.00000000E+00  0.00000000E+00
  0.00000000E+00  0.00000000E+00  0.00000000E+00
  0.00000000E+00  0.00000000E+00  0.00000000E+00
  0.00000000E+00  0.00000000E+00  0.00000000E+00
  0.00000000E+00  0.00000000E+00  0.00000000E+00
  0.00000000E+00  0.00000000E+00  0.00000000E+00
  0.00000000E+00  0.00000000E+00  0.00000000E+00
  0.00000000E+00  0.00000000E+00  0.00000000E+00
  0.00000000E+00  0.00000000E+00  0.00000000E+00
  0.00000000E+00  0.00000000E+00  0.00000000E+00
  0.00000000E+00  0.00000000E+00  0.00000000E+00
  0.00000000E+00  0.00000000E+00  0.00000000E+00
  0.00000000E+00  0.00000000E+00  0.00000000E+00
  0.00000000E+00  0.00000000E+00  0.00000000E+00
  0.00000000E+00  0.00000000E+00  0.00000000E+00
  0.00000000E+00  0.00000000E+00  0.00000000E+00
  0.00000000E+00  0.00000000E+00  0.00000000E+00
  0.00000000E+00  0.00000000E+00  0.00000000E+00
  0.00000000E+00  0.00000000E+00  0.00000000E+00
  0.00000000E+00  0.00000000E+00  0.00000000E+00
  0.00000000E+00  0.00000000E+00  0.00000000E+00
  0.00000000E+00  0.00000000E+00  0.00000000E+00
  0.00000000E+00  0.00000000E+00  0.00000000E+00
  0.00000000E+00  0.00000000E+00  0.00000000E+00
  0.00000000E+00  0.00000000E+00  0.00000000E+00
  0.00000000E+00  0.00000000E+00  0.00000000E+00
  0.00000000E+00  0.00000000E+00  0.00000000E+00
  0.00000000E+00  0.00000000E+00  0.00000000E+00
  0.00000000E+00  0.00000000E+00  0.00000000E+00
  0.00000000E+00  0.00000000E+00  0.00000000E+00
