Bi H                                    
   1.00000000000000     
    29.0000000000000000    0.0000000000000000    0.0000000000000000
     0.0000000000000000   29.0000000000000000    0.0000000000000000
     0.0000000000000000    0.0000000000000000   29.0000000000000000
   Bi   H 
    68     1
Selective dynamics
Direct
  0.5033291758440156  0.5032654877961241  0.7119198862268327   T   T   T
  0.3507305874482335  0.6549985116774693  0.4071038274573262   T   T   T
  0.3452504719504468  0.5801531978737526  0.4841434970041196   T   T   T
  0.5811467705906068  0.4246732054093982  0.4064932224093951   F   F   F
  0.4244332074093933  0.4246732054093982  0.5632067865906052   F   F   F
  0.6605401036860664  0.5790932093851944  0.4847612158118458   T   T   T
  0.4247413569742352  0.5019650650759105  0.3284396374495313   T   T   T
  0.4251097110397343  0.3472657135984318  0.4854524378935236   T   T   T
  0.5802821518571759  0.5032826850877136  0.6424523377076229   T   T   T
  0.3503497769236696  0.4269038590478526  0.6363145136270730   T   T   T
  0.5021695561346934  0.6597670666622033  0.5621663911657960   T   T   T
  0.5792410533818041  0.3498765005142503  0.3334242781731068   T   T   T
  0.4245862252276692  0.6598383667689245  0.4847859849268791   T   T   T
  0.4249204990466318  0.6525717373073876  0.3313338188067114   T   T   T
  0.6597926668314122  0.5024235913379048  0.5625129778537047   T   T   T
  0.6540155022600445  0.5778797437824982  0.3323007890971503   T   T   T
  0.6542498472135039  0.3498043432071495  0.5616471885334494   T   T   T
  0.5027899740000024  0.4274945535347072  0.4848499889999971   F   F   F
  0.3444886751049828  0.4259891361998408  0.4858664645569226   T   T   T
  0.5027899740000024  0.5785654504652982  0.4848499889999971   F   F   F
  0.5027899740000024  0.5030300020000027  0.5603854384652962   F   F   F
  0.4254769713038842  0.6541939663171029  0.6380967802223442   T   T   T
  0.5783254224652978  0.5030300020000027  0.4848499889999971   F   F   F
  0.5021302280028502  0.3459841310156354  0.5621081092435369   T   T   T
  0.2749482294680130  0.5042125393880282  0.4854458328147850   T   T   T
  0.3458652630945259  0.5032744174422271  0.5614741136430331   T   T   T
  0.5016758396569765  0.5002251690321275  0.2580428368340078   T   T   T
  0.3518701399640433  0.4285894442653975  0.3298167949056992   T   T   T
  0.6544947105177326  0.4247012587150361  0.3327714160340178   T   T   T
  0.6599781902447003  0.5022167571752190  0.4078932865034797   T   T   T
  0.4244332074093933  0.4246732054093982  0.4064932224093951   F   F   F
  0.4244332074093933  0.5813867985906072  0.4064932224093951   F   F   F
  0.5811467705906068  0.5813867985906072  0.4064932224093951   F   F   F
  0.5023459344396490  0.6593475814653897  0.4067709766936129   T   T   T
  0.5018562778315130  0.7289281450211624  0.4843806937031467   T   T   T
  0.3506731301621254  0.6542837897760826  0.5623381740876641   T   T   T
  0.6592122269068734  0.4248386475021936  0.4849897326120325   T   T   T
  0.3476380937055813  0.3480075187005394  0.4106897710846801   T   T   T
  0.3494320608762025  0.5780179068720857  0.3333324795487563   T   T   T
  0.4251490622688061  0.3514327180962761  0.6370130415623932   T   T   T
  0.6542856917182694  0.4251509596849318  0.6367998910012838   T   T   T
  0.5811467705906068  0.5813867985906072  0.5632067865906052   F   F   F
  0.5018491677714536  0.4237299759973220  0.3282129628443456   T   T   T
  0.5027899740000024  0.5030300020000027  0.4093145705347041   F   F   F
  0.6547322218726727  0.6545048736445350  0.5603889502487948   T   T   T
  0.5033761140870273  0.5803390741987946  0.6423724166192541   T   T   T
  0.4244332074093933  0.5813867985906072  0.5632067865906052   F   F   F
  0.4260078584572867  0.5031972937598056  0.6418519424401208   T   T   T
  0.5795809577787417  0.5012535290720433  0.3272314898170058   T   T   T
  0.6541273691708117  0.3499362452445638  0.4083508799234200   T   T   T
  0.5811467705906068  0.4246732054093982  0.5632067865906052   F   F   F
  0.3508611445223647  0.5799231147308831  0.6376716975049541   T   T   T
  0.5006074431340261  0.2757684251613637  0.4854973901838671   T   T   T
  0.6545995729816935  0.5803923243629372  0.6365861363964705   T   T   T
  0.3499000518440886  0.3509566002628471  0.5619700197163111   T   T   T
  0.5028323351665717  0.5791285125059175  0.3265046564599043   T   T   T
  0.6549979679610431  0.6533168239251520  0.4081223191405348   T   T   T
  0.5790742801008945  0.6526025720408432  0.3312687327045259   T   T   T
  0.5790219779344981  0.3446668073298138  0.4850967282547886   T   T   T
  0.4272545555347023  0.5030300020000027  0.4848499889999971   F   F   F
  0.5793937984540902  0.6595534988355709  0.4841959756194228   T   T   T
  0.5796611568471509  0.6561418395561793  0.6358077709343568   T   T   T
  0.5024389537592605  0.3451429104489129  0.4085141440235024   T   T   T
  0.4223329899886869  0.3494483029834210  0.3358721838698474   T   T   T
  0.5795901677051571  0.3500368243658103  0.6361058813517376   T   T   T
  0.5029188130999961  0.4260605848993266  0.6419516714786453   T   T   T
  0.7295612987065865  0.5010987410208584  0.4853224362851930   T   T   T
  0.3446908217989058  0.5011987458403249  0.4079456271637470   T   T   T
  0.3450765632520716  0.2903394471122913  0.4408284324658897   T   T   T
 
  0.00000000E+00  0.00000000E+00  0.00000000E+00
  0.00000000E+00  0.00000000E+00  0.00000000E+00
  0.00000000E+00  0.00000000E+00  0.00000000E+00
  0.00000000E+00  0.00000000E+00  0.00000000E+00
  0.00000000E+00  0.00000000E+00  0.00000000E+00
  0.00000000E+00  0.00000000E+00  0.00000000E+00
  0.00000000E+00  0.00000000E+00  0.00000000E+00
  0.00000000E+00  0.00000000E+00  0.00000000E+00
  0.00000000E+00  0.00000000E+00  0.00000000E+00
  0.00000000E+00  0.00000000E+00  0.00000000E+00
  0.00000000E+00  0.00000000E+00  0.00000000E+00
  0.00000000E+00  0.00000000E+00  0.00000000E+00
  0.00000000E+00  0.00000000E+00  0.00000000E+00
  0.00000000E+00  0.00000000E+00  0.00000000E+00
  0.00000000E+00  0.00000000E+00  0.00000000E+00
  0.00000000E+00  0.00000000E+00  0.00000000E+00
  0.00000000E+00  0.00000000E+00  0.00000000E+00
  0.00000000E+00  0.00000000E+00  0.00000000E+00
  0.00000000E+00  0.00000000E+00  0.00000000E+00
  0.00000000E+00  0.00000000E+00  0.00000000E+00
  0.00000000E+00  0.00000000E+00  0.00000000E+00
  0.00000000E+00  0.00000000E+00  0.00000000E+00
  0.00000000E+00  0.00000000E+00  0.00000000E+00
  0.00000000E+00  0.00000000E+00  0.00000000E+00
  0.00000000E+00  0.00000000E+00  0.00000000E+00
  0.00000000E+00  0.00000000E+00  0.00000000E+00
  0.00000000E+00  0.00000000E+00  0.00000000E+00
  0.00000000E+00  0.00000000E+00  0.00000000E+00
  0.00000000E+00  0.00000000E+00  0.00000000E+00
  0.00000000E+00  0.00000000E+00  0.00000000E+00
  0.00000000E+00  0.00000000E+00  0.00000000E+00
  0.00000000E+00  0.00000000E+00  0.00000000E+00
  0.00000000E+00  0.00000000E+00  0.00000000E+00
  0.00000000E+00  0.00000000E+00  0.00000000E+00
  0.00000000E+00  0.00000000E+00  0.00000000E+00
  0.00000000E+00  0.00000000E+00  0.00000000E+00
  0.00000000E+00  0.00000000E+00  0.00000000E+00
  0.00000000E+00  0.00000000E+00  0.00000000E+00
  0.00000000E+00  0.00000000E+00  0.00000000E+00
  0.00000000E+00  0.00000000E+00  0.00000000E+00
  0.00000000E+00  0.00000000E+00  0.00000000E+00
  0.00000000E+00  0.00000000E+00  0.00000000E+00
  0.00000000E+00  0.00000000E+00  0.00000000E+00
  0.00000000E+00  0.00000000E+00  0.00000000E+00
  0.00000000E+00  0.00000000E+00  0.00000000E+00
  0.00000000E+00  0.00000000E+00  0.00000000E+00
  0.00000000E+00  0.00000000E+00  0.00000000E+00
  0.00000000E+00  0.00000000E+00  0.00000000E+00
  0.00000000E+00  0.00000000E+00  0.00000000E+00
  0.00000000E+00  0.00000000E+00  0.00000000E+00
  0.00000000E+00  0.00000000E+00  0.00000000E+00
  0.00000000E+00  0.00000000E+00  0.00000000E+00
  0.00000000E+00  0.00000000E+00  0.00000000E+00
  0.00000000E+00  0.00000000E+00  0.00000000E+00
  0.00000000E+00  0.00000000E+00  0.00000000E+00
  0.00000000E+00  0.00000000E+00  0.00000000E+00
  0.00000000E+00  0.00000000E+00  0.00000000E+00
  0.00000000E+00  0.00000000E+00  0.00000000E+00
  0.00000000E+00  0.00000000E+00  0.00000000E+00
  0.00000000E+00  0.00000000E+00  0.00000000E+00
  0.00000000E+00  0.00000000E+00  0.00000000E+00
  0.00000000E+00  0.00000000E+00  0.00000000E+00
  0.00000000E+00  0.00000000E+00  0.00000000E+00
  0.00000000E+00  0.00000000E+00  0.00000000E+00
  0.00000000E+00  0.00000000E+00  0.00000000E+00
  0.00000000E+00  0.00000000E+00  0.00000000E+00
  0.00000000E+00  0.00000000E+00  0.00000000E+00
  0.00000000E+00  0.00000000E+00  0.00000000E+00
  0.00000000E+00  0.00000000E+00  0.00000000E+00
