Bi H                                    
   1.00000000000000     
    29.0000000000000000    0.0000000000000000    0.0000000000000000
     0.0000000000000000   29.0000000000000000    0.0000000000000000
     0.0000000000000000    0.0000000000000000   29.0000000000000000
   Bi   H 
    68     1
Selective dynamics
Direct
  0.5032606231993287  0.5032678908580968  0.7118170060592827   T   T   T
  0.3505300837800851  0.6547022929523417  0.4078799640963055   T   T   T
  0.3460108355856284  0.5801290898612186  0.4849249551507337   T   T   T
  0.5811467705906068  0.4246732054093982  0.4064932224093951   F   F   F
  0.4244332074093933  0.4246732054093982  0.5632067865906052   F   F   F
  0.6608824820316941  0.5808794298428588  0.4847375001263509   T   T   T
  0.4256763566586135  0.5027574297415242  0.3277701453260810   T   T   T
  0.4247277994336218  0.3463983650974033  0.4850319376713382   T   T   T
  0.5800022722782263  0.5028736063093507  0.6420095349213589   T   T   T
  0.3511382760092828  0.4259412328539269  0.6374256908829454   T   T   T
  0.5024969382198774  0.6600724111766668  0.5615006744203518   T   T   T
  0.5793795307120266  0.3514561345102002  0.3327831834332769   T   T   T
  0.4254835344578323  0.6603498242162097  0.4847888081949762   T   T   T
  0.4264438534002212  0.6553392598079995  0.3330912664713235   T   T   T
  0.6601809088102152  0.5031393042335778  0.5615405959773234   T   T   T
  0.6545839141360463  0.5800068886075856  0.3329706685493314   T   T   T
  0.6546434471819543  0.3509595427809559  0.5615665873213768   T   T   T
  0.5027899740000024  0.4274945535347072  0.4848499889999971   F   F   F
  0.3420815108946763  0.4262510085964027  0.4847161308836722   T   T   T
  0.5027899740000024  0.5785654504652982  0.4848499889999971   F   F   F
  0.5027899740000024  0.5030300020000027  0.5603854384652962   F   F   F
  0.4261439817423112  0.6548975636629171  0.6369661951069350   T   T   T
  0.5783254224652978  0.5030300020000027  0.4848499889999971   F   F   F
  0.5025517289667498  0.3458247591846030  0.5619212165092764   T   T   T
  0.2746351276616855  0.5062623735167461  0.4847162236994520   T   T   T
  0.3447479057979749  0.5026287969651041  0.5623550752481520   T   T   T
  0.5030687961117939  0.5028948688817023  0.2575824026515949   T   T   T
  0.3510528342971110  0.4260348197403033  0.3325748985659094   T   T   T
  0.6551703769476280  0.4258425207228547  0.3332405991455361   T   T   T
  0.6600838855199486  0.5032665230574426  0.4078372322758505   T   T   T
  0.4244332074093933  0.4246732054093982  0.4064932224093951   F   F   F
  0.4244332074093933  0.5813867985906072  0.4064932224093951   F   F   F
  0.5811467705906068  0.5813867985906072  0.4064932224093951   F   F   F
  0.5026624952687474  0.6601254578861281  0.4081286765950087   T   T   T
  0.5034002150395716  0.7302226539469948  0.4848670453603705   T   T   T
  0.3505720196653663  0.6546962722079045  0.5618026380662833   T   T   T
  0.6602695651731929  0.4255819629979697  0.4847556989648487   T   T   T
  0.3510624550080010  0.3506390831227634  0.4070104599992938   T   T   T
  0.3511844545751992  0.5801951940233888  0.3328690203996713   T   T   T
  0.4256926541808864  0.3501234966632504  0.6367464083259701   T   T   T
  0.6548983961390314  0.4259027287924272  0.6366690189137753   T   T   T
  0.5811467705906068  0.5813867985906072  0.5632067865906052   F   F   F
  0.5025592575506584  0.4260104845756285  0.3274466969574358   T   T   T
  0.5027899740000024  0.5030300020000027  0.4093145705347041   F   F   F
  0.6551024136396049  0.6550012715776351  0.5620102357687120   T   T   T
  0.5029680724256387  0.5801176605675518  0.6420293957332558   T   T   T
  0.4244332074093933  0.5813867985906072  0.5632067865906052   F   F   F
  0.4256260793032132  0.5030009944646268  0.6419681759657462   T   T   T
  0.5800779995473718  0.5028040219943314  0.3274588995434630   T   T   T
  0.6546270008943473  0.3509101492287604  0.4081847990190041   T   T   T
  0.5811467705906068  0.4246732054093982  0.5632067865906052   F   F   F
  0.3508881921001853  0.5799499771263523  0.6368418967179805   T   T   T
  0.5019899149647944  0.2764106278359338  0.4848731954788974   T   T   T
  0.6545089498609973  0.5799925578642232  0.6366790720859167   T   T   T
  0.3512842329654406  0.3503152012553893  0.5631592303622767   T   T   T
  0.5029119727176350  0.5800278497319303  0.3276950286528180   T   T   T
  0.6549809516407337  0.6549963483435657  0.4077651812958886   T   T   T
  0.5791472826223198  0.6551643850426512  0.3330130744836116   T   T   T
  0.5796906634011851  0.3459522833762839  0.4849769263740984   T   T   T
  0.4272545555347023  0.5030300020000027  0.4848499889999971   F   F   F
  0.5803882954987546  0.6603243012029579  0.4848896740853123   T   T   T
  0.5793141059145716  0.6550479509527852  0.6367270702590641   T   T   T
  0.5025623573058022  0.3461556183161155  0.4080045780026245   T   T   T
  0.4259060287622013  0.3501833677049052  0.3332509399748086   T   T   T
  0.5793717998052180  0.3511658668244294  0.6367843797526426   T   T   T
  0.5024629253973967  0.4262417287787637  0.6418758858128453   T   T   T
  0.7299865451918135  0.5030496236228810  0.4847486452410478   T   T   T
  0.3448087957764180  0.5029696461669471  0.4071610121608513   T   T   T
  0.2926451625405977  0.3831649902945534  0.4926261016364337   T   T   T
 
  0.00000000E+00  0.00000000E+00  0.00000000E+00
  0.00000000E+00  0.00000000E+00  0.00000000E+00
  0.00000000E+00  0.00000000E+00  0.00000000E+00
  0.00000000E+00  0.00000000E+00  0.00000000E+00
  0.00000000E+00  0.00000000E+00  0.00000000E+00
  0.00000000E+00  0.00000000E+00  0.00000000E+00
  0.00000000E+00  0.00000000E+00  0.00000000E+00
  0.00000000E+00  0.00000000E+00  0.00000000E+00
  0.00000000E+00  0.00000000E+00  0.00000000E+00
  0.00000000E+00  0.00000000E+00  0.00000000E+00
  0.00000000E+00  0.00000000E+00  0.00000000E+00
  0.00000000E+00  0.00000000E+00  0.00000000E+00
  0.00000000E+00  0.00000000E+00  0.00000000E+00
  0.00000000E+00  0.00000000E+00  0.00000000E+00
  0.00000000E+00  0.00000000E+00  0.00000000E+00
  0.00000000E+00  0.00000000E+00  0.00000000E+00
  0.00000000E+00  0.00000000E+00  0.00000000E+00
  0.00000000E+00  0.00000000E+00  0.00000000E+00
  0.00000000E+00  0.00000000E+00  0.00000000E+00
  0.00000000E+00  0.00000000E+00  0.00000000E+00
  0.00000000E+00  0.00000000E+00  0.00000000E+00
  0.00000000E+00  0.00000000E+00  0.00000000E+00
  0.00000000E+00  0.00000000E+00  0.00000000E+00
  0.00000000E+00  0.00000000E+00  0.00000000E+00
  0.00000000E+00  0.00000000E+00  0.00000000E+00
  0.00000000E+00  0.00000000E+00  0.00000000E+00
  0.00000000E+00  0.00000000E+00  0.00000000E+00
  0.00000000E+00  0.00000000E+00  0.00000000E+00
  0.00000000E+00  0.00000000E+00  0.00000000E+00
  0.00000000E+00  0.00000000E+00  0.00000000E+00
  0.00000000E+00  0.00000000E+00  0.00000000E+00
  0.00000000E+00  0.00000000E+00  0.00000000E+00
  0.00000000E+00  0.00000000E+00  0.00000000E+00
  0.00000000E+00  0.00000000E+00  0.00000000E+00
  0.00000000E+00  0.00000000E+00  0.00000000E+00
  0.00000000E+00  0.00000000E+00  0.00000000E+00
  0.00000000E+00  0.00000000E+00  0.00000000E+00
  0.00000000E+00  0.00000000E+00  0.00000000E+00
  0.00000000E+00  0.00000000E+00  0.00000000E+00
  0.00000000E+00  0.00000000E+00  0.00000000E+00
  0.00000000E+00  0.00000000E+00  0.00000000E+00
  0.00000000E+00  0.00000000E+00  0.00000000E+00
  0.00000000E+00  0.00000000E+00  0.00000000E+00
  0.00000000E+00  0.00000000E+00  0.00000000E+00
  0.00000000E+00  0.00000000E+00  0.00000000E+00
  0.00000000E+00  0.00000000E+00  0.00000000E+00
  0.00000000E+00  0.00000000E+00  0.00000000E+00
  0.00000000E+00  0.00000000E+00  0.00000000E+00
  0.00000000E+00  0.00000000E+00  0.00000000E+00
  0.00000000E+00  0.00000000E+00  0.00000000E+00
  0.00000000E+00  0.00000000E+00  0.00000000E+00
  0.00000000E+00  0.00000000E+00  0.00000000E+00
  0.00000000E+00  0.00000000E+00  0.00000000E+00
  0.00000000E+00  0.00000000E+00  0.00000000E+00
  0.00000000E+00  0.00000000E+00  0.00000000E+00
  0.00000000E+00  0.00000000E+00  0.00000000E+00
  0.00000000E+00  0.00000000E+00  0.00000000E+00
  0.00000000E+00  0.00000000E+00  0.00000000E+00
  0.00000000E+00  0.00000000E+00  0.00000000E+00
  0.00000000E+00  0.00000000E+00  0.00000000E+00
  0.00000000E+00  0.00000000E+00  0.00000000E+00
  0.00000000E+00  0.00000000E+00  0.00000000E+00
  0.00000000E+00  0.00000000E+00  0.00000000E+00
  0.00000000E+00  0.00000000E+00  0.00000000E+00
  0.00000000E+00  0.00000000E+00  0.00000000E+00
  0.00000000E+00  0.00000000E+00  0.00000000E+00
  0.00000000E+00  0.00000000E+00  0.00000000E+00
  0.00000000E+00  0.00000000E+00  0.00000000E+00
  0.00000000E+00  0.00000000E+00  0.00000000E+00
