Bi H                                    
   1.00000000000000     
    29.0000000000000000    0.0000000000000000    0.0000000000000000
     0.0000000000000000   29.0000000000000000    0.0000000000000000
     0.0000000000000000    0.0000000000000000   29.0000000000000000
   Bi   H 
    68     1
Selective dynamics
Direct
  0.5032613348707958  0.5045983895802817  0.7119488215224787   T   T   T
  0.3493055301418596  0.6532904912592811  0.4078128890240224   T   T   T
  0.3456340237895997  0.5785780172459540  0.4846735354670239   T   T   T
  0.5811467705906068  0.4246732054093982  0.4064932224093951   F   F   F
  0.4244332074093933  0.4246732054093982  0.5632067865906052   F   F   F
  0.6591543740638268  0.5796062745962247  0.4848242001174553   T   T   T
  0.4259611085967501  0.5043358201252779  0.3266084559870132   T   T   T
  0.4231564181253837  0.3468568251510890  0.4844401511152442   T   T   T
  0.5801649268390551  0.5036907724493529  0.6424042491214262   T   T   T
  0.3515995240798226  0.4272650163716257  0.6386992749991414   T   T   T
  0.5021169892448191  0.6610014109622926  0.5619210585201461   T   T   T
  0.5767685005539167  0.3509400054839785  0.3315376086035400   T   T   T
  0.4246292790934891  0.6594900911227582  0.4849392026329243   T   T   T
  0.4245466467037495  0.6534954755720859  0.3325605836189672   T   T   T
  0.6594884694588359  0.5016310369648290  0.5614443433586608   T   T   T
  0.6547134128246715  0.5806898982409403  0.3333799821052667   T   T   T
  0.6512820093123109  0.3480110804837075  0.5610760363667588   T   T   T
  0.5027899740000024  0.4274945535347072  0.4848499889999971   F   F   F
  0.3447156713774135  0.4259066641672902  0.4849152878844297   T   T   T
  0.5027899740000024  0.5785654504652982  0.4848499889999971   F   F   F
  0.5027899740000024  0.5030300020000027  0.5603854384652962   F   F   F
  0.4249067360388991  0.6549023411616497  0.6362795849805158   T   T   T
  0.5783254224652978  0.5030300020000027  0.4848499889999971   F   F   F
  0.5007700349716953  0.3461841175101734  0.5620179014138662   T   T   T
  0.2754305570600435  0.5022131879736028  0.4834020764948503   T   T   T
  0.3447500340481757  0.5027340941038654  0.5621042661126164   T   T   T
  0.5044473336276691  0.5031608405052839  0.2569125482103730   T   T   T
  0.3485641669142513  0.4281766787049623  0.3285333599331222   T   T   T
  0.6539128746532646  0.4247942254776196  0.3327482299554159   T   T   T
  0.6595385000837636  0.5024350518957300  0.4069224151375352   T   T   T
  0.4244332074093933  0.4246732054093982  0.4064932224093951   F   F   F
  0.4244332074093933  0.5813867985906072  0.4064932224093951   F   F   F
  0.5811467705906068  0.5813867985906072  0.4064932224093951   F   F   F
  0.5020732078120099  0.6595352343011922  0.4072629959068148   T   T   T
  0.5013934575677848  0.7297757040347208  0.4841279843765489   T   T   T
  0.3486776295230740  0.6531209574744984  0.5615346546622511   T   T   T
  0.6589946026296082  0.4238297485642941  0.4845526323535407   T   T   T
  0.3492748732447279  0.3544535852681209  0.4035148343817772   T   T   T
  0.3491463318807088  0.5783972391898295  0.3324283584579111   T   T   T
  0.4262073748553727  0.3519265100750874  0.6386688770066267   T   T   T
  0.6523420951181528  0.4251387187045640  0.6371122079545960   T   T   T
  0.5811467705906068  0.5813867985906072  0.5632067865906052   F   F   F
  0.5014189467998738  0.4259937063382030  0.3269249906337755   T   T   T
  0.5027899740000024  0.5030300020000027  0.4093145705347041   F   F   F
  0.6552278682205315  0.6559923255051694  0.5595828517278587   T   T   T
  0.5030357631675652  0.5816466651844427  0.6420262617751690   T   T   T
  0.4244332074093933  0.5813867985906072  0.5632067865906052   F   F   F
  0.4263646267839108  0.5037416508303162  0.6417163943054095   T   T   T
  0.5803913901035413  0.5028015999007491  0.3269775112788055   T   T   T
  0.6516517035993672  0.3487347455068627  0.4069687508186663   T   T   T
  0.5811467705906068  0.4246732054093982  0.5632067865906052   F   F   F
  0.3500366633246582  0.5792738623952893  0.6369237875345617   T   T   T
  0.4991902519446410  0.2763949262750701  0.4845297187176156   T   T   T
  0.6548902105493315  0.5801604534819828  0.6349700861270640   T   T   T
  0.3502601678724067  0.3526353535148299  0.5637159988911372   T   T   T
  0.5030547145287120  0.5796074398441075  0.3274796682219587   T   T   T
  0.6543891586961015  0.6563103373888743  0.4088375413100194   T   T   T
  0.5806254377919966  0.6560940271463257  0.3339109049668993   T   T   T
  0.5786026016951982  0.3444171709418991  0.4847753502359917   T   T   T
  0.4272545555347023  0.5030300020000027  0.4848499889999971   F   F   F
  0.5791706608087772  0.6605159712548030  0.4849469187041107   T   T   T
  0.5802479135493740  0.6561075976647959  0.6353341942212097   T   T   T
  0.5014900720115986  0.3465735066069406  0.4071809215479940   T   T   T
  0.4293288499085360  0.3480935871850686  0.3331144746320950   T   T   T
  0.5769336347647851  0.3498688153004851  0.6365735399262673   T   T   T
  0.5031717147749906  0.4269073852187538  0.6424229308679988   T   T   T
  0.7285795263658806  0.5013428714180631  0.4838150087904598   T   T   T
  0.3464707282011149  0.5019770745166059  0.4067061045658985   T   T   T
  0.2890857723854619  0.4490987953273205  0.3142208409919673   T   T   T
 
  0.00000000E+00  0.00000000E+00  0.00000000E+00
  0.00000000E+00  0.00000000E+00  0.00000000E+00
  0.00000000E+00  0.00000000E+00  0.00000000E+00
  0.00000000E+00  0.00000000E+00  0.00000000E+00
  0.00000000E+00  0.00000000E+00  0.00000000E+00
  0.00000000E+00  0.00000000E+00  0.00000000E+00
  0.00000000E+00  0.00000000E+00  0.00000000E+00
  0.00000000E+00  0.00000000E+00  0.00000000E+00
  0.00000000E+00  0.00000000E+00  0.00000000E+00
  0.00000000E+00  0.00000000E+00  0.00000000E+00
  0.00000000E+00  0.00000000E+00  0.00000000E+00
  0.00000000E+00  0.00000000E+00  0.00000000E+00
  0.00000000E+00  0.00000000E+00  0.00000000E+00
  0.00000000E+00  0.00000000E+00  0.00000000E+00
  0.00000000E+00  0.00000000E+00  0.00000000E+00
  0.00000000E+00  0.00000000E+00  0.00000000E+00
  0.00000000E+00  0.00000000E+00  0.00000000E+00
  0.00000000E+00  0.00000000E+00  0.00000000E+00
  0.00000000E+00  0.00000000E+00  0.00000000E+00
  0.00000000E+00  0.00000000E+00  0.00000000E+00
  0.00000000E+00  0.00000000E+00  0.00000000E+00
  0.00000000E+00  0.00000000E+00  0.00000000E+00
  0.00000000E+00  0.00000000E+00  0.00000000E+00
  0.00000000E+00  0.00000000E+00  0.00000000E+00
  0.00000000E+00  0.00000000E+00  0.00000000E+00
  0.00000000E+00  0.00000000E+00  0.00000000E+00
  0.00000000E+00  0.00000000E+00  0.00000000E+00
  0.00000000E+00  0.00000000E+00  0.00000000E+00
  0.00000000E+00  0.00000000E+00  0.00000000E+00
  0.00000000E+00  0.00000000E+00  0.00000000E+00
  0.00000000E+00  0.00000000E+00  0.00000000E+00
  0.00000000E+00  0.00000000E+00  0.00000000E+00
  0.00000000E+00  0.00000000E+00  0.00000000E+00
  0.00000000E+00  0.00000000E+00  0.00000000E+00
  0.00000000E+00  0.00000000E+00  0.00000000E+00
  0.00000000E+00  0.00000000E+00  0.00000000E+00
  0.00000000E+00  0.00000000E+00  0.00000000E+00
  0.00000000E+00  0.00000000E+00  0.00000000E+00
  0.00000000E+00  0.00000000E+00  0.00000000E+00
  0.00000000E+00  0.00000000E+00  0.00000000E+00
  0.00000000E+00  0.00000000E+00  0.00000000E+00
  0.00000000E+00  0.00000000E+00  0.00000000E+00
  0.00000000E+00  0.00000000E+00  0.00000000E+00
  0.00000000E+00  0.00000000E+00  0.00000000E+00
  0.00000000E+00  0.00000000E+00  0.00000000E+00
  0.00000000E+00  0.00000000E+00  0.00000000E+00
  0.00000000E+00  0.00000000E+00  0.00000000E+00
  0.00000000E+00  0.00000000E+00  0.00000000E+00
  0.00000000E+00  0.00000000E+00  0.00000000E+00
  0.00000000E+00  0.00000000E+00  0.00000000E+00
  0.00000000E+00  0.00000000E+00  0.00000000E+00
  0.00000000E+00  0.00000000E+00  0.00000000E+00
  0.00000000E+00  0.00000000E+00  0.00000000E+00
  0.00000000E+00  0.00000000E+00  0.00000000E+00
  0.00000000E+00  0.00000000E+00  0.00000000E+00
  0.00000000E+00  0.00000000E+00  0.00000000E+00
  0.00000000E+00  0.00000000E+00  0.00000000E+00
  0.00000000E+00  0.00000000E+00  0.00000000E+00
  0.00000000E+00  0.00000000E+00  0.00000000E+00
  0.00000000E+00  0.00000000E+00  0.00000000E+00
  0.00000000E+00  0.00000000E+00  0.00000000E+00
  0.00000000E+00  0.00000000E+00  0.00000000E+00
  0.00000000E+00  0.00000000E+00  0.00000000E+00
  0.00000000E+00  0.00000000E+00  0.00000000E+00
  0.00000000E+00  0.00000000E+00  0.00000000E+00
  0.00000000E+00  0.00000000E+00  0.00000000E+00
  0.00000000E+00  0.00000000E+00  0.00000000E+00
  0.00000000E+00  0.00000000E+00  0.00000000E+00
  0.00000000E+00  0.00000000E+00  0.00000000E+00
