Sn O  C  H                              
   1.00000000000000     
    29.0000000000000000    0.0000000000000000    0.0000000000000000
     0.0000000000000000   29.0000000000000000    0.0000000000000000
     0.0000000000000000    0.0000000000000000   29.0000000000000000
   Sn   O    C    H 
    68     2     1     1
Selective dynamics
Direct
  0.5341986507344221  0.5258025353272183  0.7439059482413997   T   T   T
  0.3872904497061442  0.6684530579080671  0.4519919324826256   T   T   T
  0.3784348827696345  0.5961546699012087  0.5220188013106614   T   T   T
  0.6076089470065611  0.4504110489934376  0.4498710309934353   F   F   F
  0.4613510339934379  0.4504110489934376  0.5961189590065601   F   F   F
  0.6894915189958802  0.5971507855372260  0.5227914873187892   T   T   T
  0.4601119698757967  0.5230961396685968  0.3699916010495754   T   T   T
  0.4596831987387777  0.3695315038363254  0.5202091927567418   T   T   T
  0.6105051303433127  0.5239737090375649  0.6757075341443859   T   T   T
  0.3879953535631159  0.4514636163038777  0.6677027730687014   T   T   T
  0.5343979897399930  0.6791125487565073  0.5961288327148108   T   T   T
  0.6073452421136141  0.3769624356677840  0.3779844876788223   T   T   T
  0.4591495077498322  0.6777646164308401  0.5227465571785653   T   T   T
  0.4628153699261466  0.6719670560514416  0.3806219727941874   T   T   T
  0.6894849552277914  0.5240885974036901  0.5970880999214526   T   T   T
  0.6796922141532278  0.5951556736495007  0.3770013436095491   T   T   T
  0.6813871093160205  0.3776387770352820  0.5940402828065986   T   T   T
  0.5344799760000001  0.4444887396173627  0.5229899879999991   F   F   F
  0.3799839185432973  0.4495724080101606  0.5247618216409240   T   T   T
  0.5344799760000001  0.6025912403826368  0.5229899879999991   F   F   F
  0.5344799760000001  0.5235400199999987  0.6020412683826351   F   F   F
  0.4624961904076249  0.6715945709076002  0.6668067362434608   T   T   T
  0.6135312563826361  0.5235400199999987  0.5229899879999991   F   F   F
  0.5335580057014228  0.3690705874435420  0.5971687938639509   T   T   T
  0.3062845186014218  0.5207179113270962  0.5219086681753541   T   T   T
  0.3792318347069850  0.5253217271555616  0.5978974103498125   T   T   T
  0.5357337143249526  0.5287907727529614  0.3023115620334232   T   T   T
  0.3909314684824364  0.4504069433361873  0.3751883760961408   T   T   T
  0.6806720615967859  0.4514733599452725  0.3772834830938569   T   T   T
  0.6893437620022217  0.5234438038515282  0.4486383391885764   T   T   T
  0.4613510339934379  0.4504110489934376  0.4498710309934353   F   F   F
  0.4613510339934379  0.5966689310065618  0.4498710309934353   F   F   F
  0.6076089470065611  0.5966689310065618  0.4498710309934353   F   F   F
  0.5354945457864957  0.6800072826132645  0.4503706922212602   T   T   T
  0.5338388448813399  0.7520161929682310  0.5237442916363509   T   T   T
  0.3870525083674571  0.6665728077465704  0.5935634536483141   T   T   T
  0.6892635431220042  0.4489438309660958  0.5228777475918236   T   T   T
  0.3853664724814349  0.3810861746354062  0.4524366825574307   T   T   T
  0.3889968489050623  0.5946456096885244  0.3778140073895590   T   T   T
  0.4624894739937160  0.3780834186157976  0.6696213691705540   T   T   T
  0.6810762276828664  0.4518582709914366  0.6672967649472283   T   T   T
  0.6076089470065611  0.5966689310065618  0.5961189590065601   F   F   F
  0.5338252825097607  0.4452901885472013  0.3672458847714092   T   T   T
  0.5344799760000001  0.5235400199999987  0.4439487216173603   F   F   F
  0.6811675558724570  0.6687694711646710  0.5943814095549721   T   T   T
  0.5340122270919915  0.6008798903906154  0.6746079973386877   T   T   T
  0.4613510339934379  0.5966689310065618  0.5961189590065601   F   F   F
  0.4584239404876610  0.5229886079409417  0.6753736819829087   T   T   T
  0.6098410976924387  0.5224707341091350  0.3707281432455239   T   T   T
  0.6792139878543656  0.3771159743632913  0.4520939197955912   T   T   T
  0.6076089470065611  0.4504110489934376  0.5961189590065601   F   F   F
  0.3901632699690636  0.5966834076328625  0.6706011539863002   T   T   T
  0.5344373107801266  0.2957256125830194  0.5248380015669872   T   T   T
  0.6807287340004470  0.5960599303468900  0.6683836518031058   T   T   T
  0.3903436292363504  0.3768464080602250  0.5937217390091640   T   T   T
  0.5345467508812134  0.6014986461387947  0.3723538788992125   T   T   T
  0.6814352824993759  0.6682583206578273  0.4515688886650607   T   T   T
  0.6069167605289270  0.6710664091703132  0.3786481622171540   T   T   T
  0.6091332103282113  0.3689990861750539  0.5241373398835598   T   T   T
  0.4554287246173629  0.5235400199999987  0.5229899879999991   F   F   F
  0.6099031914120900  0.6775277356910063  0.5230120369289335   T   T   T
  0.6067740126626778  0.6709435455238195  0.6669315235456308   T   T   T
  0.5362804949058942  0.3684044539371581  0.4494094316960269   T   T   T
  0.4623105011573381  0.3739375499304215  0.3785507215928565   T   T   T
  0.6062249529605185  0.3767213703278611  0.6671088487636477   T   T   T
  0.5348414972815720  0.4476818862375306  0.6760440912622615   T   T   T
  0.7628008276926563  0.5214611794562212  0.5239485699923360   T   T   T
  0.3800843596205870  0.5222901808032983  0.4479050255823663   T   T   T
  0.5354832318907257  0.4211431218143349  0.2894157750633590   T   T   T
  0.4839868726289561  0.3616257199165811  0.2967415952015613   T   T   T
  0.5121432751887119  0.3866027631914190  0.2747579380962412   T   T   T
  0.5180666812938017  0.3776853616544475  0.2379017793467894   T   T   T
 
  0.00000000E+00  0.00000000E+00  0.00000000E+00
  0.00000000E+00  0.00000000E+00  0.00000000E+00
  0.00000000E+00  0.00000000E+00  0.00000000E+00
  0.00000000E+00  0.00000000E+00  0.00000000E+00
  0.00000000E+00  0.00000000E+00  0.00000000E+00
  0.00000000E+00  0.00000000E+00  0.00000000E+00
  0.00000000E+00  0.00000000E+00  0.00000000E+00
  0.00000000E+00  0.00000000E+00  0.00000000E+00
  0.00000000E+00  0.00000000E+00  0.00000000E+00
  0.00000000E+00  0.00000000E+00  0.00000000E+00
  0.00000000E+00  0.00000000E+00  0.00000000E+00
  0.00000000E+00  0.00000000E+00  0.00000000E+00
  0.00000000E+00  0.00000000E+00  0.00000000E+00
  0.00000000E+00  0.00000000E+00  0.00000000E+00
  0.00000000E+00  0.00000000E+00  0.00000000E+00
  0.00000000E+00  0.00000000E+00  0.00000000E+00
  0.00000000E+00  0.00000000E+00  0.00000000E+00
  0.00000000E+00  0.00000000E+00  0.00000000E+00
  0.00000000E+00  0.00000000E+00  0.00000000E+00
  0.00000000E+00  0.00000000E+00  0.00000000E+00
  0.00000000E+00  0.00000000E+00  0.00000000E+00
  0.00000000E+00  0.00000000E+00  0.00000000E+00
  0.00000000E+00  0.00000000E+00  0.00000000E+00
  0.00000000E+00  0.00000000E+00  0.00000000E+00
  0.00000000E+00  0.00000000E+00  0.00000000E+00
  0.00000000E+00  0.00000000E+00  0.00000000E+00
  0.00000000E+00  0.00000000E+00  0.00000000E+00
  0.00000000E+00  0.00000000E+00  0.00000000E+00
  0.00000000E+00  0.00000000E+00  0.00000000E+00
  0.00000000E+00  0.00000000E+00  0.00000000E+00
  0.00000000E+00  0.00000000E+00  0.00000000E+00
  0.00000000E+00  0.00000000E+00  0.00000000E+00
  0.00000000E+00  0.00000000E+00  0.00000000E+00
  0.00000000E+00  0.00000000E+00  0.00000000E+00
  0.00000000E+00  0.00000000E+00  0.00000000E+00
  0.00000000E+00  0.00000000E+00  0.00000000E+00
  0.00000000E+00  0.00000000E+00  0.00000000E+00
  0.00000000E+00  0.00000000E+00  0.00000000E+00
  0.00000000E+00  0.00000000E+00  0.00000000E+00
  0.00000000E+00  0.00000000E+00  0.00000000E+00
  0.00000000E+00  0.00000000E+00  0.00000000E+00
  0.00000000E+00  0.00000000E+00  0.00000000E+00
  0.00000000E+00  0.00000000E+00  0.00000000E+00
  0.00000000E+00  0.00000000E+00  0.00000000E+00
  0.00000000E+00  0.00000000E+00  0.00000000E+00
  0.00000000E+00  0.00000000E+00  0.00000000E+00
  0.00000000E+00  0.00000000E+00  0.00000000E+00
  0.00000000E+00  0.00000000E+00  0.00000000E+00
  0.00000000E+00  0.00000000E+00  0.00000000E+00
  0.00000000E+00  0.00000000E+00  0.00000000E+00
  0.00000000E+00  0.00000000E+00  0.00000000E+00
  0.00000000E+00  0.00000000E+00  0.00000000E+00
  0.00000000E+00  0.00000000E+00  0.00000000E+00
  0.00000000E+00  0.00000000E+00  0.00000000E+00
  0.00000000E+00  0.00000000E+00  0.00000000E+00
  0.00000000E+00  0.00000000E+00  0.00000000E+00
  0.00000000E+00  0.00000000E+00  0.00000000E+00
  0.00000000E+00  0.00000000E+00  0.00000000E+00
  0.00000000E+00  0.00000000E+00  0.00000000E+00
  0.00000000E+00  0.00000000E+00  0.00000000E+00
  0.00000000E+00  0.00000000E+00  0.00000000E+00
  0.00000000E+00  0.00000000E+00  0.00000000E+00
  0.00000000E+00  0.00000000E+00  0.00000000E+00
  0.00000000E+00  0.00000000E+00  0.00000000E+00
  0.00000000E+00  0.00000000E+00  0.00000000E+00
  0.00000000E+00  0.00000000E+00  0.00000000E+00
  0.00000000E+00  0.00000000E+00  0.00000000E+00
  0.00000000E+00  0.00000000E+00  0.00000000E+00
  0.00000000E+00  0.00000000E+00  0.00000000E+00
  0.00000000E+00  0.00000000E+00  0.00000000E+00
  0.00000000E+00  0.00000000E+00  0.00000000E+00
  0.00000000E+00  0.00000000E+00  0.00000000E+00
