Sn O  C  H                              
   1.00000000000000     
    29.0000000000000000    0.0000000000000000    0.0000000000000000
     0.0000000000000000   29.0000000000000000    0.0000000000000000
     0.0000000000000000    0.0000000000000000   29.0000000000000000
   Sn   O    C    H 
    68     2     1     1
Selective dynamics
Direct
  0.5340031503588830  0.5238375788111137  0.7496788756880276   T   T   T
  0.3875252469450899  0.6678671756942798  0.4510317689396165   T   T   T
  0.3798490219964561  0.5976668255648246  0.5239152796263161   T   T   T
  0.6076089470065611  0.4504110489934376  0.4498710309934353   F   F   F
  0.4613510339934379  0.4504110489934376  0.5961189590065601   F   F   F
  0.6882804865008532  0.5982508945252537  0.5242141915935965   T   T   T
  0.4600037408128680  0.5234831407266229  0.3684622477408964   T   T   T
  0.4584614466635856  0.3706770792132884  0.5237575907175401   T   T   T
  0.6080686613594656  0.5242195460668195  0.6783268159555647   T   T   T
  0.3899645275712679  0.4519362175235416  0.6704291745004621   T   T   T
  0.5343415503376834  0.6761633118693480  0.5993202537118530   T   T   T
  0.6061940627605730  0.3774292100064948  0.3768576683373722   T   T   T
  0.4580387591419877  0.6762199354153366  0.5229479513184569   T   T   T
  0.4624854360325842  0.6697570935300108  0.3776400456359746   T   T   T
  0.6874967390077115  0.5224349936988781  0.5993246988714102   T   T   T
  0.6798443794019435  0.5949691826379353  0.3767187695877156   T   T   T
  0.6806016447720515  0.3780922378109417  0.5949113711361074   T   T   T
  0.5344799760000001  0.4444887396173627  0.5229899879999991   F   F   F
  0.3811819229315264  0.4481472038059808  0.5233869735175777   T   T   T
  0.5344799760000001  0.6025912403826368  0.5229899879999991   F   F   F
  0.5344799760000001  0.5235400199999987  0.6020412683826351   F   F   F
  0.4619508932664563  0.6691361956307189  0.6694601680465712   T   T   T
  0.6135312563826361  0.5235400199999987  0.5229899879999991   F   F   F
  0.5322495279978846  0.3696917859892575  0.5989819614977244   T   T   T
  0.3095684448018873  0.5223907287614113  0.5230631748437655   T   T   T
  0.3802292663577396  0.5228566491549003  0.5983941662740633   T   T   T
  0.5348857956240894  0.5237353098904066  0.2970791364065031   T   T   T
  0.3886232341254466  0.4516961347846255  0.3765620506646153   T   T   T
  0.6798204775462695  0.4514328452757871  0.3770468872169427   T   T   T
  0.6883581959633983  0.5236641369214696  0.4478542839007970   T   T   T
  0.4613510339934379  0.4504110489934376  0.4498710309934353   F   F   F
  0.4613510339934379  0.5966689310065618  0.4498710309934353   F   F   F
  0.6076089470065611  0.5966689310065618  0.4498710309934353   F   F   F
  0.5346094504638289  0.6775062064418949  0.4475369345794766   T   T   T
  0.5332302737067108  0.7455526840847488  0.5240667535051198   T   T   T
  0.3879962177074877  0.6687468005478968  0.5957930579194909   T   T   T
  0.6883597660940293  0.4481765388692345  0.5222248597909230   T   T   T
  0.3887734667510378  0.3778255821818982  0.4500696350679074   T   T   T
  0.3888852928091402  0.5948961665717422  0.3767995877561993   T   T   T
  0.4615356596449108  0.3775931049742571  0.6729391998333711   T   T   T
  0.6768789534776013  0.4512716272202094  0.6712166565877911   T   T   T
  0.6076089470065611  0.5966689310065618  0.5961189590065601   F   F   F
  0.5351286745999457  0.4492914109235484  0.3686151282952145   T   T   T
  0.5344799760000001  0.5235400199999987  0.4439487216173603   F   F   F
  0.6797087467222289  0.6700528323550078  0.5955729725833037   T   T   T
  0.5342215461100431  0.5983098897011739  0.6778503897329121   T   T   T
  0.4613510339934379  0.5966689310065618  0.5961189590065601   F   F   F
  0.4608766854725182  0.5227916563860966  0.6777257263986609   T   T   T
  0.6091213677618887  0.5239373457069774  0.3684842620600128   T   T   T
  0.6788091020078888  0.3763839614155604  0.4510086249097545   T   T   T
  0.6076089470065611  0.4504110489934376  0.5961189590065601   F   F   F
  0.3891383691591965  0.5945363699347570  0.6693890355280906   T   T   T
  0.5336531204689847  0.3009193992727499  0.5229195369562318   T   T   T
  0.6801489422585321  0.5951940360516407  0.6693284044996597   T   T   T
  0.3886155537831192  0.3763404459567176  0.5972877493185310   T   T   T
  0.5340677697597914  0.5982466771567924  0.3681862920411647   T   T   T
  0.6806287512666993  0.6683919207372350  0.4517970717209742   T   T   T
  0.6062623953374420  0.6687591370722294  0.3767056363695007   T   T   T
  0.6091731836236834  0.3699248644124752  0.5245170229157211   T   T   T
  0.4554287246173629  0.5235400199999987  0.5229899879999991   F   F   F
  0.6098709159410887  0.6770808562765647  0.5227826023431029   T   T   T
  0.6063675751211998  0.6688592338147147  0.6697422555420688   T   T   T
  0.5343152115269005  0.3707290861625417  0.4476040120151421   T   T   T
  0.4628262706144263  0.3786334714621173  0.3762804151169500   T   T   T
  0.6050529033411122  0.3756151866615561  0.6677323062540660   T   T   T
  0.5354511226662343  0.4493201444282127  0.6781562929461515   T   T   T
  0.7584327005985004  0.5236019944458266  0.5238265828094903   T   T   T
  0.3807265941032003  0.5230478063503192  0.4480330927150335   T   T   T
  0.4248469713786647  0.3221819079760284  0.7152142486861637   T   T   T
  0.3652789549514449  0.3194018122349765  0.6633930593812912   T   T   T
  0.3856156922415024  0.3078198686285277  0.6998343650766347   T   T   T
  0.3683391752721612  0.2820588713879706  0.7225587681864545   T   T   T
 
  0.00000000E+00  0.00000000E+00  0.00000000E+00
  0.00000000E+00  0.00000000E+00  0.00000000E+00
  0.00000000E+00  0.00000000E+00  0.00000000E+00
  0.00000000E+00  0.00000000E+00  0.00000000E+00
  0.00000000E+00  0.00000000E+00  0.00000000E+00
  0.00000000E+00  0.00000000E+00  0.00000000E+00
  0.00000000E+00  0.00000000E+00  0.00000000E+00
  0.00000000E+00  0.00000000E+00  0.00000000E+00
  0.00000000E+00  0.00000000E+00  0.00000000E+00
  0.00000000E+00  0.00000000E+00  0.00000000E+00
  0.00000000E+00  0.00000000E+00  0.00000000E+00
  0.00000000E+00  0.00000000E+00  0.00000000E+00
  0.00000000E+00  0.00000000E+00  0.00000000E+00
  0.00000000E+00  0.00000000E+00  0.00000000E+00
  0.00000000E+00  0.00000000E+00  0.00000000E+00
  0.00000000E+00  0.00000000E+00  0.00000000E+00
  0.00000000E+00  0.00000000E+00  0.00000000E+00
  0.00000000E+00  0.00000000E+00  0.00000000E+00
  0.00000000E+00  0.00000000E+00  0.00000000E+00
  0.00000000E+00  0.00000000E+00  0.00000000E+00
  0.00000000E+00  0.00000000E+00  0.00000000E+00
  0.00000000E+00  0.00000000E+00  0.00000000E+00
  0.00000000E+00  0.00000000E+00  0.00000000E+00
  0.00000000E+00  0.00000000E+00  0.00000000E+00
  0.00000000E+00  0.00000000E+00  0.00000000E+00
  0.00000000E+00  0.00000000E+00  0.00000000E+00
  0.00000000E+00  0.00000000E+00  0.00000000E+00
  0.00000000E+00  0.00000000E+00  0.00000000E+00
  0.00000000E+00  0.00000000E+00  0.00000000E+00
  0.00000000E+00  0.00000000E+00  0.00000000E+00
  0.00000000E+00  0.00000000E+00  0.00000000E+00
  0.00000000E+00  0.00000000E+00  0.00000000E+00
  0.00000000E+00  0.00000000E+00  0.00000000E+00
  0.00000000E+00  0.00000000E+00  0.00000000E+00
  0.00000000E+00  0.00000000E+00  0.00000000E+00
  0.00000000E+00  0.00000000E+00  0.00000000E+00
  0.00000000E+00  0.00000000E+00  0.00000000E+00
  0.00000000E+00  0.00000000E+00  0.00000000E+00
  0.00000000E+00  0.00000000E+00  0.00000000E+00
  0.00000000E+00  0.00000000E+00  0.00000000E+00
  0.00000000E+00  0.00000000E+00  0.00000000E+00
  0.00000000E+00  0.00000000E+00  0.00000000E+00
  0.00000000E+00  0.00000000E+00  0.00000000E+00
  0.00000000E+00  0.00000000E+00  0.00000000E+00
  0.00000000E+00  0.00000000E+00  0.00000000E+00
  0.00000000E+00  0.00000000E+00  0.00000000E+00
  0.00000000E+00  0.00000000E+00  0.00000000E+00
  0.00000000E+00  0.00000000E+00  0.00000000E+00
  0.00000000E+00  0.00000000E+00  0.00000000E+00
  0.00000000E+00  0.00000000E+00  0.00000000E+00
  0.00000000E+00  0.00000000E+00  0.00000000E+00
  0.00000000E+00  0.00000000E+00  0.00000000E+00
  0.00000000E+00  0.00000000E+00  0.00000000E+00
  0.00000000E+00  0.00000000E+00  0.00000000E+00
  0.00000000E+00  0.00000000E+00  0.00000000E+00
  0.00000000E+00  0.00000000E+00  0.00000000E+00
  0.00000000E+00  0.00000000E+00  0.00000000E+00
  0.00000000E+00  0.00000000E+00  0.00000000E+00
  0.00000000E+00  0.00000000E+00  0.00000000E+00
  0.00000000E+00  0.00000000E+00  0.00000000E+00
  0.00000000E+00  0.00000000E+00  0.00000000E+00
  0.00000000E+00  0.00000000E+00  0.00000000E+00
  0.00000000E+00  0.00000000E+00  0.00000000E+00
  0.00000000E+00  0.00000000E+00  0.00000000E+00
  0.00000000E+00  0.00000000E+00  0.00000000E+00
  0.00000000E+00  0.00000000E+00  0.00000000E+00
  0.00000000E+00  0.00000000E+00  0.00000000E+00
  0.00000000E+00  0.00000000E+00  0.00000000E+00
  0.00000000E+00  0.00000000E+00  0.00000000E+00
  0.00000000E+00  0.00000000E+00  0.00000000E+00
  0.00000000E+00  0.00000000E+00  0.00000000E+00
  0.00000000E+00  0.00000000E+00  0.00000000E+00
