Sn O  C  H                              
   1.00000000000000     
    29.0000000000000000    0.0000000000000000    0.0000000000000000
     0.0000000000000000   29.0000000000000000    0.0000000000000000
     0.0000000000000000    0.0000000000000000   29.0000000000000000
   Sn   O    C    H 
    68     2     1     1
Selective dynamics
Direct
  0.5337313344075993  0.5209801969467819  0.7513228737900902   T   T   T
  0.3867457798376572  0.6658007338039525  0.4514422434742787   T   T   T
  0.3792641863628357  0.5976556958845596  0.5257668528456355   T   T   T
  0.6076089470065611  0.4504110489934376  0.4498710309934353   F   F   F
  0.4613510339934379  0.4504110489934376  0.5961189590065601   F   F   F
  0.6898674034568960  0.5974918438840602  0.5228161910965656   T   T   T
  0.4600399567930485  0.5224799961120519  0.3679789755979143   T   T   T
  0.4574740463323194  0.3716789810262025  0.5245658382986201   T   T   T
  0.6076304879918960  0.5210184602389007  0.6786673442950604   T   T   T
  0.3923244105805838  0.4532845163536898  0.6722789868574826   T   T   T
  0.5321856823486132  0.6777257629229886  0.6007632356138830   T   T   T
  0.6074017244217410  0.3777289268182978  0.3775594215069385   T   T   T
  0.4585901420130183  0.6752363675317528  0.5222779806409675   T   T   T
  0.4634463638303484  0.6679436337804342  0.3767503138203449   T   T   T
  0.6883674491926071  0.5247897140557841  0.5991761039963728   T   T   T
  0.6811328960557897  0.5954495724703194  0.3771616157892597   T   T   T
  0.6814238686666332  0.3806470138425721  0.5950868826363304   T   T   T
  0.5344799760000001  0.4444887396173627  0.5229899879999991   F   F   F
  0.3788173505664066  0.4497632747755356  0.5198220027179200   T   T   T
  0.5344799760000001  0.6025912403826368  0.5229899879999991   F   F   F
  0.5344799760000001  0.5235400199999987  0.6020412683826351   F   F   F
  0.4610503001187272  0.6633696352538645  0.6735526109333625   T   T   T
  0.6135312563826361  0.5235400199999987  0.5229899879999991   F   F   F
  0.5353992230099105  0.3705880205987193  0.5987755574259229   T   T   T
  0.3056973149820069  0.5239115553179390  0.5251479188182574   T   T   T
  0.3803995537384000  0.5205411503482547  0.5976351690492179   T   T   T
  0.5315415530348594  0.5223411144195608  0.2939445053707579   T   T   T
  0.3863929173895749  0.4539796936153760  0.3807325244504163   T   T   T
  0.6797454188373571  0.4521941570198818  0.3763980025569771   T   T   T
  0.6887357166421717  0.5239082701836383  0.4483622160805104   T   T   T
  0.4613510339934379  0.4504110489934376  0.4498710309934353   F   F   F
  0.4613510339934379  0.5966689310065618  0.4498710309934353   F   F   F
  0.6076089470065611  0.5966689310065618  0.4498710309934353   F   F   F
  0.5356594317292489  0.6751519822346401  0.4471763829364399   T   T   T
  0.5312522628083343  0.7451439776204741  0.5249094408001418   T   T   T
  0.3908222857443874  0.6714005169642883  0.5962772989486581   T   T   T
  0.6902448524795948  0.4515293663329451  0.5229846792512935   T   T   T
  0.3899703582125363  0.3760960245631504  0.4499533870602708   T   T   T
  0.3903611596197860  0.5944285897126439  0.3746945624682710   T   T   T
  0.4617523546817064  0.3752582596109839  0.6665911120265932   T   T   T
  0.6813382500459149  0.4531304298197430  0.6697561035619902   T   T   T
  0.6076089470065611  0.5966689310065618  0.5961189590065601   F   F   F
  0.5359240194365473  0.4502157343064926  0.3672778102194049   T   T   T
  0.5344799760000001  0.5235400199999987  0.4439487216173603   F   F   F
  0.6819866603059042  0.6673997675874994  0.5955091177274040   T   T   T
  0.5376813721756896  0.5972557256582509  0.6785174892176079   T   T   T
  0.4613510339934379  0.5966689310065618  0.5961189590065601   F   F   F
  0.4602652614649055  0.5273493709090130  0.6778238117134299   T   T   T
  0.6093429520433948  0.5245496867338271  0.3683447531574026   T   T   T
  0.6825101801845781  0.3800519270619419  0.4511331200946268   T   T   T
  0.6076089470065611  0.4504110489934376  0.5961189590065601   F   F   F
  0.3845654353890905  0.5939980485220874  0.6658492026721131   T   T   T
  0.5344985481452021  0.3041552306087151  0.5210882295270506   T   T   T
  0.6763505106909061  0.5944189409144766  0.6717538530418865   T   T   T
  0.3854010678657429  0.3820111363633271  0.5952093024425146   T   T   T
  0.5344892581416060  0.5967593765261197  0.3671843747636581   T   T   T
  0.6803539074002407  0.6685320296350900  0.4511164496369394   T   T   T
  0.6063263597169486  0.6677441441491049  0.3755083474970318   T   T   T
  0.6112631630931764  0.3719751172148378  0.5223948937016475   T   T   T
  0.4554287246173629  0.5235400199999987  0.5229899879999991   F   F   F
  0.6100317874539586  0.6758748848093814  0.5242322567929534   T   T   T
  0.6066605747502714  0.6711684824781277  0.6674762594349851   T   T   T
  0.5334828616651907  0.3720058039684978  0.4458070369776483   T   T   T
  0.4624643672896077  0.3808955870084356  0.3746136336132789   T   T   T
  0.6059242195195295  0.3805240971239687  0.6705356218578019   T   T   T
  0.5315847960560773  0.4489775837562962  0.6775396747541702   T   T   T
  0.7632885499377756  0.5242444890120558  0.5304645809025135   T   T   T
  0.3790279723681634  0.5266228928187667  0.4496830015030992   T   T   T
  0.5171208199429441  0.7529945550332913  0.6374539842211522   T   T   T
  0.4807778535256750  0.7861313231790408  0.5758196857527219   T   T   T
  0.4881551302168760  0.7802019821698797  0.6187685915740816   T   T   T
  0.4664236720327498  0.8010440421471072  0.6425566937507750   T   T   T
 
  0.00000000E+00  0.00000000E+00  0.00000000E+00
  0.00000000E+00  0.00000000E+00  0.00000000E+00
  0.00000000E+00  0.00000000E+00  0.00000000E+00
  0.00000000E+00  0.00000000E+00  0.00000000E+00
  0.00000000E+00  0.00000000E+00  0.00000000E+00
  0.00000000E+00  0.00000000E+00  0.00000000E+00
  0.00000000E+00  0.00000000E+00  0.00000000E+00
  0.00000000E+00  0.00000000E+00  0.00000000E+00
  0.00000000E+00  0.00000000E+00  0.00000000E+00
  0.00000000E+00  0.00000000E+00  0.00000000E+00
  0.00000000E+00  0.00000000E+00  0.00000000E+00
  0.00000000E+00  0.00000000E+00  0.00000000E+00
  0.00000000E+00  0.00000000E+00  0.00000000E+00
  0.00000000E+00  0.00000000E+00  0.00000000E+00
  0.00000000E+00  0.00000000E+00  0.00000000E+00
  0.00000000E+00  0.00000000E+00  0.00000000E+00
  0.00000000E+00  0.00000000E+00  0.00000000E+00
  0.00000000E+00  0.00000000E+00  0.00000000E+00
  0.00000000E+00  0.00000000E+00  0.00000000E+00
  0.00000000E+00  0.00000000E+00  0.00000000E+00
  0.00000000E+00  0.00000000E+00  0.00000000E+00
  0.00000000E+00  0.00000000E+00  0.00000000E+00
  0.00000000E+00  0.00000000E+00  0.00000000E+00
  0.00000000E+00  0.00000000E+00  0.00000000E+00
  0.00000000E+00  0.00000000E+00  0.00000000E+00
  0.00000000E+00  0.00000000E+00  0.00000000E+00
  0.00000000E+00  0.00000000E+00  0.00000000E+00
  0.00000000E+00  0.00000000E+00  0.00000000E+00
  0.00000000E+00  0.00000000E+00  0.00000000E+00
  0.00000000E+00  0.00000000E+00  0.00000000E+00
  0.00000000E+00  0.00000000E+00  0.00000000E+00
  0.00000000E+00  0.00000000E+00  0.00000000E+00
  0.00000000E+00  0.00000000E+00  0.00000000E+00
  0.00000000E+00  0.00000000E+00  0.00000000E+00
  0.00000000E+00  0.00000000E+00  0.00000000E+00
  0.00000000E+00  0.00000000E+00  0.00000000E+00
  0.00000000E+00  0.00000000E+00  0.00000000E+00
  0.00000000E+00  0.00000000E+00  0.00000000E+00
  0.00000000E+00  0.00000000E+00  0.00000000E+00
  0.00000000E+00  0.00000000E+00  0.00000000E+00
  0.00000000E+00  0.00000000E+00  0.00000000E+00
  0.00000000E+00  0.00000000E+00  0.00000000E+00
  0.00000000E+00  0.00000000E+00  0.00000000E+00
  0.00000000E+00  0.00000000E+00  0.00000000E+00
  0.00000000E+00  0.00000000E+00  0.00000000E+00
  0.00000000E+00  0.00000000E+00  0.00000000E+00
  0.00000000E+00  0.00000000E+00  0.00000000E+00
  0.00000000E+00  0.00000000E+00  0.00000000E+00
  0.00000000E+00  0.00000000E+00  0.00000000E+00
  0.00000000E+00  0.00000000E+00  0.00000000E+00
  0.00000000E+00  0.00000000E+00  0.00000000E+00
  0.00000000E+00  0.00000000E+00  0.00000000E+00
  0.00000000E+00  0.00000000E+00  0.00000000E+00
  0.00000000E+00  0.00000000E+00  0.00000000E+00
  0.00000000E+00  0.00000000E+00  0.00000000E+00
  0.00000000E+00  0.00000000E+00  0.00000000E+00
  0.00000000E+00  0.00000000E+00  0.00000000E+00
  0.00000000E+00  0.00000000E+00  0.00000000E+00
  0.00000000E+00  0.00000000E+00  0.00000000E+00
  0.00000000E+00  0.00000000E+00  0.00000000E+00
  0.00000000E+00  0.00000000E+00  0.00000000E+00
  0.00000000E+00  0.00000000E+00  0.00000000E+00
  0.00000000E+00  0.00000000E+00  0.00000000E+00
  0.00000000E+00  0.00000000E+00  0.00000000E+00
  0.00000000E+00  0.00000000E+00  0.00000000E+00
  0.00000000E+00  0.00000000E+00  0.00000000E+00
  0.00000000E+00  0.00000000E+00  0.00000000E+00
  0.00000000E+00  0.00000000E+00  0.00000000E+00
  0.00000000E+00  0.00000000E+00  0.00000000E+00
  0.00000000E+00  0.00000000E+00  0.00000000E+00
  0.00000000E+00  0.00000000E+00  0.00000000E+00
  0.00000000E+00  0.00000000E+00  0.00000000E+00
