Sn O  C  H                              
   1.00000000000000     
    29.0000000000000000    0.0000000000000000    0.0000000000000000
     0.0000000000000000   29.0000000000000000    0.0000000000000000
     0.0000000000000000    0.0000000000000000   29.0000000000000000
   Sn   O    C    H 
    68     2     1     1
Selective dynamics
Direct
  0.5353559031335585  0.5286273279610247  0.7528972220804303   T   T   T
  0.3887178981943362  0.6688518640775626  0.4511657346579445   T   T   T
  0.3815616769127860  0.5987841964047480  0.5231171868395154   T   T   T
  0.6076089470065611  0.4504110489934376  0.4498710309934353   F   F   F
  0.4613510339934379  0.4504110489934376  0.5961189590065601   F   F   F
  0.6907208672582911  0.6012945119090870  0.5230319097415854   T   T   T
  0.4608217272495742  0.5221265157069302  0.3672126636503008   T   T   T
  0.4608758671072772  0.3685138405188345  0.5232192876111805   T   T   T
  0.6085045356099500  0.5242077504046396  0.6780960993413713   T   T   T
  0.3883710637701375  0.4514801715490706  0.6688773092651410   T   T   T
  0.5346953323135508  0.6771044479410946  0.5983118908262534   T   T   T
  0.6058433575556613  0.3787959179549369  0.3754961494157449   T   T   T
  0.4601390342232381  0.6775104596082774  0.5227310011197568   T   T   T
  0.4634444446078235  0.6698717318724745  0.3771127882698932   T   T   T
  0.6878691306877892  0.5241258239650087  0.5980560942577906   T   T   T
  0.6809777621156277  0.5950373376627832  0.3777566858497862   T   T   T
  0.6780423283309964  0.3758656340217958  0.5955454317163419   T   T   T
  0.5344799760000001  0.4444887396173627  0.5229899879999991   F   F   F
  0.3826787729100215  0.4470124939160069  0.5228775172213432   T   T   T
  0.5344799760000001  0.6025912403826368  0.5229899879999991   F   F   F
  0.5344799760000001  0.5235400199999987  0.6020412683826351   F   F   F
  0.4632942282714963  0.6699074410115381  0.6692982051378825   T   T   T
  0.6135312563826361  0.5235400199999987  0.5229899879999991   F   F   F
  0.5346410897209217  0.3700370144097647  0.5992134167229902   T   T   T
  0.3129563177443647  0.5218832156571940  0.5226280864991435   T   T   T
  0.3818828728980451  0.5235928745628007  0.5992981980096472   T   T   T
  0.5349113975756745  0.5278674578801976  0.2930649657303256   T   T   T
  0.3882534884009647  0.4514298457163611  0.3768876842138777   T   T   T
  0.6793994326315170  0.4520194194978311  0.3767797572057874   T   T   T
  0.6876125989762766  0.5236914897148259  0.4481988447040907   T   T   T
  0.4613510339934379  0.4504110489934376  0.4498710309934353   F   F   F
  0.4613510339934379  0.5966689310065618  0.4498710309934353   F   F   F
  0.6076089470065611  0.5966689310065618  0.4498710309934353   F   F   F
  0.5353509160731388  0.6769894351406341  0.4474203964245663   T   T   T
  0.5336909437486792  0.7496942793218625  0.5223419040521371   T   T   T
  0.3890338791719674  0.6693974722268636  0.5946875786847373   T   T   T
  0.6848146806483049  0.4466021239164348  0.5232083866624010   T   T   T
  0.3904953531283849  0.3765391853414284  0.4505916096551680   T   T   T
  0.3909102733002300  0.5955386698080812  0.3755666539217928   T   T   T
  0.4633484846982960  0.3797994477821968  0.6703506127556070   T   T   T
  0.6794357681790454  0.4521401717833756  0.6690754736622981   T   T   T
  0.6076089470065611  0.5966689310065618  0.5961189590065601   F   F   F
  0.5354265427524304  0.4510444722637406  0.3667363541732346   T   T   T
  0.5344799760000001  0.5235400199999987  0.4439487216173603   F   F   F
  0.6784733697619793  0.6708464669407664  0.5959910118988259   T   T   T
  0.5335487381211265  0.5977994465578051  0.6781721147653964   T   T   T
  0.4613510339934379  0.5966689310065618  0.5961189590065601   F   F   F
  0.4607629733378856  0.5222997737810056  0.6788723361195544   T   T   T
  0.6085660043197774  0.5241452556691724  0.3676625993385860   T   T   T
  0.6780607230868608  0.3760636351984604  0.4507622817569737   T   T   T
  0.6076089470065611  0.4504110489934376  0.5961189590065601   F   F   F
  0.3907118879579138  0.5958320006144339  0.6701325553756340   T   T   T
  0.5331307104277221  0.2970445073438252  0.5223789685840826   T   T   T
  0.6807060016399580  0.5954968806416848  0.6684310805596757   T   T   T
  0.3900024985827266  0.3768062622865792  0.5953697950993108   T   T   T
  0.5334711545113108  0.5975391534104809  0.3677359478207419   T   T   T
  0.6783205453704974  0.6707773279160937  0.4499949455703190   T   T   T
  0.6055392674931079  0.6677970656149625  0.3754314399725460   T   T   T
  0.6078487316802446  0.3679143922453666  0.5231860070372674   T   T   T
  0.4554287246173629  0.5235400199999987  0.5229899879999991   F   F   F
  0.6085153756611070  0.6778390078621448  0.5231482766270890   T   T   T
  0.6052797483944276  0.6684749474974253  0.6697398425875860   T   T   T
  0.5344726409456322  0.3702881113604681  0.4468912314467694   T   T   T
  0.4635971040358440  0.3802049743126159  0.3753257446856114   T   T   T
  0.6057669833686019  0.3788955518968362  0.6706927134075906   T   T   T
  0.5351463300278028  0.4509844377114541  0.6793128228049908   T   T   T
  0.7571455502584568  0.5233588454790814  0.5225625006111432   T   T   T
  0.3819876473060614  0.5235976682513263  0.4466134666539742   T   T   T
  0.8132559204014229  0.5814184852755716  0.5162562645390312   T   T   T
  0.7645336316526635  0.6431646516350209  0.5227600407091667   T   T   T
  0.8038665073328588  0.6243450755138555  0.5190979024452979   T   T   T
  0.8341277315788890  0.6479881314398307  0.5181604162425925   T   T   T
 
  0.00000000E+00  0.00000000E+00  0.00000000E+00
  0.00000000E+00  0.00000000E+00  0.00000000E+00
  0.00000000E+00  0.00000000E+00  0.00000000E+00
  0.00000000E+00  0.00000000E+00  0.00000000E+00
  0.00000000E+00  0.00000000E+00  0.00000000E+00
  0.00000000E+00  0.00000000E+00  0.00000000E+00
  0.00000000E+00  0.00000000E+00  0.00000000E+00
  0.00000000E+00  0.00000000E+00  0.00000000E+00
  0.00000000E+00  0.00000000E+00  0.00000000E+00
  0.00000000E+00  0.00000000E+00  0.00000000E+00
  0.00000000E+00  0.00000000E+00  0.00000000E+00
  0.00000000E+00  0.00000000E+00  0.00000000E+00
  0.00000000E+00  0.00000000E+00  0.00000000E+00
  0.00000000E+00  0.00000000E+00  0.00000000E+00
  0.00000000E+00  0.00000000E+00  0.00000000E+00
  0.00000000E+00  0.00000000E+00  0.00000000E+00
  0.00000000E+00  0.00000000E+00  0.00000000E+00
  0.00000000E+00  0.00000000E+00  0.00000000E+00
  0.00000000E+00  0.00000000E+00  0.00000000E+00
  0.00000000E+00  0.00000000E+00  0.00000000E+00
  0.00000000E+00  0.00000000E+00  0.00000000E+00
  0.00000000E+00  0.00000000E+00  0.00000000E+00
  0.00000000E+00  0.00000000E+00  0.00000000E+00
  0.00000000E+00  0.00000000E+00  0.00000000E+00
  0.00000000E+00  0.00000000E+00  0.00000000E+00
  0.00000000E+00  0.00000000E+00  0.00000000E+00
  0.00000000E+00  0.00000000E+00  0.00000000E+00
  0.00000000E+00  0.00000000E+00  0.00000000E+00
  0.00000000E+00  0.00000000E+00  0.00000000E+00
  0.00000000E+00  0.00000000E+00  0.00000000E+00
  0.00000000E+00  0.00000000E+00  0.00000000E+00
  0.00000000E+00  0.00000000E+00  0.00000000E+00
  0.00000000E+00  0.00000000E+00  0.00000000E+00
  0.00000000E+00  0.00000000E+00  0.00000000E+00
  0.00000000E+00  0.00000000E+00  0.00000000E+00
  0.00000000E+00  0.00000000E+00  0.00000000E+00
  0.00000000E+00  0.00000000E+00  0.00000000E+00
  0.00000000E+00  0.00000000E+00  0.00000000E+00
  0.00000000E+00  0.00000000E+00  0.00000000E+00
  0.00000000E+00  0.00000000E+00  0.00000000E+00
  0.00000000E+00  0.00000000E+00  0.00000000E+00
  0.00000000E+00  0.00000000E+00  0.00000000E+00
  0.00000000E+00  0.00000000E+00  0.00000000E+00
  0.00000000E+00  0.00000000E+00  0.00000000E+00
  0.00000000E+00  0.00000000E+00  0.00000000E+00
  0.00000000E+00  0.00000000E+00  0.00000000E+00
  0.00000000E+00  0.00000000E+00  0.00000000E+00
  0.00000000E+00  0.00000000E+00  0.00000000E+00
  0.00000000E+00  0.00000000E+00  0.00000000E+00
  0.00000000E+00  0.00000000E+00  0.00000000E+00
  0.00000000E+00  0.00000000E+00  0.00000000E+00
  0.00000000E+00  0.00000000E+00  0.00000000E+00
  0.00000000E+00  0.00000000E+00  0.00000000E+00
  0.00000000E+00  0.00000000E+00  0.00000000E+00
  0.00000000E+00  0.00000000E+00  0.00000000E+00
  0.00000000E+00  0.00000000E+00  0.00000000E+00
  0.00000000E+00  0.00000000E+00  0.00000000E+00
  0.00000000E+00  0.00000000E+00  0.00000000E+00
  0.00000000E+00  0.00000000E+00  0.00000000E+00
  0.00000000E+00  0.00000000E+00  0.00000000E+00
  0.00000000E+00  0.00000000E+00  0.00000000E+00
  0.00000000E+00  0.00000000E+00  0.00000000E+00
  0.00000000E+00  0.00000000E+00  0.00000000E+00
  0.00000000E+00  0.00000000E+00  0.00000000E+00
  0.00000000E+00  0.00000000E+00  0.00000000E+00
  0.00000000E+00  0.00000000E+00  0.00000000E+00
  0.00000000E+00  0.00000000E+00  0.00000000E+00
  0.00000000E+00  0.00000000E+00  0.00000000E+00
  0.00000000E+00  0.00000000E+00  0.00000000E+00
  0.00000000E+00  0.00000000E+00  0.00000000E+00
  0.00000000E+00  0.00000000E+00  0.00000000E+00
  0.00000000E+00  0.00000000E+00  0.00000000E+00
