Sn O  C  H                              
   1.00000000000000     
    29.0000000000000000    0.0000000000000000    0.0000000000000000
     0.0000000000000000   29.0000000000000000    0.0000000000000000
     0.0000000000000000    0.0000000000000000   29.0000000000000000
   Sn   O    C    H 
    68     2     1     1
Selective dynamics
Direct
  0.5354956424004010  0.5213947952590002  0.7504913139493857   T   T   T
  0.3876646872982754  0.6679170597870925  0.4510054556585025   T   T   T
  0.3794145743393645  0.5970017648596490  0.5231915402858320   T   T   T
  0.6076089470065611  0.4504110489934376  0.4498710309934353   F   F   F
  0.4613510339934379  0.4504110489934376  0.5961189590065601   F   F   F
  0.6891007927220427  0.5980081210213435  0.5242687223814033   T   T   T
  0.4596900744217118  0.5233647861768336  0.3681016333047636   T   T   T
  0.4578956357822343  0.3717367282715841  0.5224843502698987   T   T   T
  0.6082103728204867  0.5256992384679318  0.6782099396956750   T   T   T
  0.3887252609853542  0.4525133907288018  0.6695631297578457   T   T   T
  0.5350476247007857  0.6758020380938989  0.5996684241414487   T   T   T
  0.6069551612617333  0.3795044882918582  0.3750133719230694   T   T   T
  0.4576697125135311  0.6757650931120849  0.5236428875496961   T   T   T
  0.4622387503873970  0.6690657976616857  0.3767843153381095   T   T   T
  0.6885631925234796  0.5195621099765823  0.5972709539765862   T   T   T
  0.6804003288895792  0.5952927723619941  0.3757938869364493   T   T   T
  0.6867106200641669  0.3819639393821388  0.5955123990203200   T   T   T
  0.5344799760000001  0.4444887396173627  0.5229899879999991   F   F   F
  0.3790868087275232  0.4496917803583180  0.5215201334589340   T   T   T
  0.5344799760000001  0.6025912403826368  0.5229899879999991   F   F   F
  0.5344799760000001  0.5235400199999987  0.6020412683826351   F   F   F
  0.4609227316259352  0.6705802715408248  0.6676735004092120   T   T   T
  0.6135312563826361  0.5235400199999987  0.5229899879999991   F   F   F
  0.5344065056094577  0.3705217224971518  0.5980430320867322   T   T   T
  0.3081174479712415  0.5234816548978004  0.5237479316706537   T   T   T
  0.3802910203264347  0.5230245713975843  0.5979849629894091   T   T   T
  0.5353227534701968  0.5248366731526942  0.2958213417204883   T   T   T
  0.3890852165620081  0.4517991911050709  0.3766633518720083   T   T   T
  0.6820074322486678  0.4527999236797873  0.3800126339536719   T   T   T
  0.6895263863376500  0.5261758045388029  0.4485941758230398   T   T   T
  0.4613510339934379  0.4504110489934376  0.4498710309934353   F   F   F
  0.4613510339934379  0.5966689310065618  0.4498710309934353   F   F   F
  0.6076089470065611  0.5966689310065618  0.4498710309934353   F   F   F
  0.5341051954768712  0.6762047168683994  0.4471865612391009   T   T   T
  0.5337219441868185  0.7436967907810694  0.5236560118362685   T   T   T
  0.3870332885992959  0.6678617248097178  0.5950894763591545   T   T   T
  0.6904185854771691  0.4500986652260406  0.5188087739870414   T   T   T
  0.3880370539938864  0.3776233952720529  0.4505051127606391   T   T   T
  0.3889842328068214  0.5954041679181907  0.3764144821685864   T   T   T
  0.4629113233998071  0.3785670189255020  0.6690444406127650   T   T   T
  0.6765846302977030  0.4538112202542685  0.6734076497895932   T   T   T
  0.6076089470065611  0.5966689310065618  0.5961189590065601   F   F   F
  0.5341701051767991  0.4496802718198825  0.3680060396279611   T   T   T
  0.5344799760000001  0.5235400199999987  0.4439487216173603   F   F   F
  0.6803470109745127  0.6702031506678989  0.5951686156038747   T   T   T
  0.5336604101637976  0.5983318810893309  0.6787082436105818   T   T   T
  0.4613510339934379  0.5966689310065618  0.5961189590065601   F   F   F
  0.4612536430692331  0.5225097092038420  0.6784986213147871   T   T   T
  0.6095846098074128  0.5232343450832031  0.3685388646397124   T   T   T
  0.6797129205234028  0.3761759802492151  0.4500957006878295   T   T   T
  0.6076089470065611  0.4504110489934376  0.5961189590065601   F   F   F
  0.3909250541942006  0.5936628159024838  0.6702358960750122   T   T   T
  0.5335466610502915  0.3038011243482261  0.5213019452454933   T   T   T
  0.6816437519577981  0.5936596396391594  0.6659281898629111   T   T   T
  0.3872737546566361  0.3801258476359899  0.5943703230109760   T   T   T
  0.5339425597678917  0.5974501309336329  0.3684395167239712   T   T   T
  0.6811949209815217  0.6677065250419942  0.4510674780161378   T   T   T
  0.6057317603042112  0.6681529364903547  0.3765559713352299   T   T   T
  0.6133187930258129  0.3697474044228535  0.5250571612613891   T   T   T
  0.4554287246173629  0.5235400199999987  0.5229899879999991   F   F   F
  0.6108251507566245  0.6762278741202973  0.5229217247028347   T   T   T
  0.6068877857931858  0.6688479568330584  0.6692197318030597   T   T   T
  0.5358885235267016  0.3718238742108966  0.4463855555772113   T   T   T
  0.4628679422129701  0.3776668699274264  0.3770449224235582   T   T   T
  0.6080391371422029  0.3761046471688654  0.6661695791487627   T   T   T
  0.5358922466006694  0.4482159448209283  0.6774843952830271   T   T   T
  0.7622616917058374  0.5255096848692697  0.5241246024761137   T   T   T
  0.3799669324288402  0.5237313445636541  0.4477515499237851   T   T   T
  0.7037363951392843  0.3044343668143927  0.5871572865660963   T   T   T
  0.6490927114949595  0.2897388460583813  0.5317819208206513   T   T   T
  0.6829611798197011  0.2793873040538479  0.5572165518081953   T   T   T
  0.6973623905919554  0.2439708604347172  0.5534966231979523   T   T   T
 
  0.00000000E+00  0.00000000E+00  0.00000000E+00
  0.00000000E+00  0.00000000E+00  0.00000000E+00
  0.00000000E+00  0.00000000E+00  0.00000000E+00
  0.00000000E+00  0.00000000E+00  0.00000000E+00
  0.00000000E+00  0.00000000E+00  0.00000000E+00
  0.00000000E+00  0.00000000E+00  0.00000000E+00
  0.00000000E+00  0.00000000E+00  0.00000000E+00
  0.00000000E+00  0.00000000E+00  0.00000000E+00
  0.00000000E+00  0.00000000E+00  0.00000000E+00
  0.00000000E+00  0.00000000E+00  0.00000000E+00
  0.00000000E+00  0.00000000E+00  0.00000000E+00
  0.00000000E+00  0.00000000E+00  0.00000000E+00
  0.00000000E+00  0.00000000E+00  0.00000000E+00
  0.00000000E+00  0.00000000E+00  0.00000000E+00
  0.00000000E+00  0.00000000E+00  0.00000000E+00
  0.00000000E+00  0.00000000E+00  0.00000000E+00
  0.00000000E+00  0.00000000E+00  0.00000000E+00
  0.00000000E+00  0.00000000E+00  0.00000000E+00
  0.00000000E+00  0.00000000E+00  0.00000000E+00
  0.00000000E+00  0.00000000E+00  0.00000000E+00
  0.00000000E+00  0.00000000E+00  0.00000000E+00
  0.00000000E+00  0.00000000E+00  0.00000000E+00
  0.00000000E+00  0.00000000E+00  0.00000000E+00
  0.00000000E+00  0.00000000E+00  0.00000000E+00
  0.00000000E+00  0.00000000E+00  0.00000000E+00
  0.00000000E+00  0.00000000E+00  0.00000000E+00
  0.00000000E+00  0.00000000E+00  0.00000000E+00
  0.00000000E+00  0.00000000E+00  0.00000000E+00
  0.00000000E+00  0.00000000E+00  0.00000000E+00
  0.00000000E+00  0.00000000E+00  0.00000000E+00
  0.00000000E+00  0.00000000E+00  0.00000000E+00
  0.00000000E+00  0.00000000E+00  0.00000000E+00
  0.00000000E+00  0.00000000E+00  0.00000000E+00
  0.00000000E+00  0.00000000E+00  0.00000000E+00
  0.00000000E+00  0.00000000E+00  0.00000000E+00
  0.00000000E+00  0.00000000E+00  0.00000000E+00
  0.00000000E+00  0.00000000E+00  0.00000000E+00
  0.00000000E+00  0.00000000E+00  0.00000000E+00
  0.00000000E+00  0.00000000E+00  0.00000000E+00
  0.00000000E+00  0.00000000E+00  0.00000000E+00
  0.00000000E+00  0.00000000E+00  0.00000000E+00
  0.00000000E+00  0.00000000E+00  0.00000000E+00
  0.00000000E+00  0.00000000E+00  0.00000000E+00
  0.00000000E+00  0.00000000E+00  0.00000000E+00
  0.00000000E+00  0.00000000E+00  0.00000000E+00
  0.00000000E+00  0.00000000E+00  0.00000000E+00
  0.00000000E+00  0.00000000E+00  0.00000000E+00
  0.00000000E+00  0.00000000E+00  0.00000000E+00
  0.00000000E+00  0.00000000E+00  0.00000000E+00
  0.00000000E+00  0.00000000E+00  0.00000000E+00
  0.00000000E+00  0.00000000E+00  0.00000000E+00
  0.00000000E+00  0.00000000E+00  0.00000000E+00
  0.00000000E+00  0.00000000E+00  0.00000000E+00
  0.00000000E+00  0.00000000E+00  0.00000000E+00
  0.00000000E+00  0.00000000E+00  0.00000000E+00
  0.00000000E+00  0.00000000E+00  0.00000000E+00
  0.00000000E+00  0.00000000E+00  0.00000000E+00
  0.00000000E+00  0.00000000E+00  0.00000000E+00
  0.00000000E+00  0.00000000E+00  0.00000000E+00
  0.00000000E+00  0.00000000E+00  0.00000000E+00
  0.00000000E+00  0.00000000E+00  0.00000000E+00
  0.00000000E+00  0.00000000E+00  0.00000000E+00
  0.00000000E+00  0.00000000E+00  0.00000000E+00
  0.00000000E+00  0.00000000E+00  0.00000000E+00
  0.00000000E+00  0.00000000E+00  0.00000000E+00
  0.00000000E+00  0.00000000E+00  0.00000000E+00
  0.00000000E+00  0.00000000E+00  0.00000000E+00
  0.00000000E+00  0.00000000E+00  0.00000000E+00
  0.00000000E+00  0.00000000E+00  0.00000000E+00
  0.00000000E+00  0.00000000E+00  0.00000000E+00
  0.00000000E+00  0.00000000E+00  0.00000000E+00
  0.00000000E+00  0.00000000E+00  0.00000000E+00
