Sn O  C  H                              
   1.00000000000000     
    29.0000000000000000    0.0000000000000000    0.0000000000000000
     0.0000000000000000   29.0000000000000000    0.0000000000000000
     0.0000000000000000    0.0000000000000000   29.0000000000000000
   Sn   O    C    H 
    68     2     1     1
Selective dynamics
Direct
  0.5343704207592579  0.5242547282640015  0.7489366200002127   T   T   T
  0.3872633339433494  0.6670906949648012  0.4498692531000850   T   T   T
  0.3815872155193277  0.5984732407065751  0.5228468341151834   T   T   T
  0.6076089470065611  0.4504110489934376  0.4498710309934353   F   F   F
  0.4613510339934379  0.4504110489934376  0.5961189590065601   F   F   F
  0.6869083561057261  0.5999476927354975  0.5223859371050598   T   T   T
  0.4608224864942979  0.5197916376692685  0.3670455445608746   T   T   T
  0.4605679828976688  0.3688094335325978  0.5232178009730627   T   T   T
  0.6081781112873865  0.5234505424740787  0.6778084684565162   T   T   T
  0.3887965227935078  0.4512115047701707  0.6690879473408575   T   T   T
  0.5339039938530270  0.6790362650523659  0.5964181473151328   T   T   T
  0.6059656859747988  0.3764731369725001  0.3768329802366857   T   T   T
  0.4593152787131928  0.6781923067797058  0.5218457126655354   T   T   T
  0.4644250695975578  0.6739215928173696  0.3808023702347508   T   T   T
  0.6869032544753584  0.5244052688002857  0.5997509146362393   T   T   T
  0.6808461322161703  0.5956410423520671  0.3768481176308630   T   T   T
  0.6796915040271838  0.3769536497098079  0.5952036896615683   T   T   T
  0.5344799760000001  0.4444887396173627  0.5229899879999991   F   F   F
  0.3825920834123770  0.4474049685476390  0.5218776497108975   T   T   T
  0.5344799760000001  0.6025912403826368  0.5229899879999991   F   F   F
  0.5344799760000001  0.5235400199999987  0.6020412683826351   F   F   F
  0.4633089762018226  0.6702806969277709  0.6684630638268109   T   T   T
  0.6135312563826361  0.5235400199999987  0.5229899879999991   F   F   F
  0.5347762906422716  0.3688077460281724  0.5977385123027733   T   T   T
  0.3143251411680902  0.5220082529840407  0.5238013076063321   T   T   T
  0.3823174559793591  0.5234902040323045  0.5996305766420272   T   T   T
  0.5362364068381138  0.5246853497976698  0.2951655121612274   T   T   T
  0.3874327809675367  0.4506099265481369  0.3777433298323489   T   T   T
  0.6787263120821436  0.4514693534985141  0.3761011183499814   T   T   T
  0.6872132430013073  0.5234137629033822  0.4465852661189006   T   T   T
  0.4613510339934379  0.4504110489934376  0.4498710309934353   F   F   F
  0.4613510339934379  0.5966689310065618  0.4498710309934353   F   F   F
  0.6076089470065611  0.5966689310065618  0.4498710309934353   F   F   F
  0.5364042848806869  0.6784470417393366  0.4492727623661277   T   T   T
  0.5338590045596358  0.7507901243196836  0.5215752036434322   T   T   T
  0.3891448524530544  0.6692555770814659  0.5944441415418574   T   T   T
  0.6872229440793413  0.4475844024150626  0.5234204537865208   T   T   T
  0.3901158435280069  0.3760138006140676  0.4509943567520420   T   T   T
  0.3926535255126752  0.5962960290338761  0.3711437471621268   T   T   T
  0.4630746091067457  0.3774050658208760  0.6681987832215395   T   T   T
  0.6794923514833250  0.4515929847365561  0.6694089194546050   T   T   T
  0.6076089470065611  0.5966689310065618  0.5961189590065601   F   F   F
  0.5366376861781433  0.4493164728979007  0.3678441501499835   T   T   T
  0.5344799760000001  0.5235400199999987  0.4439487216173603   F   F   F
  0.6815582915250151  0.6679542806664668  0.5966719103240701   T   T   T
  0.5339427042938705  0.5984752830940993  0.6771890041576670   T   T   T
  0.4613510339934379  0.5966689310065618  0.5961189590065601   F   F   F
  0.4605407910846821  0.5221992507212933  0.6782054305745816   T   T   T
  0.6087206523112688  0.5246478579442937  0.3684017629219414   T   T   T
  0.6792169271960825  0.3771448911457287  0.4513589462794930   T   T   T
  0.6076089470065611  0.4504110489934376  0.5961189590065601   F   F   F
  0.3909651491630666  0.5951968363846392  0.6704472859034075   T   T   T
  0.5350790294683095  0.2972747578713474  0.5216438444500539   T   T   T
  0.6789281184193440  0.5954665447774078  0.6707155811597320   T   T   T
  0.3887314004875989  0.3776549346204281  0.5944347345249458   T   T   T
  0.5305197131208639  0.5979431144129287  0.3688491716948903   T   T   T
  0.6797998061011040  0.6695827501239384  0.4504511475517392   T   T   T
  0.6045969737812098  0.6669274524743797  0.3761050142559191   T   T   T
  0.6085311295031648  0.3689515439978081  0.5231806704388925   T   T   T
  0.4554287246173629  0.5235400199999987  0.5229899879999991   F   F   F
  0.6096528087209552  0.6787126669223177  0.5238155753994161   T   T   T
  0.6049988685384590  0.6702660440062258  0.6671757921909092   T   T   T
  0.5341171644962047  0.3693125329531557  0.4475553690074351   T   T   T
  0.4636138266190677  0.3804649523384145  0.3754400069596128   T   T   T
  0.6065133304231730  0.3777275400618043  0.6691343358646903   T   T   T
  0.5346152897165235  0.4485938770158319  0.6774112060096282   T   T   T
  0.7546946419220492  0.5241473585992672  0.5236827675695689   T   T   T
  0.3802832541361682  0.5255423106333145  0.4441304843531884   T   T   T
  0.3150223701641456  0.5879308347078634  0.3536545748930787   T   T   T
  0.3007619825062249  0.5323564710572771  0.4080969779374168   T   T   T
  0.2901074524764860  0.5577672003382325  0.3742983693436551   T   T   T
  0.2545948544330661  0.5538583910667002  0.3600699307294626   T   T   T
 
  0.00000000E+00  0.00000000E+00  0.00000000E+00
  0.00000000E+00  0.00000000E+00  0.00000000E+00
  0.00000000E+00  0.00000000E+00  0.00000000E+00
  0.00000000E+00  0.00000000E+00  0.00000000E+00
  0.00000000E+00  0.00000000E+00  0.00000000E+00
  0.00000000E+00  0.00000000E+00  0.00000000E+00
  0.00000000E+00  0.00000000E+00  0.00000000E+00
  0.00000000E+00  0.00000000E+00  0.00000000E+00
  0.00000000E+00  0.00000000E+00  0.00000000E+00
  0.00000000E+00  0.00000000E+00  0.00000000E+00
  0.00000000E+00  0.00000000E+00  0.00000000E+00
  0.00000000E+00  0.00000000E+00  0.00000000E+00
  0.00000000E+00  0.00000000E+00  0.00000000E+00
  0.00000000E+00  0.00000000E+00  0.00000000E+00
  0.00000000E+00  0.00000000E+00  0.00000000E+00
  0.00000000E+00  0.00000000E+00  0.00000000E+00
  0.00000000E+00  0.00000000E+00  0.00000000E+00
  0.00000000E+00  0.00000000E+00  0.00000000E+00
  0.00000000E+00  0.00000000E+00  0.00000000E+00
  0.00000000E+00  0.00000000E+00  0.00000000E+00
  0.00000000E+00  0.00000000E+00  0.00000000E+00
  0.00000000E+00  0.00000000E+00  0.00000000E+00
  0.00000000E+00  0.00000000E+00  0.00000000E+00
  0.00000000E+00  0.00000000E+00  0.00000000E+00
  0.00000000E+00  0.00000000E+00  0.00000000E+00
  0.00000000E+00  0.00000000E+00  0.00000000E+00
  0.00000000E+00  0.00000000E+00  0.00000000E+00
  0.00000000E+00  0.00000000E+00  0.00000000E+00
  0.00000000E+00  0.00000000E+00  0.00000000E+00
  0.00000000E+00  0.00000000E+00  0.00000000E+00
  0.00000000E+00  0.00000000E+00  0.00000000E+00
  0.00000000E+00  0.00000000E+00  0.00000000E+00
  0.00000000E+00  0.00000000E+00  0.00000000E+00
  0.00000000E+00  0.00000000E+00  0.00000000E+00
  0.00000000E+00  0.00000000E+00  0.00000000E+00
  0.00000000E+00  0.00000000E+00  0.00000000E+00
  0.00000000E+00  0.00000000E+00  0.00000000E+00
  0.00000000E+00  0.00000000E+00  0.00000000E+00
  0.00000000E+00  0.00000000E+00  0.00000000E+00
  0.00000000E+00  0.00000000E+00  0.00000000E+00
  0.00000000E+00  0.00000000E+00  0.00000000E+00
  0.00000000E+00  0.00000000E+00  0.00000000E+00
  0.00000000E+00  0.00000000E+00  0.00000000E+00
  0.00000000E+00  0.00000000E+00  0.00000000E+00
  0.00000000E+00  0.00000000E+00  0.00000000E+00
  0.00000000E+00  0.00000000E+00  0.00000000E+00
  0.00000000E+00  0.00000000E+00  0.00000000E+00
  0.00000000E+00  0.00000000E+00  0.00000000E+00
  0.00000000E+00  0.00000000E+00  0.00000000E+00
  0.00000000E+00  0.00000000E+00  0.00000000E+00
  0.00000000E+00  0.00000000E+00  0.00000000E+00
  0.00000000E+00  0.00000000E+00  0.00000000E+00
  0.00000000E+00  0.00000000E+00  0.00000000E+00
  0.00000000E+00  0.00000000E+00  0.00000000E+00
  0.00000000E+00  0.00000000E+00  0.00000000E+00
  0.00000000E+00  0.00000000E+00  0.00000000E+00
  0.00000000E+00  0.00000000E+00  0.00000000E+00
  0.00000000E+00  0.00000000E+00  0.00000000E+00
  0.00000000E+00  0.00000000E+00  0.00000000E+00
  0.00000000E+00  0.00000000E+00  0.00000000E+00
  0.00000000E+00  0.00000000E+00  0.00000000E+00
  0.00000000E+00  0.00000000E+00  0.00000000E+00
  0.00000000E+00  0.00000000E+00  0.00000000E+00
  0.00000000E+00  0.00000000E+00  0.00000000E+00
  0.00000000E+00  0.00000000E+00  0.00000000E+00
  0.00000000E+00  0.00000000E+00  0.00000000E+00
  0.00000000E+00  0.00000000E+00  0.00000000E+00
  0.00000000E+00  0.00000000E+00  0.00000000E+00
  0.00000000E+00  0.00000000E+00  0.00000000E+00
  0.00000000E+00  0.00000000E+00  0.00000000E+00
  0.00000000E+00  0.00000000E+00  0.00000000E+00
  0.00000000E+00  0.00000000E+00  0.00000000E+00
