Sn O  C  H                              
   1.00000000000000     
    29.0000000000000000    0.0000000000000000    0.0000000000000000
     0.0000000000000000   29.0000000000000000    0.0000000000000000
     0.0000000000000000    0.0000000000000000   29.0000000000000000
   Sn   O    C    H 
    68     2     1     1
Selective dynamics
Direct
  0.5341178972940345  0.5240509500148894  0.7457221630879647   T   T   T
  0.3880248297770998  0.6694529252241750  0.4520114312351842   T   T   T
  0.3810170292196601  0.5987763356195946  0.5235375076962675   T   T   T
  0.6076089470065611  0.4504110489934376  0.4498710309934353   F   F   F
  0.4613510339934379  0.4504110489934376  0.5961189590065601   F   F   F
  0.6877983913762551  0.5994492975423538  0.5231408628552676   T   T   T
  0.4591350621978701  0.5234594128008939  0.3700063811473055   T   T   T
  0.4605002532304338  0.3680831131272461  0.5222497933592211   T   T   T
  0.6110877325102237  0.5232078917748435  0.6736947891915673   T   T   T
  0.3871279528080728  0.4503979508392471  0.6666590836587588   T   T   T
  0.5340684758228863  0.6791057388142557  0.5968898857740766   T   T   T
  0.6064009943837624  0.3772029189018370  0.3770252925539356   T   T   T
  0.4604111963144937  0.6788721963121283  0.5221032107820044   T   T   T
  0.4622407084651534  0.6706521926387841  0.3792342401507897   T   T   T
  0.6899017912242010  0.5236659763940922  0.5968742453141903   T   T   T
  0.6812646036177494  0.5959225262677242  0.3787834100578669   T   T   T
  0.6793270628443425  0.3759574774208063  0.5944108363462913   T   T   T
  0.5344799760000001  0.4444887396173627  0.5229899879999991   F   F   F
  0.3811875083414941  0.4480465696622207  0.5235947697399890   T   T   T
  0.5344799760000001  0.6025912403826368  0.5229899879999991   F   F   F
  0.5344799760000001  0.5235400199999987  0.6020412683826351   F   F   F
  0.4629421143722889  0.6694129440576959  0.6688985601389530   T   T   T
  0.6135312563826361  0.5235400199999987  0.5229899879999991   F   F   F
  0.5337592030433189  0.3683615753410941  0.5972201420386116   T   T   T
  0.3089846812020021  0.5234181560174450  0.5218275438911389   T   T   T
  0.3800560733747038  0.5236194933257801  0.5972552775312704   T   T   T
  0.5357407240427593  0.5233718032467390  0.3012170703839532   T   T   T
  0.3889759419533929  0.4513145985759098  0.3772162165444961   T   T   T
  0.6805522523975268  0.4511713267147180  0.3777067689967828   T   T   T
  0.6890711391985164  0.5231693135381624  0.4490363714560833   T   T   T
  0.4613510339934379  0.4504110489934376  0.4498710309934353   F   F   F
  0.4613510339934379  0.5966689310065618  0.4498710309934353   F   F   F
  0.6076089470065611  0.5966689310065618  0.4498710309934353   F   F   F
  0.5355119287427800  0.6792357468568778  0.4494262734913548   T   T   T
  0.5304578991761456  0.7535895323122724  0.5235669880713564   T   T   T
  0.3896714441982212  0.6706817348276221  0.5937532097370199   T   T   T
  0.6877978569173296  0.4475180935690506  0.5234133365299373   T   T   T
  0.3885472281974839  0.3770191114191323  0.4520273406621297   T   T   T
  0.3886983835343635  0.5953556932251780  0.3773528777741307   T   T   T
  0.4627523304206198  0.3783678755395141  0.6695433992630146   T   T   T
  0.6818584887413016  0.4510921994255967  0.6667935529120249   T   T   T
  0.6076089470065611  0.5966689310065618  0.5961189590065601   F   F   F
  0.5344964548359644  0.4472174097884253  0.3705566897720834   T   T   T
  0.5344799760000001  0.5235400199999987  0.4439487216173603   F   F   F
  0.6794236354607798  0.6709341165870621  0.5942607082856454   T   T   T
  0.5340881483493537  0.5986688562722827  0.6761832112850972   T   T   T
  0.4613510339934379  0.5966689310065618  0.5961189590065601   F   F   F
  0.4567653400741557  0.5235199639094192  0.6786868865494332   T   T   T
  0.6106376465603961  0.5237429274388812  0.3708971281488913   T   T   T
  0.6784769554167565  0.3766556921547656  0.4519055461875638   T   T   T
  0.6076089470065611  0.4504110489934376  0.5961189590065601   F   F   F
  0.3874898607016640  0.5969238130180746  0.6668872134205648   T   T   T
  0.5308713720774014  0.2936816448340224  0.5241033517226191   T   T   T
  0.6814536840959343  0.5960326525461750  0.6669707137167600   T   T   T
  0.3898885412447516  0.3763296200858757  0.5940268267161330   T   T   T
  0.5344270254851406  0.5999200513371665  0.3704596997193132   T   T   T
  0.6784031568015400  0.6707362781788754  0.4521564930772771   T   T   T
  0.6065782041740145  0.6697664870091227  0.3772090666277923   T   T   T
  0.6071525238615568  0.3674849348558357  0.5238266673602506   T   T   T
  0.4554287246173629  0.5235400199999987  0.5229899879999991   F   F   F
  0.6070755047619464  0.6798648855520111  0.5238033629676244   T   T   T
  0.6058488721017311  0.6699285058535658  0.6677621828437480   T   T   T
  0.5357330376264852  0.3678109820561061  0.4496619194287382   T   T   T
  0.4626971306491967  0.3760608766243542  0.3794591176969106   T   T   T
  0.6058686795610724  0.3774149413676183  0.6678473760185076   T   T   T
  0.5341566435648483  0.4487168812775373  0.6764647063327759   T   T   T
  0.7604833705813902  0.5235745413595044  0.5211489412261836   T   T   T
  0.3808002345024361  0.5233380118478458  0.4483876083978483   T   T   T
  0.4741214735635414  0.5278346466105583  0.8006272760860454   T   T   T
  0.4133840410176948  0.5217253278554466  0.7505192184272828   T   T   T
  0.4314557102314112  0.5250052835625000  0.7903124849880185   T   T   T
  0.4070540436374718  0.5252694067633745  0.8199805556730577   T   T   T
 
  0.00000000E+00  0.00000000E+00  0.00000000E+00
  0.00000000E+00  0.00000000E+00  0.00000000E+00
  0.00000000E+00  0.00000000E+00  0.00000000E+00
  0.00000000E+00  0.00000000E+00  0.00000000E+00
  0.00000000E+00  0.00000000E+00  0.00000000E+00
  0.00000000E+00  0.00000000E+00  0.00000000E+00
  0.00000000E+00  0.00000000E+00  0.00000000E+00
  0.00000000E+00  0.00000000E+00  0.00000000E+00
  0.00000000E+00  0.00000000E+00  0.00000000E+00
  0.00000000E+00  0.00000000E+00  0.00000000E+00
  0.00000000E+00  0.00000000E+00  0.00000000E+00
  0.00000000E+00  0.00000000E+00  0.00000000E+00
  0.00000000E+00  0.00000000E+00  0.00000000E+00
  0.00000000E+00  0.00000000E+00  0.00000000E+00
  0.00000000E+00  0.00000000E+00  0.00000000E+00
  0.00000000E+00  0.00000000E+00  0.00000000E+00
  0.00000000E+00  0.00000000E+00  0.00000000E+00
  0.00000000E+00  0.00000000E+00  0.00000000E+00
  0.00000000E+00  0.00000000E+00  0.00000000E+00
  0.00000000E+00  0.00000000E+00  0.00000000E+00
  0.00000000E+00  0.00000000E+00  0.00000000E+00
  0.00000000E+00  0.00000000E+00  0.00000000E+00
  0.00000000E+00  0.00000000E+00  0.00000000E+00
  0.00000000E+00  0.00000000E+00  0.00000000E+00
  0.00000000E+00  0.00000000E+00  0.00000000E+00
  0.00000000E+00  0.00000000E+00  0.00000000E+00
  0.00000000E+00  0.00000000E+00  0.00000000E+00
  0.00000000E+00  0.00000000E+00  0.00000000E+00
  0.00000000E+00  0.00000000E+00  0.00000000E+00
  0.00000000E+00  0.00000000E+00  0.00000000E+00
  0.00000000E+00  0.00000000E+00  0.00000000E+00
  0.00000000E+00  0.00000000E+00  0.00000000E+00
  0.00000000E+00  0.00000000E+00  0.00000000E+00
  0.00000000E+00  0.00000000E+00  0.00000000E+00
  0.00000000E+00  0.00000000E+00  0.00000000E+00
  0.00000000E+00  0.00000000E+00  0.00000000E+00
  0.00000000E+00  0.00000000E+00  0.00000000E+00
  0.00000000E+00  0.00000000E+00  0.00000000E+00
  0.00000000E+00  0.00000000E+00  0.00000000E+00
  0.00000000E+00  0.00000000E+00  0.00000000E+00
  0.00000000E+00  0.00000000E+00  0.00000000E+00
  0.00000000E+00  0.00000000E+00  0.00000000E+00
  0.00000000E+00  0.00000000E+00  0.00000000E+00
  0.00000000E+00  0.00000000E+00  0.00000000E+00
  0.00000000E+00  0.00000000E+00  0.00000000E+00
  0.00000000E+00  0.00000000E+00  0.00000000E+00
  0.00000000E+00  0.00000000E+00  0.00000000E+00
  0.00000000E+00  0.00000000E+00  0.00000000E+00
  0.00000000E+00  0.00000000E+00  0.00000000E+00
  0.00000000E+00  0.00000000E+00  0.00000000E+00
  0.00000000E+00  0.00000000E+00  0.00000000E+00
  0.00000000E+00  0.00000000E+00  0.00000000E+00
  0.00000000E+00  0.00000000E+00  0.00000000E+00
  0.00000000E+00  0.00000000E+00  0.00000000E+00
  0.00000000E+00  0.00000000E+00  0.00000000E+00
  0.00000000E+00  0.00000000E+00  0.00000000E+00
  0.00000000E+00  0.00000000E+00  0.00000000E+00
  0.00000000E+00  0.00000000E+00  0.00000000E+00
  0.00000000E+00  0.00000000E+00  0.00000000E+00
  0.00000000E+00  0.00000000E+00  0.00000000E+00
  0.00000000E+00  0.00000000E+00  0.00000000E+00
  0.00000000E+00  0.00000000E+00  0.00000000E+00
  0.00000000E+00  0.00000000E+00  0.00000000E+00
  0.00000000E+00  0.00000000E+00  0.00000000E+00
  0.00000000E+00  0.00000000E+00  0.00000000E+00
  0.00000000E+00  0.00000000E+00  0.00000000E+00
  0.00000000E+00  0.00000000E+00  0.00000000E+00
  0.00000000E+00  0.00000000E+00  0.00000000E+00
  0.00000000E+00  0.00000000E+00  0.00000000E+00
  0.00000000E+00  0.00000000E+00  0.00000000E+00
  0.00000000E+00  0.00000000E+00  0.00000000E+00
  0.00000000E+00  0.00000000E+00  0.00000000E+00
