Sn O  C  H                              
   1.00000000000000     
    29.0000000000000000    0.0000000000000000    0.0000000000000000
     0.0000000000000000   29.0000000000000000    0.0000000000000000
     0.0000000000000000    0.0000000000000000   29.0000000000000000
   Sn   O    C    H 
    68     2     1     1
Selective dynamics
Direct
  0.5354131538245208  0.5218761523545662  0.7428044761479241   T   T   T
  0.3916904282845722  0.6712615784768675  0.4523828903448330   T   T   T
  0.3801764181534744  0.5987307753391279  0.5224475800945253   T   T   T
  0.6076089470065611  0.4504110489934376  0.4498710309934353   F   F   F
  0.4613510339934379  0.4504110489934376  0.5961189590065601   F   F   F
  0.6895504386525610  0.5975315061595603  0.5253249680499670   T   T   T
  0.4581154425262459  0.5250565244712666  0.3710796456858992   T   T   T
  0.4595933334868624  0.3689527158537462  0.5229190920982707   T   T   T
  0.6111048070983218  0.5243407880552007  0.6752414921632464   T   T   T
  0.3881693811675495  0.4510796482961023  0.6682312774376502   T   T   T
  0.5363706733923393  0.6780510563894330  0.5975806034654564   T   T   T
  0.6058909244900478  0.3765281029048249  0.3791298542591102   T   T   T
  0.4602594176425636  0.6786128167405741  0.5257653228681651   T   T   T
  0.4613468284249395  0.6686158585726845  0.3755232017141891   T   T   T
  0.6895660779747609  0.5221011261502083  0.5978334541925717   T   T   T
  0.6779787706418550  0.5975569252753962  0.3757308229054628   T   T   T
  0.6818125136480951  0.3804011731333296  0.5930098511580647   T   T   T
  0.5344799760000001  0.4444887396173627  0.5229899879999991   F   F   F
  0.3798792125914832  0.4488217664672775  0.5225965206820142   T   T   T
  0.5344799760000001  0.6025912403826368  0.5229899879999991   F   F   F
  0.5344799760000001  0.5235400199999987  0.6020412683826351   F   F   F
  0.4624901821713271  0.6708639543312828  0.6665439541125437   T   T   T
  0.6135312563826361  0.5235400199999987  0.5229899879999991   F   F   F
  0.5341199264540595  0.3680275551308906  0.5961733342034009   T   T   T
  0.3078667388517677  0.5247032137717225  0.5240887563597234   T   T   T
  0.3800143157970822  0.5232598129857693  0.5971083593407673   T   T   T
  0.5334300386246871  0.5229213619735814  0.3033638797518184   T   T   T
  0.3888308372139279  0.4516037748751298  0.3771663065945686   T   T   T
  0.6809939580465434  0.4523980488125380  0.3786694237140251   T   T   T
  0.6892766927008003  0.5256700026360185  0.4478456528584273   T   T   T
  0.4613510339934379  0.4504110489934376  0.4498710309934353   F   F   F
  0.4613510339934379  0.5966689310065618  0.4498710309934353   F   F   F
  0.6076089470065611  0.5966689310065618  0.4498710309934353   F   F   F
  0.5301628763348214  0.6797234808718003  0.4493731387672693   T   T   T
  0.5351599468022986  0.7514594327768622  0.5253938645963324   T   T   T
  0.3868115466926400  0.6695164765480861  0.5942575768954232   T   T   T
  0.6895375404291506  0.4502424049322395  0.5211709066814607   T   T   T
  0.3887587343111547  0.3774115852157495  0.4513656873058086   T   T   T
  0.3865702361262109  0.5960466239005334  0.3787796965529813   T   T   T
  0.4622351951406182  0.3763364462114312  0.6673415916112930   T   T   T
  0.6785530901898273  0.4496770765033314  0.6704489286051086   T   T   T
  0.6076089470065611  0.5966689310065618  0.5961189590065601   F   F   F
  0.5341814430034737  0.4471583333221174  0.3710373481543485   T   T   T
  0.5344799760000001  0.5235400199999987  0.4439487216173603   F   F   F
  0.6769234796421543  0.6711476976092112  0.5930773325290255   T   T   T
  0.5340552451786313  0.5998427641715748  0.6759838506940450   T   T   T
  0.4613510339934379  0.5966689310065618  0.5961189590065601   F   F   F
  0.4586509582025359  0.5229772888146720  0.6756397493637835   T   T   T
  0.6098795867377010  0.5237099188087259  0.3702483436396710   T   T   T
  0.6805169692212787  0.3771365238709729  0.4515145747907237   T   T   T
  0.6076089470065611  0.4504110489934376  0.5961189590065601   F   F   F
  0.3885762943420996  0.5954860348214077  0.6678743057303054   T   T   T
  0.5349799086951320  0.2966835204011251  0.5222214781974213   T   T   T
  0.6812991864963308  0.5959492869809895  0.6674072144760465   T   T   T
  0.3882787298057113  0.3777929302123807  0.5944420540763722   T   T   T
  0.5367230391362828  0.6027294316229703  0.3688107432678736   T   T   T
  0.6848723326666984  0.6659317840679262  0.4531907947160672   T   T   T
  0.6069748908533431  0.6761758042852123  0.3818434826911500   T   T   T
  0.6093240081882537  0.3689423679235465  0.5227258764779313   T   T   T
  0.4554287246173629  0.5235400199999987  0.5229899879999991   F   F   F
  0.6085143667568326  0.6778543216529198  0.5186006116046807   T   T   T
  0.6068286604745193  0.6689092734572235  0.6703220006270011   T   T   T
  0.5334220178704409  0.3682132129079490  0.4492383029477035   T   T   T
  0.4624841083312980  0.3769609596431441  0.3773643657711082   T   T   T
  0.6064112480208161  0.3749987795402736  0.6665045921055882   T   T   T
  0.5352256707553585  0.4459614026187168  0.6747413113918055   T   T   T
  0.7615325962921383  0.5246777028858434  0.5220046442693032   T   T   T
  0.3795686047590026  0.5233288599710518  0.4486892040269860   T   T   T
  0.5461009717765019  0.6359223025813919  0.2894705357366318   T   T   T
  0.5970022128987510  0.6947318464899546  0.3040665184932478   T   T   T
  0.5695616781590906  0.6711737984621705  0.2787875395095024   T   T   T
  0.5659922645334031  0.6838691059747194  0.2427002137503966   T   T   T
 
  0.00000000E+00  0.00000000E+00  0.00000000E+00
  0.00000000E+00  0.00000000E+00  0.00000000E+00
  0.00000000E+00  0.00000000E+00  0.00000000E+00
  0.00000000E+00  0.00000000E+00  0.00000000E+00
  0.00000000E+00  0.00000000E+00  0.00000000E+00
  0.00000000E+00  0.00000000E+00  0.00000000E+00
  0.00000000E+00  0.00000000E+00  0.00000000E+00
  0.00000000E+00  0.00000000E+00  0.00000000E+00
  0.00000000E+00  0.00000000E+00  0.00000000E+00
  0.00000000E+00  0.00000000E+00  0.00000000E+00
  0.00000000E+00  0.00000000E+00  0.00000000E+00
  0.00000000E+00  0.00000000E+00  0.00000000E+00
  0.00000000E+00  0.00000000E+00  0.00000000E+00
  0.00000000E+00  0.00000000E+00  0.00000000E+00
  0.00000000E+00  0.00000000E+00  0.00000000E+00
  0.00000000E+00  0.00000000E+00  0.00000000E+00
  0.00000000E+00  0.00000000E+00  0.00000000E+00
  0.00000000E+00  0.00000000E+00  0.00000000E+00
  0.00000000E+00  0.00000000E+00  0.00000000E+00
  0.00000000E+00  0.00000000E+00  0.00000000E+00
  0.00000000E+00  0.00000000E+00  0.00000000E+00
  0.00000000E+00  0.00000000E+00  0.00000000E+00
  0.00000000E+00  0.00000000E+00  0.00000000E+00
  0.00000000E+00  0.00000000E+00  0.00000000E+00
  0.00000000E+00  0.00000000E+00  0.00000000E+00
  0.00000000E+00  0.00000000E+00  0.00000000E+00
  0.00000000E+00  0.00000000E+00  0.00000000E+00
  0.00000000E+00  0.00000000E+00  0.00000000E+00
  0.00000000E+00  0.00000000E+00  0.00000000E+00
  0.00000000E+00  0.00000000E+00  0.00000000E+00
  0.00000000E+00  0.00000000E+00  0.00000000E+00
  0.00000000E+00  0.00000000E+00  0.00000000E+00
  0.00000000E+00  0.00000000E+00  0.00000000E+00
  0.00000000E+00  0.00000000E+00  0.00000000E+00
  0.00000000E+00  0.00000000E+00  0.00000000E+00
  0.00000000E+00  0.00000000E+00  0.00000000E+00
  0.00000000E+00  0.00000000E+00  0.00000000E+00
  0.00000000E+00  0.00000000E+00  0.00000000E+00
  0.00000000E+00  0.00000000E+00  0.00000000E+00
  0.00000000E+00  0.00000000E+00  0.00000000E+00
  0.00000000E+00  0.00000000E+00  0.00000000E+00
  0.00000000E+00  0.00000000E+00  0.00000000E+00
  0.00000000E+00  0.00000000E+00  0.00000000E+00
  0.00000000E+00  0.00000000E+00  0.00000000E+00
  0.00000000E+00  0.00000000E+00  0.00000000E+00
  0.00000000E+00  0.00000000E+00  0.00000000E+00
  0.00000000E+00  0.00000000E+00  0.00000000E+00
  0.00000000E+00  0.00000000E+00  0.00000000E+00
  0.00000000E+00  0.00000000E+00  0.00000000E+00
  0.00000000E+00  0.00000000E+00  0.00000000E+00
  0.00000000E+00  0.00000000E+00  0.00000000E+00
  0.00000000E+00  0.00000000E+00  0.00000000E+00
  0.00000000E+00  0.00000000E+00  0.00000000E+00
  0.00000000E+00  0.00000000E+00  0.00000000E+00
  0.00000000E+00  0.00000000E+00  0.00000000E+00
  0.00000000E+00  0.00000000E+00  0.00000000E+00
  0.00000000E+00  0.00000000E+00  0.00000000E+00
  0.00000000E+00  0.00000000E+00  0.00000000E+00
  0.00000000E+00  0.00000000E+00  0.00000000E+00
  0.00000000E+00  0.00000000E+00  0.00000000E+00
  0.00000000E+00  0.00000000E+00  0.00000000E+00
  0.00000000E+00  0.00000000E+00  0.00000000E+00
  0.00000000E+00  0.00000000E+00  0.00000000E+00
  0.00000000E+00  0.00000000E+00  0.00000000E+00
  0.00000000E+00  0.00000000E+00  0.00000000E+00
  0.00000000E+00  0.00000000E+00  0.00000000E+00
  0.00000000E+00  0.00000000E+00  0.00000000E+00
  0.00000000E+00  0.00000000E+00  0.00000000E+00
  0.00000000E+00  0.00000000E+00  0.00000000E+00
  0.00000000E+00  0.00000000E+00  0.00000000E+00
  0.00000000E+00  0.00000000E+00  0.00000000E+00
  0.00000000E+00  0.00000000E+00  0.00000000E+00
