Sn O  C  H                              
   1.00000000000000     
    29.0000000000000000    0.0000000000000000    0.0000000000000000
     0.0000000000000000   29.0000000000000000    0.0000000000000000
     0.0000000000000000    0.0000000000000000   29.0000000000000000
   Sn   O    C    H 
    68     2     1     1
Selective dynamics
Direct
  0.5377574588387639  0.5254424666369024  0.7518699439018431   T   T   T
  0.3861109356322656  0.6649912788179235  0.4510116153399436   T   T   T
  0.3786599255965392  0.5954195482790884  0.5236707509582649   T   T   T
  0.6076089470065611  0.4504110489934376  0.4498710309934353   F   F   F
  0.4613510339934379  0.4504110489934376  0.5961189590065601   F   F   F
  0.6903532702959997  0.5967547148594879  0.5245766556642522   T   T   T
  0.4625613287570169  0.5246158749286892  0.3659341443775268   T   T   T
  0.4548396122193457  0.3742277141517261  0.5233689098550109   T   T   T
  0.6082331349868996  0.5229493535729426  0.6781150065666639   T   T   T
  0.3922050266198285  0.4532757255228288  0.6727633358865404   T   T   T
  0.5349789303168925  0.6758705231094979  0.5990828424131582   T   T   T
  0.6089151695283435  0.3821837707567203  0.3745733865491941   T   T   T
  0.4573057531906808  0.6748340618327102  0.5225646144674320   T   T   T
  0.4633402509518241  0.6679397249046622  0.3770173930825127   T   T   T
  0.6887590440168285  0.5227128722411385  0.5978731693844862   T   T   T
  0.6777555638248807  0.5933923487244210  0.3752535886990623   T   T   T
  0.6798927724916614  0.3787172076434940  0.5954116263257306   T   T   T
  0.5344799760000001  0.4444887396173627  0.5229899879999991   F   F   F
  0.3775602831460169  0.4513993344557778  0.5225833186419162   T   T   T
  0.5344799760000001  0.6025912403826368  0.5229899879999991   F   F   F
  0.5344799760000001  0.5235400199999987  0.6020412683826351   F   F   F
  0.4622125570970655  0.6696155145375607  0.6686589929245250   T   T   T
  0.6135312563826361  0.5235400199999987  0.5229899879999991   F   F   F
  0.5345398928775885  0.3714486501079096  0.5985688839089420   T   T   T
  0.3065529620359534  0.5248857263097805  0.5144152851381212   T   T   T
  0.3819721578226156  0.5223679842372135  0.5989761054136514   T   T   T
  0.5378309610814924  0.5255493540988718  0.2947919558358619   T   T   T
  0.3934098046126902  0.4519728174792350  0.3733463769886209   T   T   T
  0.6836552294730763  0.4528345878018868  0.3783078720169823   T   T   T
  0.6875487142999548  0.5245127913801265  0.4479782425012565   T   T   T
  0.4613510339934379  0.4504110489934376  0.4498710309934353   F   F   F
  0.4613510339934379  0.5966689310065618  0.4498710309934353   F   F   F
  0.6076089470065611  0.5966689310065618  0.4498710309934353   F   F   F
  0.5347606179371958  0.6772227231469782  0.4479512543055619   T   T   T
  0.5334500731604161  0.7441872270306753  0.5247099575570061   T   T   T
  0.3864790980071354  0.6670884983066007  0.5944641244023631   T   T   T
  0.6888577456924896  0.4488405656631320  0.5228546821434229   T   T   T
  0.3851515048760625  0.3809850125459642  0.4505062477821339   T   T   T
  0.3903515470513527  0.5941628009326702  0.3740066786253323   T   T   T
  0.4620928548662113  0.3765275769380245  0.6676338592029498   T   T   T
  0.6795540457699288  0.4524036261225749  0.6702917027331791   T   T   T
  0.6076089470065611  0.5966689310065618  0.5961189590065601   F   F   F
  0.5317431436935015  0.4476134400809779  0.3695919068028908   T   T   T
  0.5344799760000001  0.5235400199999987  0.4439487216173603   F   F   F
  0.6809588996275850  0.6687237117106013  0.5956057143229188   T   T   T
  0.5351988896514444  0.5990201084236279  0.6775430872007926   T   T   T
  0.4613510339934379  0.5966689310065618  0.5961189590065601   F   F   F
  0.4614418948496547  0.5260881280047166  0.6795782879530557   T   T   T
  0.6088928364165377  0.5200978340491448  0.3683160450099559   T   T   T
  0.6801841862446385  0.3773840045822403  0.4507033932955940   T   T   T
  0.6076089470065611  0.4504110489934376  0.5961189590065601   F   F   F
  0.3898459173066868  0.5961840312971094  0.6701918967492186   T   T   T
  0.5225418815261920  0.2987649634912559  0.5297571017204797   T   T   T
  0.6795566031333655  0.5937477181420538  0.6685288108513563   T   T   T
  0.3841295759778537  0.3829564290434548  0.5967074007781568   T   T   T
  0.5363801103413380  0.5983678409482303  0.3689615962321090   T   T   T
  0.6823663792372660  0.6663000704029336  0.4508406135079110   T   T   T
  0.6067355052772744  0.6711730920679486  0.3786722024111662   T   T   T
  0.6098660022507199  0.3709778109715067  0.5222785317097852   T   T   T
  0.4554287246173629  0.5235400199999987  0.5229899879999991   F   F   F
  0.6113178622818030  0.6752688695510173  0.5224285014506022   T   T   T
  0.6069353205242146  0.6700800006140043  0.6690311984893025   T   T   T
  0.5370195374435269  0.3644825248440888  0.4476420645986618   T   T   T
  0.4624463310345236  0.3742120621724195  0.3808339432862072   T   T   T
  0.6047171479057782  0.3803028873772024  0.6706156938052426   T   T   T
  0.5316808793647183  0.4501564518202574  0.6784010221507288   T   T   T
  0.7622574235889921  0.5212456283407949  0.5209829034455750   T   T   T
  0.3819308310344748  0.5229652585805525  0.4451047118179053   T   T   T
  0.6046133286248588  0.2759438779417377  0.4736795396094691   T   T   T
  0.5588587036878702  0.2961215129529814  0.4126425480994138   T   T   T
  0.5897226043849730  0.2712406230235256  0.4333920376939892   T   T   T
  0.6037566796786036  0.2427122510086199  0.4117266527646991   T   T   T
 
  0.00000000E+00  0.00000000E+00  0.00000000E+00
  0.00000000E+00  0.00000000E+00  0.00000000E+00
  0.00000000E+00  0.00000000E+00  0.00000000E+00
  0.00000000E+00  0.00000000E+00  0.00000000E+00
  0.00000000E+00  0.00000000E+00  0.00000000E+00
  0.00000000E+00  0.00000000E+00  0.00000000E+00
  0.00000000E+00  0.00000000E+00  0.00000000E+00
  0.00000000E+00  0.00000000E+00  0.00000000E+00
  0.00000000E+00  0.00000000E+00  0.00000000E+00
  0.00000000E+00  0.00000000E+00  0.00000000E+00
  0.00000000E+00  0.00000000E+00  0.00000000E+00
  0.00000000E+00  0.00000000E+00  0.00000000E+00
  0.00000000E+00  0.00000000E+00  0.00000000E+00
  0.00000000E+00  0.00000000E+00  0.00000000E+00
  0.00000000E+00  0.00000000E+00  0.00000000E+00
  0.00000000E+00  0.00000000E+00  0.00000000E+00
  0.00000000E+00  0.00000000E+00  0.00000000E+00
  0.00000000E+00  0.00000000E+00  0.00000000E+00
  0.00000000E+00  0.00000000E+00  0.00000000E+00
  0.00000000E+00  0.00000000E+00  0.00000000E+00
  0.00000000E+00  0.00000000E+00  0.00000000E+00
  0.00000000E+00  0.00000000E+00  0.00000000E+00
  0.00000000E+00  0.00000000E+00  0.00000000E+00
  0.00000000E+00  0.00000000E+00  0.00000000E+00
  0.00000000E+00  0.00000000E+00  0.00000000E+00
  0.00000000E+00  0.00000000E+00  0.00000000E+00
  0.00000000E+00  0.00000000E+00  0.00000000E+00
  0.00000000E+00  0.00000000E+00  0.00000000E+00
  0.00000000E+00  0.00000000E+00  0.00000000E+00
  0.00000000E+00  0.00000000E+00  0.00000000E+00
  0.00000000E+00  0.00000000E+00  0.00000000E+00
  0.00000000E+00  0.00000000E+00  0.00000000E+00
  0.00000000E+00  0.00000000E+00  0.00000000E+00
  0.00000000E+00  0.00000000E+00  0.00000000E+00
  0.00000000E+00  0.00000000E+00  0.00000000E+00
  0.00000000E+00  0.00000000E+00  0.00000000E+00
  0.00000000E+00  0.00000000E+00  0.00000000E+00
  0.00000000E+00  0.00000000E+00  0.00000000E+00
  0.00000000E+00  0.00000000E+00  0.00000000E+00
  0.00000000E+00  0.00000000E+00  0.00000000E+00
  0.00000000E+00  0.00000000E+00  0.00000000E+00
  0.00000000E+00  0.00000000E+00  0.00000000E+00
  0.00000000E+00  0.00000000E+00  0.00000000E+00
  0.00000000E+00  0.00000000E+00  0.00000000E+00
  0.00000000E+00  0.00000000E+00  0.00000000E+00
  0.00000000E+00  0.00000000E+00  0.00000000E+00
  0.00000000E+00  0.00000000E+00  0.00000000E+00
  0.00000000E+00  0.00000000E+00  0.00000000E+00
  0.00000000E+00  0.00000000E+00  0.00000000E+00
  0.00000000E+00  0.00000000E+00  0.00000000E+00
  0.00000000E+00  0.00000000E+00  0.00000000E+00
  0.00000000E+00  0.00000000E+00  0.00000000E+00
  0.00000000E+00  0.00000000E+00  0.00000000E+00
  0.00000000E+00  0.00000000E+00  0.00000000E+00
  0.00000000E+00  0.00000000E+00  0.00000000E+00
  0.00000000E+00  0.00000000E+00  0.00000000E+00
  0.00000000E+00  0.00000000E+00  0.00000000E+00
  0.00000000E+00  0.00000000E+00  0.00000000E+00
  0.00000000E+00  0.00000000E+00  0.00000000E+00
  0.00000000E+00  0.00000000E+00  0.00000000E+00
  0.00000000E+00  0.00000000E+00  0.00000000E+00
  0.00000000E+00  0.00000000E+00  0.00000000E+00
  0.00000000E+00  0.00000000E+00  0.00000000E+00
  0.00000000E+00  0.00000000E+00  0.00000000E+00
  0.00000000E+00  0.00000000E+00  0.00000000E+00
  0.00000000E+00  0.00000000E+00  0.00000000E+00
  0.00000000E+00  0.00000000E+00  0.00000000E+00
  0.00000000E+00  0.00000000E+00  0.00000000E+00
  0.00000000E+00  0.00000000E+00  0.00000000E+00
  0.00000000E+00  0.00000000E+00  0.00000000E+00
  0.00000000E+00  0.00000000E+00  0.00000000E+00
  0.00000000E+00  0.00000000E+00  0.00000000E+00
