Sn O  C  H                              
   1.00000000000000     
    29.0000000000000000    0.0000000000000000    0.0000000000000000
     0.0000000000000000   29.0000000000000000    0.0000000000000000
     0.0000000000000000    0.0000000000000000   29.0000000000000000
   Sn   O    C    H 
    68     2     1     1
Selective dynamics
Direct
  0.5344799760000001  0.5252807405432069  0.7457791766295957   T   T   T
  0.3867532265470807  0.6677723576106867  0.4514334321451646   T   T   T
  0.3782081943053308  0.5961540665216229  0.5224415917373659   T   T   T
  0.6076089470065611  0.4504110489934376  0.4498710309934353   F   F   F
  0.4613510339934379  0.4504110489934376  0.5961189590065601   F   F   F
  0.6907518166946707  0.5961540665216229  0.5224415917373659   T   T   T
  0.4596908257893939  0.5231328974223814  0.3694706872276073   T   T   T
  0.4591155433673369  0.3700165184531700  0.5223664919509734   T   T   T
  0.6105926632895030  0.5236492364421007  0.6758658992676857   T   T   T
  0.3876565680425996  0.4514507366820381  0.6672383281889518   T   T   T
  0.5344799760000001  0.6788010737135103  0.5964045189829107   T   T   T
  0.6071755866205253  0.3773412540675223  0.3781148964447114   T   T   T
  0.4582691565623058  0.6768724120983478  0.5227533338400676   T   T   T
  0.4620397954356221  0.6711580937076015  0.3793878225180902   T   T   T
  0.6900677061251870  0.5243061161508382  0.5966486443983980   T   T   T
  0.6802582397293175  0.5949786322425579  0.3774818097932962   T   T   T
  0.6805306123758584  0.3776053216080604  0.5940407104146657   T   T   T
  0.5344799760000001  0.4444887396173627  0.5229899879999991   F   F   F
  0.3792146060908134  0.4493109988005409  0.5232028367856970   T   T   T
  0.5344799760000001  0.6025912403826368  0.5229899879999991   F   F   F
  0.5344799760000001  0.5235400199999987  0.6020412683826351   F   F   F
  0.4622119410733173  0.6704053384212301  0.6669823733377231   T   T   T
  0.6135312563826361  0.5235400199999987  0.5229899879999991   F   F   F
  0.5344799760000001  0.3696312974223139  0.5973985805008162   T   T   T
  0.3045840400703334  0.5189353116572230  0.5222365575647931   T   T   T
  0.3788923048748147  0.5243061161508382  0.5966486443983980   T   T   T
  0.5344799760000001  0.5254032669909151  0.3000230931611297   T   T   T
  0.3889403399951592  0.4521593179004176  0.3767912309804088   T   T   T
  0.6800196710048423  0.4521593179004176  0.3767912309804088   T   T   T
  0.6899014584732244  0.5235443445983419  0.4488593873085667   T   T   T
  0.4613510339934379  0.4504110489934376  0.4498710309934353   F   F   F
  0.4613510339934379  0.5966689310065618  0.4498710309934353   F   F   F
  0.6076089470065611  0.5966689310065618  0.4498710309934353   F   F   F
  0.5344799760000001  0.6793590159182848  0.4497808778368587   T   T   T
  0.5344799760000001  0.7511416527629879  0.5251772125303027   T   T   T
  0.3871280648861071  0.6674926222530009  0.5939449613951036   T   T   T
  0.6897454049091886  0.4493109988005409  0.5232028367856970   T   T   T
  0.3878894476908158  0.3782400421200962  0.4516393520493657   T   T   T
  0.3887017712706837  0.5949786322425579  0.3774818097932962   T   T   T
  0.4626798165853697  0.3779402479083278  0.6687656659524541   T   T   T
  0.6813034429574016  0.4514507366820381  0.6672383281889518   T   T   T
  0.6076089470065611  0.5966689310065618  0.5961189590065601   F   F   F
  0.5344799760000001  0.4469860480862659  0.3666068304311926   T   T   T
  0.5344799760000001  0.5235400199999987  0.4439487216173603   F   F   F
  0.6818319461138949  0.6674926222530009  0.5939449613951036   T   T   T
  0.5344799760000001  0.5998899480443268  0.6749098575718809   T   T   T
  0.4613510339934379  0.5966689310065618  0.5961189590065601   F   F   F
  0.4583673177104963  0.5236492364421007  0.6758658992676857   T   T   T
  0.6092691552106053  0.5231328974223814  0.3694706872276073   T   T   T
  0.6810705633091860  0.3782400421200962  0.4516393520493657   T   T   T
  0.6076089470065611  0.4504110489934376  0.5961189590065601   F   F   F
  0.3884338431864200  0.5955151546630989  0.6688178989496840   T   T   T
  0.5344799760000001  0.2981590373525960  0.5226047810518295   T   T   T
  0.6805261678135811  0.5955151546630989  0.6688178989496840   T   T   T
  0.3884293986241426  0.3776053216080604  0.5940407104146657   T   T   T
  0.5344799760000001  0.6007532156667741  0.3730977391783835   T   T   T
  0.6822067844529212  0.6677723576106867  0.4514334321451646   T   T   T
  0.6069201855643701  0.6711580937076015  0.3793878225180902   T   T   T
  0.6098444376326617  0.3700165184531700  0.5223664919509734   T   T   T
  0.4554287246173629  0.5235400199999987  0.5229899879999991   F   F   F
  0.6106908244376928  0.6768724120983478  0.5227533338400676   T   T   T
  0.6067480399266750  0.6704053384212301  0.6669823733377231   T   T   T
  0.5344799760000001  0.3696271043517196  0.4482447306666018   T   T   T
  0.4617843943794668  0.3773412540675223  0.3781148964447114   T   T   T
  0.6062801644146218  0.3779402479083278  0.6687656659524541   T   T   T
  0.5344799760000001  0.4485022334648825  0.6760940886703507   T   T   T
  0.7643759709296678  0.5189353116572230  0.5222365575647931   T   T   T
  0.3790585525267772  0.5235443445983419  0.4488593873085667   T   T   T
  0.5344799570481271  0.4713167533955050  0.2415722415681394   T   T   T
  0.5344799671320501  0.4082138817272924  0.2891301349980733   T   T   T
  0.5344799603072516  0.4279575516291168  0.2502345628408251   T   T   T
  0.5344799580310280  0.4053534641894704  0.2192121225930589   T   T   T
 
  0.00000000E+00  0.00000000E+00  0.00000000E+00
  0.00000000E+00  0.00000000E+00  0.00000000E+00
  0.00000000E+00  0.00000000E+00  0.00000000E+00
  0.00000000E+00  0.00000000E+00  0.00000000E+00
  0.00000000E+00  0.00000000E+00  0.00000000E+00
  0.00000000E+00  0.00000000E+00  0.00000000E+00
  0.00000000E+00  0.00000000E+00  0.00000000E+00
  0.00000000E+00  0.00000000E+00  0.00000000E+00
  0.00000000E+00  0.00000000E+00  0.00000000E+00
  0.00000000E+00  0.00000000E+00  0.00000000E+00
  0.00000000E+00  0.00000000E+00  0.00000000E+00
  0.00000000E+00  0.00000000E+00  0.00000000E+00
  0.00000000E+00  0.00000000E+00  0.00000000E+00
  0.00000000E+00  0.00000000E+00  0.00000000E+00
  0.00000000E+00  0.00000000E+00  0.00000000E+00
  0.00000000E+00  0.00000000E+00  0.00000000E+00
  0.00000000E+00  0.00000000E+00  0.00000000E+00
  0.00000000E+00  0.00000000E+00  0.00000000E+00
  0.00000000E+00  0.00000000E+00  0.00000000E+00
  0.00000000E+00  0.00000000E+00  0.00000000E+00
  0.00000000E+00  0.00000000E+00  0.00000000E+00
  0.00000000E+00  0.00000000E+00  0.00000000E+00
  0.00000000E+00  0.00000000E+00  0.00000000E+00
  0.00000000E+00  0.00000000E+00  0.00000000E+00
  0.00000000E+00  0.00000000E+00  0.00000000E+00
  0.00000000E+00  0.00000000E+00  0.00000000E+00
  0.00000000E+00  0.00000000E+00  0.00000000E+00
  0.00000000E+00  0.00000000E+00  0.00000000E+00
  0.00000000E+00  0.00000000E+00  0.00000000E+00
  0.00000000E+00  0.00000000E+00  0.00000000E+00
  0.00000000E+00  0.00000000E+00  0.00000000E+00
  0.00000000E+00  0.00000000E+00  0.00000000E+00
  0.00000000E+00  0.00000000E+00  0.00000000E+00
  0.00000000E+00  0.00000000E+00  0.00000000E+00
  0.00000000E+00  0.00000000E+00  0.00000000E+00
  0.00000000E+00  0.00000000E+00  0.00000000E+00
  0.00000000E+00  0.00000000E+00  0.00000000E+00
  0.00000000E+00  0.00000000E+00  0.00000000E+00
  0.00000000E+00  0.00000000E+00  0.00000000E+00
  0.00000000E+00  0.00000000E+00  0.00000000E+00
  0.00000000E+00  0.00000000E+00  0.00000000E+00
  0.00000000E+00  0.00000000E+00  0.00000000E+00
  0.00000000E+00  0.00000000E+00  0.00000000E+00
  0.00000000E+00  0.00000000E+00  0.00000000E+00
  0.00000000E+00  0.00000000E+00  0.00000000E+00
  0.00000000E+00  0.00000000E+00  0.00000000E+00
  0.00000000E+00  0.00000000E+00  0.00000000E+00
  0.00000000E+00  0.00000000E+00  0.00000000E+00
  0.00000000E+00  0.00000000E+00  0.00000000E+00
  0.00000000E+00  0.00000000E+00  0.00000000E+00
  0.00000000E+00  0.00000000E+00  0.00000000E+00
  0.00000000E+00  0.00000000E+00  0.00000000E+00
  0.00000000E+00  0.00000000E+00  0.00000000E+00
  0.00000000E+00  0.00000000E+00  0.00000000E+00
  0.00000000E+00  0.00000000E+00  0.00000000E+00
  0.00000000E+00  0.00000000E+00  0.00000000E+00
  0.00000000E+00  0.00000000E+00  0.00000000E+00
  0.00000000E+00  0.00000000E+00  0.00000000E+00
  0.00000000E+00  0.00000000E+00  0.00000000E+00
  0.00000000E+00  0.00000000E+00  0.00000000E+00
  0.00000000E+00  0.00000000E+00  0.00000000E+00
  0.00000000E+00  0.00000000E+00  0.00000000E+00
  0.00000000E+00  0.00000000E+00  0.00000000E+00
  0.00000000E+00  0.00000000E+00  0.00000000E+00
  0.00000000E+00  0.00000000E+00  0.00000000E+00
  0.00000000E+00  0.00000000E+00  0.00000000E+00
  0.00000000E+00  0.00000000E+00  0.00000000E+00
  0.00000000E+00  0.00000000E+00  0.00000000E+00
  0.00000000E+00  0.00000000E+00  0.00000000E+00
  0.00000000E+00  0.00000000E+00  0.00000000E+00
  0.00000000E+00  0.00000000E+00  0.00000000E+00
  0.00000000E+00  0.00000000E+00  0.00000000E+00
