Ni O  C  H                              
   1.00000000000000     
    29.0000000000000000    0.0000000000000000    0.0000000000000000
     0.0000000000000000   29.0000000000000000    0.0000000000000000
     0.0000000000000000    0.0000000000000000   29.0000000000000000
   Ni   O    C    H 
    68     2     1     1
Selective dynamics
Direct
  0.4725594958443336  0.5014089697089966  0.6820883300028215   T   T   T
  0.3783138444878290  0.6281851201563928  0.4541728814822280   T   T   T
  0.3538076415537560  0.5616332924518976  0.5013094911691020   T   T   T
  0.5299894026218439  0.4443005803781617  0.4555705673781603   F   F   F
  0.4154505913781605  0.4443005803781617  0.5701094086218390   F   F   F
  0.5906818167461644  0.5615658448459562  0.5219290191180768   T   T   T
  0.4136507225249504  0.5118162790055270  0.3940319163067911   T   T   T
  0.4133551611960642  0.3833369136533793  0.5029966684978090   T   T   T
  0.5320684362511167  0.5122299158544067  0.6315712345295078   T   T   T
  0.3467415867659383  0.4429483655136753  0.6085347525848389   T   T   T
  0.4832056897707661  0.6206307936178423  0.5721289890591568   T   T   T
  0.5321974416543278  0.4048102331001755  0.3872639855912109   T   T   T
  0.4140615390396331  0.6201982527258234  0.5233963457018626   T   T   T
  0.4175537020208551  0.6015658408435728  0.3859380425887225   T   T   T
  0.5910640975167056  0.4915902731088521  0.5718917785332637   T   T   T
  0.5688923291857518  0.5583665360732475  0.3869028746043806   T   T   T
  0.5990012949034361  0.4059474016251296  0.5722037241843149   T   T   T
  0.4727199969999987  0.4440168789266536  0.5128399729999984   F   F   F
  0.3543089799501358  0.4427534618213940  0.5228207034205012   T   T   T
  0.4727199969999987  0.5591231230733484  0.5128399729999984   F   F   F
  0.4727199969999987  0.5015699859999998  0.5703931100733470   F   F   F
  0.4135155197847777  0.6279055245987996  0.6081497204786360   T   T   T
  0.5302731040733519  0.5015699859999998  0.5128399729999984   F   F   F
  0.4623654943282161  0.3830051342306357  0.5729077356735779   T   T   T
  0.3034392401716455  0.5019764198150780  0.5117097475434846   T   T   T
  0.3539446315700325  0.5122318351057474  0.5714832875132492   T   T   T
  0.4722675104185464  0.4991393567441458  0.3422266334677092   T   T   T
  0.3782635759519410  0.4416146951099975  0.3862530186868098   T   T   T
  0.5988048666539606  0.4425266668230926  0.4174298800877969   T   T   T
  0.5913340589136455  0.5121057456677234  0.4535188621058869   T   T   T
  0.4154505913781605  0.4443005803781617  0.4555705673781603   F   F   F
  0.4154505913781605  0.5588394216218404  0.4555705673781603   F   F   F
  0.5299894026218439  0.5588394216218404  0.4555705673781603   F   F   F
  0.4637559601043857  0.6190673446315103  0.4545597024122894   T   T   T
  0.4723309325149282  0.6718027582158568  0.5130102025838833   T   T   T
  0.3469620541340360  0.5973403372086799  0.5710764288021978   T   T   T
  0.5913613040842993  0.4424403237921994  0.5027538940450922   T   T   T
  0.3467076724439879  0.4063711216035366  0.4534619929244257   T   T   T
  0.3486715148683387  0.5624328590367750  0.4153203620593356   T   T   T
  0.4135028196258131  0.4062931561498369  0.6392394805836846   T   T   T
  0.5684690949059025  0.4428791975826455  0.6388049453078871   T   T   T
  0.5299894026218439  0.5588394216218404  0.5701094086218390   F   F   F
  0.4627651160683142  0.4413561618650745  0.3946021749064025   T   T   T
  0.4727199969999987  0.5015699859999998  0.4552868659266522   F   F   F
  0.5680525799587016  0.6278457935129264  0.5712556057298760   T   T   T
  0.4622325724386168  0.5611437296839766  0.6314738272782620   T   T   T
  0.4154505913781605  0.5588394216218404  0.5701094086218390   F   F   F
  0.4133002976644630  0.4915369690897503  0.6311044678567972   T   T   T
  0.5316355382484697  0.4898848663464664  0.3932909907899053   T   T   T
  0.5687633200127113  0.3756777205076238  0.4546263618372665   T   T   T
  0.5299894026218439  0.4443005803781617  0.5701094086218390   F   F   F
  0.3766873841238080  0.5611030322893619  0.6385634364685537   T   T   T
  0.4723111559767714  0.3320257327572160  0.5137381219726926   T   T   T
  0.5990630593819153  0.5611247827392506  0.6077236218234069   T   T   T
  0.3770443912413898  0.3757347764937874  0.5723616994064262   T   T   T
  0.4824540660301700  0.5577333054767202  0.3947332899278209   T   T   T
  0.5970852149774795  0.5986707068220493  0.4520932383483386   T   T   T
  0.5288841945608874  0.6267714973404873  0.4104493810430961   T   T   T
  0.5319793024248729  0.3827715685728971  0.5238305466662377   T   T   T
  0.4151668899266525  0.5015699859999998  0.5128399729999984   F   F   F
  0.5317762665063823  0.6207297572422883  0.5016256559546181   T   T   T
  0.5319033793272898  0.5975586339808935  0.6385090115686495   T   T   T
  0.4835674931733273  0.3825712230565444  0.4543355538661992   T   T   T
  0.4140136997512986  0.3750068820287496  0.4183706355735496   T   T   T
  0.5321449817008472  0.3755226251429004  0.6087752985454493   T   T   T
  0.4831932134060741  0.4421010590711929  0.6315582748454658   T   T   T
  0.6421662968655260  0.5022053902307407  0.5130665860851588   T   T   T
  0.3547198778618337  0.4923047151508420  0.4524230153696193   T   T   T
  0.4396039819907480  0.6396683168309847  0.3374540723700412   T   T   T
  0.5119341259503095  0.6646268897751603  0.3598626539884323   T   T   T
  0.4770478512529785  0.6623352093649334  0.3331748946827289   T   T   T
  0.4796874840470400  0.6832773273605993  0.3013692578327038   T   T   T
 
  0.00000000E+00  0.00000000E+00  0.00000000E+00
  0.00000000E+00  0.00000000E+00  0.00000000E+00
  0.00000000E+00  0.00000000E+00  0.00000000E+00
  0.00000000E+00  0.00000000E+00  0.00000000E+00
  0.00000000E+00  0.00000000E+00  0.00000000E+00
  0.00000000E+00  0.00000000E+00  0.00000000E+00
  0.00000000E+00  0.00000000E+00  0.00000000E+00
  0.00000000E+00  0.00000000E+00  0.00000000E+00
  0.00000000E+00  0.00000000E+00  0.00000000E+00
  0.00000000E+00  0.00000000E+00  0.00000000E+00
  0.00000000E+00  0.00000000E+00  0.00000000E+00
  0.00000000E+00  0.00000000E+00  0.00000000E+00
  0.00000000E+00  0.00000000E+00  0.00000000E+00
  0.00000000E+00  0.00000000E+00  0.00000000E+00
  0.00000000E+00  0.00000000E+00  0.00000000E+00
  0.00000000E+00  0.00000000E+00  0.00000000E+00
  0.00000000E+00  0.00000000E+00  0.00000000E+00
  0.00000000E+00  0.00000000E+00  0.00000000E+00
  0.00000000E+00  0.00000000E+00  0.00000000E+00
  0.00000000E+00  0.00000000E+00  0.00000000E+00
  0.00000000E+00  0.00000000E+00  0.00000000E+00
  0.00000000E+00  0.00000000E+00  0.00000000E+00
  0.00000000E+00  0.00000000E+00  0.00000000E+00
  0.00000000E+00  0.00000000E+00  0.00000000E+00
  0.00000000E+00  0.00000000E+00  0.00000000E+00
  0.00000000E+00  0.00000000E+00  0.00000000E+00
  0.00000000E+00  0.00000000E+00  0.00000000E+00
  0.00000000E+00  0.00000000E+00  0.00000000E+00
  0.00000000E+00  0.00000000E+00  0.00000000E+00
  0.00000000E+00  0.00000000E+00  0.00000000E+00
  0.00000000E+00  0.00000000E+00  0.00000000E+00
  0.00000000E+00  0.00000000E+00  0.00000000E+00
  0.00000000E+00  0.00000000E+00  0.00000000E+00
  0.00000000E+00  0.00000000E+00  0.00000000E+00
  0.00000000E+00  0.00000000E+00  0.00000000E+00
  0.00000000E+00  0.00000000E+00  0.00000000E+00
  0.00000000E+00  0.00000000E+00  0.00000000E+00
  0.00000000E+00  0.00000000E+00  0.00000000E+00
  0.00000000E+00  0.00000000E+00  0.00000000E+00
  0.00000000E+00  0.00000000E+00  0.00000000E+00
  0.00000000E+00  0.00000000E+00  0.00000000E+00
  0.00000000E+00  0.00000000E+00  0.00000000E+00
  0.00000000E+00  0.00000000E+00  0.00000000E+00
  0.00000000E+00  0.00000000E+00  0.00000000E+00
  0.00000000E+00  0.00000000E+00  0.00000000E+00
  0.00000000E+00  0.00000000E+00  0.00000000E+00
  0.00000000E+00  0.00000000E+00  0.00000000E+00
  0.00000000E+00  0.00000000E+00  0.00000000E+00
  0.00000000E+00  0.00000000E+00  0.00000000E+00
  0.00000000E+00  0.00000000E+00  0.00000000E+00
  0.00000000E+00  0.00000000E+00  0.00000000E+00
  0.00000000E+00  0.00000000E+00  0.00000000E+00
  0.00000000E+00  0.00000000E+00  0.00000000E+00
  0.00000000E+00  0.00000000E+00  0.00000000E+00
  0.00000000E+00  0.00000000E+00  0.00000000E+00
  0.00000000E+00  0.00000000E+00  0.00000000E+00
  0.00000000E+00  0.00000000E+00  0.00000000E+00
  0.00000000E+00  0.00000000E+00  0.00000000E+00
  0.00000000E+00  0.00000000E+00  0.00000000E+00
  0.00000000E+00  0.00000000E+00  0.00000000E+00
  0.00000000E+00  0.00000000E+00  0.00000000E+00
  0.00000000E+00  0.00000000E+00  0.00000000E+00
  0.00000000E+00  0.00000000E+00  0.00000000E+00
  0.00000000E+00  0.00000000E+00  0.00000000E+00
  0.00000000E+00  0.00000000E+00  0.00000000E+00
  0.00000000E+00  0.00000000E+00  0.00000000E+00
  0.00000000E+00  0.00000000E+00  0.00000000E+00
  0.00000000E+00  0.00000000E+00  0.00000000E+00
  0.00000000E+00  0.00000000E+00  0.00000000E+00
  0.00000000E+00  0.00000000E+00  0.00000000E+00
  0.00000000E+00  0.00000000E+00  0.00000000E+00
  0.00000000E+00  0.00000000E+00  0.00000000E+00
