Ni O  C  H                              
   1.00000000000000     
    29.0000000000000000    0.0000000000000000    0.0000000000000000
     0.0000000000000000   29.0000000000000000    0.0000000000000000
     0.0000000000000000    0.0000000000000000   29.0000000000000000
   Ni   O    C    H 
    68     2     1     1
Selective dynamics
Direct
  0.4746795055094754  0.5006449216356813  0.6824225055740553   T   T   T
  0.3463683329891909  0.5968398113995783  0.4543309810399945   T   T   T
  0.3536850961776005  0.5609489060312318  0.5240896803903166   T   T   T
  0.5299894026218439  0.4443005803781617  0.4555705673781603   F   F   F
  0.4154505913781605  0.4443005803781617  0.5701094086218390   F   F   F
  0.5918535642382826  0.5610232685511151  0.5012334100908442   T   T   T
  0.4127143323494469  0.4904972553244672  0.3938828099560773   T   T   T
  0.4140173990309196  0.3831924437030058  0.5232919606582787   T   T   T
  0.5334778423563683  0.4922732889470524  0.6306233551906586   T   T   T
  0.3776567032277250  0.4436721289910945  0.6394685588301334   T   T   T
  0.4625354572730181  0.6203203371621715  0.5720452866483980   T   T   T
  0.5310615531285710  0.3748057962809292  0.4183149935891614   T   T   T
  0.4130475513162480  0.6202148184960486  0.5025974886548300   T   T   T
  0.4127711477794810  0.6271377487005600  0.4167616745470949   T   T   T
  0.5920665918121348  0.5128670716252121  0.5708058622577222   T   T   T
  0.5979688711752699  0.5611403743226191  0.4160728131190914   T   T   T
  0.5692650749937793  0.3765164773322874  0.5719812066247172   T   T   T
  0.4727199969999987  0.4440168789266536  0.5128399729999984   F   F   F
  0.3547225676838888  0.4419697184591908  0.5033163786254905   T   T   T
  0.4727199969999987  0.5591231230733484  0.5128399729999984   F   F   F
  0.4727199969999987  0.5015699859999998  0.5703931100733470   F   F   F
  0.4150592589316431  0.5978347990982013  0.6389189537900835   T   T   T
  0.5302731040733519  0.5015699859999998  0.5128399729999984   F   F   F
  0.4830742787834326  0.3831837776383244  0.5724077210931713   T   T   T
  0.3036762670067369  0.5006950848225565  0.5140426980165593   T   T   T
  0.3550445409199104  0.4917236585485628  0.5731500204349921   T   T   T
  0.4726350247835306  0.4998231672424839  0.3432471994295577   T   T   T
  0.3461596540027856  0.4425301015955272  0.4179260716097917   T   T   T
  0.5666858900746087  0.4413218930641432  0.3860023965017840   T   T   T
  0.5908449749613289  0.4915256001984247  0.4523284576683708   T   T   T
  0.4154505913781605  0.4443005803781617  0.4555705673781603   F   F   F
  0.4154505913781605  0.5588394216218404  0.4555705673781603   F   F   F
  0.5299894026218439  0.5588394216218404  0.4555705673781603   F   F   F
  0.4823389143588785  0.6195358966523250  0.4527869408418358   T   T   T
  0.4728617304731472  0.6706736893783722  0.5119145206016398   T   T   T
  0.3777301574243716  0.6279982814906719  0.5724948000769170   T   T   T
  0.5907594216097873  0.4426940964835106  0.5224044085613140   T   T   T
  0.3764851962998618  0.3755637389004901  0.4545021968885495   T   T   T
  0.3758892557158255  0.5598794117925520  0.3873667396128951   T   T   T
  0.4131719744497783  0.3738450216002698  0.6097252515821376   T   T   T
  0.5997374455122996  0.4438137032476525  0.6074749060113391   T   T   T
  0.5299894026218439  0.5588394216218404  0.5701094086218390   F   F   F
  0.4820868281853238  0.4414706592840842  0.3951170131303011   T   T   T
  0.4727199969999987  0.5015699859999998  0.4552868659266522   F   F   F
  0.5985897165779969  0.5980003943950202  0.5704440640903031   T   T   T
  0.4842508488789369  0.5611141942527548  0.6321099433452581   T   T   T
  0.4154505913781605  0.5588394216218404  0.5701094086218390   F   F   F
  0.4149241223899546  0.5126380204496193  0.6321609089658188   T   T   T
  0.5313678743115000  0.5112873317843478  0.3943808617790511   T   T   T
  0.5984293953213541  0.4060456217072987  0.4532660628793943   T   T   T
  0.5299894026218439  0.4443005803781617  0.5701094086218390   F   F   F
  0.3475694053186926  0.5611862524221394  0.6098055906731038   T   T   T
  0.4722471933246186  0.3265023247197565  0.5128187721537319   T   T   T
  0.5699031095518358  0.5616524208596857  0.6379304801135116   T   T   T
  0.3460448464658146  0.4071219992840478  0.5730734083510909   T   T   T
  0.4613531741196951  0.5597833152745185  0.3933373491724282   T   T   T
  0.5673191359438815  0.6281924382206844  0.4527013797164676   T   T   T
  0.5304978197557060  0.5964641687365985  0.3862828091766433   T   T   T
  0.5312843581420122  0.3830151616056899  0.5030033675115000   T   T   T
  0.4151668899266525  0.5015699859999998  0.5128399729999984   F   F   F
  0.5318975432375233  0.6198327404363462  0.5224732023843213   T   T   T
  0.5320174900310553  0.6281090195459006  0.6077459851423220   T   T   T
  0.4619471139308006  0.3823111461029680  0.4547673096111284   T   T   T
  0.4128601100342225  0.4051302686208663  0.3873095217818598   T   T   T
  0.5333007617502706  0.4075363101555575  0.6394521067114702   T   T   T
  0.4633897693545490  0.4428081556733737  0.6305106470527444   T   T   T
  0.6424554391212877  0.5009953656147755  0.5110661401879721   T   T   T
  0.3540925957518716  0.5116874358551612  0.4545263441197973   T   T   T
  0.4528824778642837  0.2854123672967706  0.5744686460714953   T   T   T
  0.4209258424709739  0.3109221996079443  0.6435833575164851   T   T   T
  0.4364141234848320  0.3131588730755938  0.6031082909463202   T   T   T
  0.4571977665002948  0.2154457664665410  0.6365907186965570   T   T   T
 
  0.00000000E+00  0.00000000E+00  0.00000000E+00
  0.00000000E+00  0.00000000E+00  0.00000000E+00
  0.00000000E+00  0.00000000E+00  0.00000000E+00
  0.00000000E+00  0.00000000E+00  0.00000000E+00
  0.00000000E+00  0.00000000E+00  0.00000000E+00
  0.00000000E+00  0.00000000E+00  0.00000000E+00
  0.00000000E+00  0.00000000E+00  0.00000000E+00
  0.00000000E+00  0.00000000E+00  0.00000000E+00
  0.00000000E+00  0.00000000E+00  0.00000000E+00
  0.00000000E+00  0.00000000E+00  0.00000000E+00
  0.00000000E+00  0.00000000E+00  0.00000000E+00
  0.00000000E+00  0.00000000E+00  0.00000000E+00
  0.00000000E+00  0.00000000E+00  0.00000000E+00
  0.00000000E+00  0.00000000E+00  0.00000000E+00
  0.00000000E+00  0.00000000E+00  0.00000000E+00
  0.00000000E+00  0.00000000E+00  0.00000000E+00
  0.00000000E+00  0.00000000E+00  0.00000000E+00
  0.00000000E+00  0.00000000E+00  0.00000000E+00
  0.00000000E+00  0.00000000E+00  0.00000000E+00
  0.00000000E+00  0.00000000E+00  0.00000000E+00
  0.00000000E+00  0.00000000E+00  0.00000000E+00
  0.00000000E+00  0.00000000E+00  0.00000000E+00
  0.00000000E+00  0.00000000E+00  0.00000000E+00
  0.00000000E+00  0.00000000E+00  0.00000000E+00
  0.00000000E+00  0.00000000E+00  0.00000000E+00
  0.00000000E+00  0.00000000E+00  0.00000000E+00
  0.00000000E+00  0.00000000E+00  0.00000000E+00
  0.00000000E+00  0.00000000E+00  0.00000000E+00
  0.00000000E+00  0.00000000E+00  0.00000000E+00
  0.00000000E+00  0.00000000E+00  0.00000000E+00
  0.00000000E+00  0.00000000E+00  0.00000000E+00
  0.00000000E+00  0.00000000E+00  0.00000000E+00
  0.00000000E+00  0.00000000E+00  0.00000000E+00
  0.00000000E+00  0.00000000E+00  0.00000000E+00
  0.00000000E+00  0.00000000E+00  0.00000000E+00
  0.00000000E+00  0.00000000E+00  0.00000000E+00
  0.00000000E+00  0.00000000E+00  0.00000000E+00
  0.00000000E+00  0.00000000E+00  0.00000000E+00
  0.00000000E+00  0.00000000E+00  0.00000000E+00
  0.00000000E+00  0.00000000E+00  0.00000000E+00
  0.00000000E+00  0.00000000E+00  0.00000000E+00
  0.00000000E+00  0.00000000E+00  0.00000000E+00
  0.00000000E+00  0.00000000E+00  0.00000000E+00
  0.00000000E+00  0.00000000E+00  0.00000000E+00
  0.00000000E+00  0.00000000E+00  0.00000000E+00
  0.00000000E+00  0.00000000E+00  0.00000000E+00
  0.00000000E+00  0.00000000E+00  0.00000000E+00
  0.00000000E+00  0.00000000E+00  0.00000000E+00
  0.00000000E+00  0.00000000E+00  0.00000000E+00
  0.00000000E+00  0.00000000E+00  0.00000000E+00
  0.00000000E+00  0.00000000E+00  0.00000000E+00
  0.00000000E+00  0.00000000E+00  0.00000000E+00
  0.00000000E+00  0.00000000E+00  0.00000000E+00
  0.00000000E+00  0.00000000E+00  0.00000000E+00
  0.00000000E+00  0.00000000E+00  0.00000000E+00
  0.00000000E+00  0.00000000E+00  0.00000000E+00
  0.00000000E+00  0.00000000E+00  0.00000000E+00
  0.00000000E+00  0.00000000E+00  0.00000000E+00
  0.00000000E+00  0.00000000E+00  0.00000000E+00
  0.00000000E+00  0.00000000E+00  0.00000000E+00
  0.00000000E+00  0.00000000E+00  0.00000000E+00
  0.00000000E+00  0.00000000E+00  0.00000000E+00
  0.00000000E+00  0.00000000E+00  0.00000000E+00
  0.00000000E+00  0.00000000E+00  0.00000000E+00
  0.00000000E+00  0.00000000E+00  0.00000000E+00
  0.00000000E+00  0.00000000E+00  0.00000000E+00
  0.00000000E+00  0.00000000E+00  0.00000000E+00
  0.00000000E+00  0.00000000E+00  0.00000000E+00
  0.00000000E+00  0.00000000E+00  0.00000000E+00
  0.00000000E+00  0.00000000E+00  0.00000000E+00
  0.00000000E+00  0.00000000E+00  0.00000000E+00
  0.00000000E+00  0.00000000E+00  0.00000000E+00
