Ni O  C  H                              
   1.00000000000000     
    29.0000000000000000    0.0000000000000000    0.0000000000000000
     0.0000000000000000   29.0000000000000000    0.0000000000000000
     0.0000000000000000    0.0000000000000000   29.0000000000000000
   Ni   O    C    H 
    68     2     1     1
Selective dynamics
Direct
  0.4730681403425926  0.5018681041728461  0.6826780733097196   T   T   T
  0.3454252182201325  0.5998880287329117  0.4521523263122845   T   T   T
  0.3552583744797885  0.5621665838945893  0.5217734535311054   T   T   T
  0.5299894026218439  0.4443005803781617  0.4555705673781603   F   F   F
  0.4154505913781605  0.4443005803781617  0.5701094086218390   F   F   F
  0.5917151918280004  0.5604568288683114  0.5019443046213293   T   T   T
  0.4136060792326477  0.4906843604953968  0.3935436572917373   T   T   T
  0.4124810964981808  0.3833032508943613  0.5230797490756343   T   T   T
  0.5321167252137655  0.4910951046998995  0.6316700254151881   T   T   T
  0.3765194339364858  0.4431803540678235  0.6385707611581027   T   T   T
  0.4628647178393372  0.6202741019199633  0.5715913220758315   T   T   T
  0.5310195610846929  0.3748129133513919  0.4180915955911652   T   T   T
  0.4144658007363296  0.6204543438786151  0.5024613562063057   T   T   T
  0.4127918693592559  0.6285933342490143  0.4139135963181687   T   T   T
  0.5909166892997020  0.5114783496408670  0.5723655757929326   T   T   T
  0.5987468999547244  0.5598109631959134  0.4169712663637960   T   T   T
  0.5671841443972305  0.3749934606264159  0.5720824459670218   T   T   T
  0.4727199969999987  0.4440168789266536  0.5128399729999984   F   F   F
  0.3535375011156559  0.4433775171710045  0.5020067201999174   T   T   T
  0.4727199969999987  0.5591231230733484  0.5128399729999984   F   F   F
  0.4727199969999987  0.5015699859999998  0.5703931100733470   F   F   F
  0.4144227290603934  0.5974269718437683  0.6389087370766094   T   T   T
  0.5302731040733519  0.5015699859999998  0.5128399729999984   F   F   F
  0.4822540072177202  0.3837902465954681  0.5728488605125144   T   T   T
  0.3034517430328604  0.5033919473135265  0.5135787743576344   T   T   T
  0.3548189018440054  0.4920955589315603  0.5719225240037495   T   T   T
  0.4740366309986878  0.4997709090809770  0.3432562056464635   T   T   T
  0.3464720829201540  0.4435141979901296  0.4169021605483292   T   T   T
  0.5680470463417063  0.4411111206893463  0.3867537992850864   T   T   T
  0.5920197994299741  0.4902860462478706  0.4536825488355602   T   T   T
  0.4154505913781605  0.4443005803781617  0.4555705673781603   F   F   F
  0.4154505913781605  0.5588394216218404  0.4555705673781603   F   F   F
  0.5299894026218439  0.5588394216218404  0.4555705673781603   F   F   F
  0.4816108513840467  0.6187421834804544  0.4521262832010637   T   T   T
  0.4751470556432530  0.6704376356961703  0.5112901786446238   T   T   T
  0.3780552314138713  0.6279077196449263  0.5721232376055235   T   T   T
  0.5912306599276966  0.4414847686164767  0.5232430672207389   T   T   T
  0.3757862126831655  0.3763161282867524  0.4536826021872734   T   T   T
  0.3767637934740418  0.5592052035485220  0.3866873017446262   T   T   T
  0.4123756426722752  0.3755809715798546  0.6081417595216611   T   T   T
  0.5988985002345510  0.4417481426922846  0.6081662787935287   T   T   T
  0.5299894026218439  0.5588394216218404  0.5701094086218390   F   F   F
  0.4826853711650764  0.4412255584372677  0.3949956563414700   T   T   T
  0.4727199969999987  0.5015699859999998  0.4552868659266522   F   F   F
  0.5992738523311979  0.5963123909234974  0.5716616546810905   T   T   T
  0.4834446947692174  0.5610188458921685  0.6315165473156447   T   T   T
  0.4154505913781605  0.5588394216218404  0.5701094086218390   F   F   F
  0.4136836840389841  0.5121864629208417  0.6317263348728837   T   T   T
  0.5321890488356760  0.5106612068046050  0.3951700427681525   T   T   T
  0.5982514826950561  0.4049443226115882  0.4540338394281056   T   T   T
  0.5299894026218439  0.4443005803781617  0.5701094086218390   F   F   F
  0.3468747673222665  0.5611882324075087  0.6083681683002584   T   T   T
  0.4718828329050185  0.3321474200253822  0.5145604493072850   T   T   T
  0.5684092824163496  0.5609640497974264  0.6388240567359227   T   T   T
  0.3459912366009792  0.4071534381896790  0.5715247740704489   T   T   T
  0.4615717414187852  0.5594145013162758  0.3935924520889642   T   T   T
  0.5673911250214771  0.6276031559873162  0.4519942286750797   T   T   T
  0.5313001237640814  0.5949771593486171  0.3857767009730061   T   T   T
  0.5311613266614793  0.3828314510698471  0.5027359532495557   T   T   T
  0.4151668899266525  0.5015699859999998  0.5128399729999984   F   F   F
  0.5329403390108367  0.6191076709938292  0.5222082231226804   T   T   T
  0.5321348714818185  0.6280101906126278  0.6075126281979137   T   T   T
  0.4613638676816040  0.3821532330151876  0.4540659813517264   T   T   T
  0.4129183773184719  0.4057855436542505  0.3867188308449910   T   T   T
  0.5316435217574697  0.4062942556775223  0.6392138782588049   T   T   T
  0.4619409038134531  0.4423256511067392  0.6318586013016518   T   T   T
  0.6421493570806234  0.5010840039700230  0.5137396763595892   T   T   T
  0.3540037324391862  0.5127610750014624  0.4535255054573170   T   T   T
  0.3115354183872104  0.6514307330715631  0.4263538061184439   T   T   T
  0.3762847142242370  0.6791376999950792  0.3904128536680866   T   T   T
  0.3336126791370991  0.6802266453730065  0.4013711887855989   T   T   T
  0.3134603269142017  0.7095279530455374  0.3875004412133132   T   T   T
 
  0.00000000E+00  0.00000000E+00  0.00000000E+00
  0.00000000E+00  0.00000000E+00  0.00000000E+00
  0.00000000E+00  0.00000000E+00  0.00000000E+00
  0.00000000E+00  0.00000000E+00  0.00000000E+00
  0.00000000E+00  0.00000000E+00  0.00000000E+00
  0.00000000E+00  0.00000000E+00  0.00000000E+00
  0.00000000E+00  0.00000000E+00  0.00000000E+00
  0.00000000E+00  0.00000000E+00  0.00000000E+00
  0.00000000E+00  0.00000000E+00  0.00000000E+00
  0.00000000E+00  0.00000000E+00  0.00000000E+00
  0.00000000E+00  0.00000000E+00  0.00000000E+00
  0.00000000E+00  0.00000000E+00  0.00000000E+00
  0.00000000E+00  0.00000000E+00  0.00000000E+00
  0.00000000E+00  0.00000000E+00  0.00000000E+00
  0.00000000E+00  0.00000000E+00  0.00000000E+00
  0.00000000E+00  0.00000000E+00  0.00000000E+00
  0.00000000E+00  0.00000000E+00  0.00000000E+00
  0.00000000E+00  0.00000000E+00  0.00000000E+00
  0.00000000E+00  0.00000000E+00  0.00000000E+00
  0.00000000E+00  0.00000000E+00  0.00000000E+00
  0.00000000E+00  0.00000000E+00  0.00000000E+00
  0.00000000E+00  0.00000000E+00  0.00000000E+00
  0.00000000E+00  0.00000000E+00  0.00000000E+00
  0.00000000E+00  0.00000000E+00  0.00000000E+00
  0.00000000E+00  0.00000000E+00  0.00000000E+00
  0.00000000E+00  0.00000000E+00  0.00000000E+00
  0.00000000E+00  0.00000000E+00  0.00000000E+00
  0.00000000E+00  0.00000000E+00  0.00000000E+00
  0.00000000E+00  0.00000000E+00  0.00000000E+00
  0.00000000E+00  0.00000000E+00  0.00000000E+00
  0.00000000E+00  0.00000000E+00  0.00000000E+00
  0.00000000E+00  0.00000000E+00  0.00000000E+00
  0.00000000E+00  0.00000000E+00  0.00000000E+00
  0.00000000E+00  0.00000000E+00  0.00000000E+00
  0.00000000E+00  0.00000000E+00  0.00000000E+00
  0.00000000E+00  0.00000000E+00  0.00000000E+00
  0.00000000E+00  0.00000000E+00  0.00000000E+00
  0.00000000E+00  0.00000000E+00  0.00000000E+00
  0.00000000E+00  0.00000000E+00  0.00000000E+00
  0.00000000E+00  0.00000000E+00  0.00000000E+00
  0.00000000E+00  0.00000000E+00  0.00000000E+00
  0.00000000E+00  0.00000000E+00  0.00000000E+00
  0.00000000E+00  0.00000000E+00  0.00000000E+00
  0.00000000E+00  0.00000000E+00  0.00000000E+00
  0.00000000E+00  0.00000000E+00  0.00000000E+00
  0.00000000E+00  0.00000000E+00  0.00000000E+00
  0.00000000E+00  0.00000000E+00  0.00000000E+00
  0.00000000E+00  0.00000000E+00  0.00000000E+00
  0.00000000E+00  0.00000000E+00  0.00000000E+00
  0.00000000E+00  0.00000000E+00  0.00000000E+00
  0.00000000E+00  0.00000000E+00  0.00000000E+00
  0.00000000E+00  0.00000000E+00  0.00000000E+00
  0.00000000E+00  0.00000000E+00  0.00000000E+00
  0.00000000E+00  0.00000000E+00  0.00000000E+00
  0.00000000E+00  0.00000000E+00  0.00000000E+00
  0.00000000E+00  0.00000000E+00  0.00000000E+00
  0.00000000E+00  0.00000000E+00  0.00000000E+00
  0.00000000E+00  0.00000000E+00  0.00000000E+00
  0.00000000E+00  0.00000000E+00  0.00000000E+00
  0.00000000E+00  0.00000000E+00  0.00000000E+00
  0.00000000E+00  0.00000000E+00  0.00000000E+00
  0.00000000E+00  0.00000000E+00  0.00000000E+00
  0.00000000E+00  0.00000000E+00  0.00000000E+00
  0.00000000E+00  0.00000000E+00  0.00000000E+00
  0.00000000E+00  0.00000000E+00  0.00000000E+00
  0.00000000E+00  0.00000000E+00  0.00000000E+00
  0.00000000E+00  0.00000000E+00  0.00000000E+00
  0.00000000E+00  0.00000000E+00  0.00000000E+00
  0.00000000E+00  0.00000000E+00  0.00000000E+00
  0.00000000E+00  0.00000000E+00  0.00000000E+00
  0.00000000E+00  0.00000000E+00  0.00000000E+00
  0.00000000E+00  0.00000000E+00  0.00000000E+00
