Ni O  C  H                              
   1.00000000000000     
    29.0000000000000000    0.0000000000000000    0.0000000000000000
     0.0000000000000000   29.0000000000000000    0.0000000000000000
     0.0000000000000000    0.0000000000000000   29.0000000000000000
   Ni   O    C    H 
    68     2     1     1
Selective dynamics
Direct
  0.4703145514215662  0.5011958817062497  0.6829751470179358   T   T   T
  0.3771594920600496  0.6277723356538659  0.4538512996426579   T   T   T
  0.3539927372726002  0.5607074515143626  0.5020271256172313   T   T   T
  0.5299894026218439  0.4443005803781617  0.4555705673781603   F   F   F
  0.4154505913781605  0.4443005803781617  0.5701094086218390   F   F   F
  0.5917661263801293  0.5616709488313272  0.5246068083204961   T   T   T
  0.4136479619367363  0.5118340888944317  0.3940350826296258   T   T   T
  0.4138847766641083  0.3831199647887999  0.5028006234369256   T   T   T
  0.5296487286053813  0.5123369705277079  0.6319867842012750   T   T   T
  0.3463074877871508  0.4423803713472516  0.6078278269080026   T   T   T
  0.4826433135698083  0.6195333846680487  0.5719419597205330   T   T   T
  0.5323117739542929  0.4066719828314460  0.3863719651140715   T   T   T
  0.4134339369855121  0.6202121334075602  0.5232358921713642   T   T   T
  0.4140635655116804  0.5974463245129932  0.3869769503338020   T   T   T
  0.5894246441979091  0.4937636106629232  0.5737325848244629   T   T   T
  0.5691498354986769  0.5611242082237793  0.3876001294150610   T   T   T
  0.5996413009204677  0.4077619350922432  0.5726901438031178   T   T   T
  0.4727199969999987  0.4440168789266536  0.5128399729999984   F   F   F
  0.3542773125003795  0.4422029701887074  0.5230232348553749   T   T   T
  0.4727199969999987  0.5591231230733484  0.5128399729999984   F   F   F
  0.4727199969999987  0.5015699859999998  0.5703931100733470   F   F   F
  0.4132010315876046  0.6278688581675698  0.6082025575707508   T   T   T
  0.5302731040733519  0.5015699859999998  0.5128399729999984   F   F   F
  0.4627572160849130  0.3833046222728719  0.5728992553517093   T   T   T
  0.3032427608378298  0.5012093223373784  0.5121355617198852   T   T   T
  0.3538840933064371  0.5120452172391359  0.5716698541759782   T   T   T
  0.4734570451425510  0.5008527467256992  0.3437134578306567   T   T   T
  0.3779292499271222  0.4418959714824484  0.3863973993963520   T   T   T
  0.5988672524954413  0.4436877344088638  0.4175775028088813   T   T   T
  0.5921712801740010  0.5127528029103769  0.4549929692808873   T   T   T
  0.4154505913781605  0.4443005803781617  0.4555705673781603   F   F   F
  0.4154505913781605  0.5588394216218404  0.4555705673781603   F   F   F
  0.5299894026218439  0.5588394216218404  0.4555705673781603   F   F   F
  0.4623097614459719  0.6204121615886223  0.4539874775227032   T   T   T
  0.4726897713439348  0.6714876789671086  0.5132491953686820   T   T   T
  0.3465050273248137  0.5972318956040410  0.5711069291066942   T   T   T
  0.5908524579843617  0.4426719543175668  0.5030761506648832   T   T   T
  0.3470398701667807  0.4057534488065467  0.4537356507293717   T   T   T
  0.3468894693349791  0.5610502467869292  0.4169295230428620   T   T   T
  0.4131304290762607  0.4066709934498584  0.6393818617498427   T   T   T
  0.5678367549133058  0.4437588493377155  0.6391216784058196   T   T   T
  0.5299894026218439  0.5588394216218404  0.5701094086218390   F   F   F
  0.4627601621178159  0.4419031253796056  0.3946455861062196   T   T   T
  0.4727199969999987  0.5015699859999998  0.4552868659266522   F   F   F
  0.5668222828010079  0.6283363173891654  0.5723070594802580   T   T   T
  0.4620836521681108  0.5609740884060106  0.6315162617093559   T   T   T
  0.4154505913781605  0.5588394216218404  0.5701094086218390   F   F   F
  0.4126342963678087  0.4915172808208585  0.6307838120607349   T   T   T
  0.5326043134392631  0.4917532084900593  0.3947902833719568   T   T   T
  0.5689375084429402  0.3761457201778127  0.4535617447327124   T   T   T
  0.5299894026218439  0.4443005803781617  0.5701094086218390   F   F   F
  0.3764232189637582  0.5610775569237008  0.6384975235626331   T   T   T
  0.4729796413064737  0.3321770424622111  0.5137976947255202   T   T   T
  0.5984925319545443  0.5629099775827248  0.6130784295423736   T   T   T
  0.3775774975859604  0.3753060405270863  0.5723003405536660   T   T   T
  0.4833495742518948  0.5609349115823399  0.3941507395708591   T   T   T
  0.5986302922557355  0.5978265323133463  0.4548634624623457   T   T   T
  0.5318241535318829  0.6277110958563922  0.4176068970266519   T   T   T
  0.5326179942506142  0.3829358627260171  0.5234768091211908   T   T   T
  0.4151668899266525  0.5015699859999998  0.5128399729999984   F   F   F
  0.5317068712184284  0.6202285045556827  0.5030456479289506   T   T   T
  0.5300957108666183  0.6000861164381827  0.6407979425698285   T   T   T
  0.4836227123695066  0.3824531511747564  0.4536843478596742   T   T   T
  0.4141550155065482  0.3751725277172287  0.4178356998693414   T   T   T
  0.5326565741871800  0.3758213697758550  0.6085908295778200   T   T   T
  0.4827255110814631  0.4424328581696884  0.6315362577415167   T   T   T
  0.6418423544909061  0.5011540615143302  0.5156337346654539   T   T   T
  0.3543095096572474  0.4912232525577422  0.4528150543016811   T   T   T
  0.6305965242533715  0.5899209559486223  0.6653003972498391   T   T   T
  0.5649158726611621  0.6250057754548709  0.6916496233615775   T   T   T
  0.6077649449864159  0.6150054029680511  0.6933382938598197   T   T   T
  0.6272919605919264  0.6299580422504468  0.7225294505518880   T   T   T
 
  0.00000000E+00  0.00000000E+00  0.00000000E+00
  0.00000000E+00  0.00000000E+00  0.00000000E+00
  0.00000000E+00  0.00000000E+00  0.00000000E+00
  0.00000000E+00  0.00000000E+00  0.00000000E+00
  0.00000000E+00  0.00000000E+00  0.00000000E+00
  0.00000000E+00  0.00000000E+00  0.00000000E+00
  0.00000000E+00  0.00000000E+00  0.00000000E+00
  0.00000000E+00  0.00000000E+00  0.00000000E+00
  0.00000000E+00  0.00000000E+00  0.00000000E+00
  0.00000000E+00  0.00000000E+00  0.00000000E+00
  0.00000000E+00  0.00000000E+00  0.00000000E+00
  0.00000000E+00  0.00000000E+00  0.00000000E+00
  0.00000000E+00  0.00000000E+00  0.00000000E+00
  0.00000000E+00  0.00000000E+00  0.00000000E+00
  0.00000000E+00  0.00000000E+00  0.00000000E+00
  0.00000000E+00  0.00000000E+00  0.00000000E+00
  0.00000000E+00  0.00000000E+00  0.00000000E+00
  0.00000000E+00  0.00000000E+00  0.00000000E+00
  0.00000000E+00  0.00000000E+00  0.00000000E+00
  0.00000000E+00  0.00000000E+00  0.00000000E+00
  0.00000000E+00  0.00000000E+00  0.00000000E+00
  0.00000000E+00  0.00000000E+00  0.00000000E+00
  0.00000000E+00  0.00000000E+00  0.00000000E+00
  0.00000000E+00  0.00000000E+00  0.00000000E+00
  0.00000000E+00  0.00000000E+00  0.00000000E+00
  0.00000000E+00  0.00000000E+00  0.00000000E+00
  0.00000000E+00  0.00000000E+00  0.00000000E+00
  0.00000000E+00  0.00000000E+00  0.00000000E+00
  0.00000000E+00  0.00000000E+00  0.00000000E+00
  0.00000000E+00  0.00000000E+00  0.00000000E+00
  0.00000000E+00  0.00000000E+00  0.00000000E+00
  0.00000000E+00  0.00000000E+00  0.00000000E+00
  0.00000000E+00  0.00000000E+00  0.00000000E+00
  0.00000000E+00  0.00000000E+00  0.00000000E+00
  0.00000000E+00  0.00000000E+00  0.00000000E+00
  0.00000000E+00  0.00000000E+00  0.00000000E+00
  0.00000000E+00  0.00000000E+00  0.00000000E+00
  0.00000000E+00  0.00000000E+00  0.00000000E+00
  0.00000000E+00  0.00000000E+00  0.00000000E+00
  0.00000000E+00  0.00000000E+00  0.00000000E+00
  0.00000000E+00  0.00000000E+00  0.00000000E+00
  0.00000000E+00  0.00000000E+00  0.00000000E+00
  0.00000000E+00  0.00000000E+00  0.00000000E+00
  0.00000000E+00  0.00000000E+00  0.00000000E+00
  0.00000000E+00  0.00000000E+00  0.00000000E+00
  0.00000000E+00  0.00000000E+00  0.00000000E+00
  0.00000000E+00  0.00000000E+00  0.00000000E+00
  0.00000000E+00  0.00000000E+00  0.00000000E+00
  0.00000000E+00  0.00000000E+00  0.00000000E+00
  0.00000000E+00  0.00000000E+00  0.00000000E+00
  0.00000000E+00  0.00000000E+00  0.00000000E+00
  0.00000000E+00  0.00000000E+00  0.00000000E+00
  0.00000000E+00  0.00000000E+00  0.00000000E+00
  0.00000000E+00  0.00000000E+00  0.00000000E+00
  0.00000000E+00  0.00000000E+00  0.00000000E+00
  0.00000000E+00  0.00000000E+00  0.00000000E+00
  0.00000000E+00  0.00000000E+00  0.00000000E+00
  0.00000000E+00  0.00000000E+00  0.00000000E+00
  0.00000000E+00  0.00000000E+00  0.00000000E+00
  0.00000000E+00  0.00000000E+00  0.00000000E+00
  0.00000000E+00  0.00000000E+00  0.00000000E+00
  0.00000000E+00  0.00000000E+00  0.00000000E+00
  0.00000000E+00  0.00000000E+00  0.00000000E+00
  0.00000000E+00  0.00000000E+00  0.00000000E+00
  0.00000000E+00  0.00000000E+00  0.00000000E+00
  0.00000000E+00  0.00000000E+00  0.00000000E+00
  0.00000000E+00  0.00000000E+00  0.00000000E+00
  0.00000000E+00  0.00000000E+00  0.00000000E+00
  0.00000000E+00  0.00000000E+00  0.00000000E+00
  0.00000000E+00  0.00000000E+00  0.00000000E+00
  0.00000000E+00  0.00000000E+00  0.00000000E+00
  0.00000000E+00  0.00000000E+00  0.00000000E+00
