Ni O  C  H                              
   1.00000000000000     
    29.0000000000000000    0.0000000000000000    0.0000000000000000
     0.0000000000000000   29.0000000000000000    0.0000000000000000
     0.0000000000000000    0.0000000000000000   29.0000000000000000
   Ni   O    C    H 
    68     2     1     1
Selective dynamics
Direct
  0.4725840434849335  0.5005980222714226  0.6821214995434097   T   T   T
  0.3463616147080742  0.5966999754134629  0.4539443749876290   T   T   T
  0.3540769919003655  0.5609430187209329  0.5235377671914153   T   T   T
  0.5299894026218439  0.4443005803781617  0.4555705673781603   F   F   F
  0.4154505913781605  0.4443005803781617  0.5701094086218390   F   F   F
  0.5914324812776226  0.5617445254184419  0.5020843303406820   T   T   T
  0.4133250779607638  0.4914103192941882  0.3944806279234080   T   T   T
  0.4130189032609931  0.3833426832236506  0.5226537589431002   T   T   T
  0.5322610522483668  0.4913619922673111  0.6312917571752565   T   T   T
  0.3776111327632437  0.4416454343437416  0.6390750295785929   T   T   T
  0.4620830534830548  0.6203556242715580  0.5727351827781931   T   T   T
  0.5347542037193016  0.3745307229038405  0.4147456444422594   T   T   T
  0.4130285222406954  0.6200825025825676  0.5029811749502728   T   T   T
  0.4133237599393788  0.6277200292549168  0.4175276417714729   T   T   T
  0.5921340739387942  0.5129041602084822  0.5713132477328177   T   T   T
  0.5984087994263846  0.5625464415186668  0.4167573719502772   T   T   T
  0.5695677541910280  0.3770845372271787  0.5721355342582585   T   T   T
  0.4727199969999987  0.4440168789266536  0.5128399729999984   F   F   F
  0.3539207810865668  0.4421141165882818  0.5023817360482492   T   T   T
  0.4727199969999987  0.5591231230733484  0.5128399729999984   F   F   F
  0.4727199969999987  0.5015699859999998  0.5703931100733470   F   F   F
  0.4138653429465128  0.5964308083927210  0.6394426750060104   T   T   T
  0.5302731040733519  0.5015699859999998  0.5128399729999984   F   F   F
  0.4834090981048828  0.3829930877117727  0.5708778025345267   T   T   T
  0.3031352191342568  0.5017198517285811  0.5130290852727668   T   T   T
  0.3539962524454375  0.4909582645194689  0.5722009979177083   T   T   T
  0.4716713261223119  0.5020859628315381  0.3427089455096552   T   T   T
  0.3467185203673052  0.4424225657837574  0.4171863086532429   T   T   T
  0.5673559721036694  0.4444846372705248  0.3856694729448961   T   T   T
  0.5901376292133326  0.4926904057694947  0.4522943555898782   T   T   T
  0.4154505913781605  0.4443005803781617  0.4555705673781603   F   F   F
  0.4154505913781605  0.5588394216218404  0.4555705673781603   F   F   F
  0.5299894026218439  0.5588394216218404  0.4555705673781603   F   F   F
  0.4826182250811009  0.6205524370011800  0.4545065371124706   T   T   T
  0.4716340266676158  0.6717158007993422  0.5137022955873530   T   T   T
  0.3776283813348000  0.6280307811104046  0.5728917180427817   T   T   T
  0.5905137845878651  0.4428603931018281  0.5221090242587425   T   T   T
  0.3782482163246794  0.3750794940843650  0.4530211772793563   T   T   T
  0.3768717772086998  0.5605964885688945  0.3868707455911563   T   T   T
  0.4139982039868901  0.3748261240327873  0.6073087067767931   T   T   T
  0.5991511820089412  0.4439512328161595  0.6080131257493840   T   T   T
  0.5299894026218439  0.5588394216218404  0.5701094086218390   F   F   F
  0.4833320879564348  0.4430381446496321  0.3939118853327759   T   T   T
  0.4727199969999987  0.5015699859999998  0.4552868659266522   F   F   F
  0.5984744725095302  0.5981070366177288  0.5715354339855442   T   T   T
  0.4833763583411552  0.5604291298231802  0.6317568157178843   T   T   T
  0.4154505913781605  0.5588394216218404  0.5701094086218390   F   F   F
  0.4135485226763963  0.5112859228522555  0.6310976926932055   T   T   T
  0.5311713577850370  0.5134202063211973  0.3932200272531828   T   T   T
  0.6005744307067823  0.4097316365962572  0.4515140485105937   T   T   T
  0.5299894026218439  0.4443005803781617  0.5701094086218390   F   F   F
  0.3469765735240095  0.5604127400075331  0.6085483043754270   T   T   T
  0.4695999608454444  0.3307738252118852  0.5114406685765047   T   T   T
  0.5688116666648169  0.5609070280683530  0.6385601177293376   T   T   T
  0.3467027801479797  0.4059347592670937  0.5721609135831158   T   T   T
  0.4620287734533254  0.5613561844454308  0.3941244346034637   T   T   T
  0.5672415858709318  0.6287135500238565  0.4545879411702932   T   T   T
  0.5310335388472132  0.5989858577198356  0.3875803196972219   T   T   T
  0.5343616122557538  0.3796106205892807  0.5005119546993351   T   T   T
  0.4151668899266525  0.5015699859999998  0.5128399729999984   F   F   F
  0.5313519021022777  0.6208678439789778  0.5238865963950144   T   T   T
  0.5315947001717636  0.6276758975605458  0.6087528903223954   T   T   T
  0.4642660483783453  0.3847157209007991  0.4525599000949947   T   T   T
  0.4138312674896559  0.4065867097716736  0.3862795779148121   T   T   T
  0.5325046935970023  0.4062912022743084  0.6388921744670149   T   T   T
  0.4626792977591146  0.4414379991142158  0.6310763687169467   T   T   T
  0.6418169613364189  0.5013753709064449  0.5107002223301977   T   T   T
  0.3542483857838404  0.5116756691528040  0.4539113068839193   T   T   T
  0.5472588574728483  0.3086150444455656  0.4974666600984068   T   T   T
  0.5497526755955489  0.3098139084126965  0.4183154303578621   T   T   T
  0.5539192312772101  0.2906537353571879  0.4574637669927231   T   T   T
  0.5648571152887882  0.2540927434847845  0.4573044806343237   T   T   T
 
  0.00000000E+00  0.00000000E+00  0.00000000E+00
  0.00000000E+00  0.00000000E+00  0.00000000E+00
  0.00000000E+00  0.00000000E+00  0.00000000E+00
  0.00000000E+00  0.00000000E+00  0.00000000E+00
  0.00000000E+00  0.00000000E+00  0.00000000E+00
  0.00000000E+00  0.00000000E+00  0.00000000E+00
  0.00000000E+00  0.00000000E+00  0.00000000E+00
  0.00000000E+00  0.00000000E+00  0.00000000E+00
  0.00000000E+00  0.00000000E+00  0.00000000E+00
  0.00000000E+00  0.00000000E+00  0.00000000E+00
  0.00000000E+00  0.00000000E+00  0.00000000E+00
  0.00000000E+00  0.00000000E+00  0.00000000E+00
  0.00000000E+00  0.00000000E+00  0.00000000E+00
  0.00000000E+00  0.00000000E+00  0.00000000E+00
  0.00000000E+00  0.00000000E+00  0.00000000E+00
  0.00000000E+00  0.00000000E+00  0.00000000E+00
  0.00000000E+00  0.00000000E+00  0.00000000E+00
  0.00000000E+00  0.00000000E+00  0.00000000E+00
  0.00000000E+00  0.00000000E+00  0.00000000E+00
  0.00000000E+00  0.00000000E+00  0.00000000E+00
  0.00000000E+00  0.00000000E+00  0.00000000E+00
  0.00000000E+00  0.00000000E+00  0.00000000E+00
  0.00000000E+00  0.00000000E+00  0.00000000E+00
  0.00000000E+00  0.00000000E+00  0.00000000E+00
  0.00000000E+00  0.00000000E+00  0.00000000E+00
  0.00000000E+00  0.00000000E+00  0.00000000E+00
  0.00000000E+00  0.00000000E+00  0.00000000E+00
  0.00000000E+00  0.00000000E+00  0.00000000E+00
  0.00000000E+00  0.00000000E+00  0.00000000E+00
  0.00000000E+00  0.00000000E+00  0.00000000E+00
  0.00000000E+00  0.00000000E+00  0.00000000E+00
  0.00000000E+00  0.00000000E+00  0.00000000E+00
  0.00000000E+00  0.00000000E+00  0.00000000E+00
  0.00000000E+00  0.00000000E+00  0.00000000E+00
  0.00000000E+00  0.00000000E+00  0.00000000E+00
  0.00000000E+00  0.00000000E+00  0.00000000E+00
  0.00000000E+00  0.00000000E+00  0.00000000E+00
  0.00000000E+00  0.00000000E+00  0.00000000E+00
  0.00000000E+00  0.00000000E+00  0.00000000E+00
  0.00000000E+00  0.00000000E+00  0.00000000E+00
  0.00000000E+00  0.00000000E+00  0.00000000E+00
  0.00000000E+00  0.00000000E+00  0.00000000E+00
  0.00000000E+00  0.00000000E+00  0.00000000E+00
  0.00000000E+00  0.00000000E+00  0.00000000E+00
  0.00000000E+00  0.00000000E+00  0.00000000E+00
  0.00000000E+00  0.00000000E+00  0.00000000E+00
  0.00000000E+00  0.00000000E+00  0.00000000E+00
  0.00000000E+00  0.00000000E+00  0.00000000E+00
  0.00000000E+00  0.00000000E+00  0.00000000E+00
  0.00000000E+00  0.00000000E+00  0.00000000E+00
  0.00000000E+00  0.00000000E+00  0.00000000E+00
  0.00000000E+00  0.00000000E+00  0.00000000E+00
  0.00000000E+00  0.00000000E+00  0.00000000E+00
  0.00000000E+00  0.00000000E+00  0.00000000E+00
  0.00000000E+00  0.00000000E+00  0.00000000E+00
  0.00000000E+00  0.00000000E+00  0.00000000E+00
  0.00000000E+00  0.00000000E+00  0.00000000E+00
  0.00000000E+00  0.00000000E+00  0.00000000E+00
  0.00000000E+00  0.00000000E+00  0.00000000E+00
  0.00000000E+00  0.00000000E+00  0.00000000E+00
  0.00000000E+00  0.00000000E+00  0.00000000E+00
  0.00000000E+00  0.00000000E+00  0.00000000E+00
  0.00000000E+00  0.00000000E+00  0.00000000E+00
  0.00000000E+00  0.00000000E+00  0.00000000E+00
  0.00000000E+00  0.00000000E+00  0.00000000E+00
  0.00000000E+00  0.00000000E+00  0.00000000E+00
  0.00000000E+00  0.00000000E+00  0.00000000E+00
  0.00000000E+00  0.00000000E+00  0.00000000E+00
  0.00000000E+00  0.00000000E+00  0.00000000E+00
  0.00000000E+00  0.00000000E+00  0.00000000E+00
  0.00000000E+00  0.00000000E+00  0.00000000E+00
  0.00000000E+00  0.00000000E+00  0.00000000E+00
