Ni O  C  H                              
   1.00000000000000     
    29.0000000000000000    0.0000000000000000    0.0000000000000000
     0.0000000000000000   29.0000000000000000    0.0000000000000000
     0.0000000000000000    0.0000000000000000   29.0000000000000000
   Ni   O    C    H 
    68     2     1     1
Selective dynamics
Direct
  0.4730783391387283  0.5002639007045729  0.6822178763102622   T   T   T
  0.3781602166829564  0.6282762967739924  0.4545114048201177   T   T   T
  0.3549064599165900  0.5617720279914554  0.5029757108900339   T   T   T
  0.5299894026218439  0.4443005803781617  0.4555705673781603   F   F   F
  0.4154505913781605  0.4443005803781617  0.5701094086218390   F   F   F
  0.5922558328660563  0.5595782636663940  0.5241210277582955   T   T   T
  0.4129275232359023  0.5118602932123402  0.3943453194899387   T   T   T
  0.4126743438040189  0.3842263614965333  0.5038390363448902   T   T   T
  0.5317064748144504  0.5108574143036191  0.6307039828853646   T   T   T
  0.3439005318256142  0.4427925893502336  0.6094175479789111   T   T   T
  0.4833719286331570  0.6202136183930052  0.5729986025284590   T   T   T
  0.5317735994259765  0.4053078186296643  0.3872276837730926   T   T   T
  0.4138907419540517  0.6210926072307058  0.5242843885552915   T   T   T
  0.4136824588807853  0.5973586377469186  0.3870975114993166   T   T   T
  0.5924780214684634  0.4898104784782021  0.5725686411474131   T   T   T
  0.5681497000758908  0.5604663231663262  0.3869795209164165   T   T   T
  0.5978596971257648  0.4044232798773584  0.5727350314025239   T   T   T
  0.4727199969999987  0.4440168789266536  0.5128399729999984   F   F   F
  0.3544553921914855  0.4443790240989451  0.5222700151135451   T   T   T
  0.4727199969999987  0.5591231230733484  0.5128399729999984   F   F   F
  0.4727199969999987  0.5015699859999998  0.5703931100733470   F   F   F
  0.4138467238787435  0.6272199316959528  0.6094442300172486   T   T   T
  0.5302731040733519  0.5015699859999998  0.5128399729999984   F   F   F
  0.4603903346375796  0.3819325062646567  0.5720983907645097   T   T   T
  0.3031893879930571  0.5035692625401692  0.5119969937253007   T   T   T
  0.3543677673064394  0.5116509293311603  0.5720687272485575   T   T   T
  0.4721659536241538  0.5017786064565914  0.3435246773155132   T   T   T
  0.3779707102039501  0.4415576374865465  0.3862558410176766   T   T   T
  0.5992090506839656  0.4411813987234113  0.4183364539765344   T   T   T
  0.5905805532817964  0.5110004701999530  0.4533657912738615   T   T   T
  0.4154505913781605  0.4443005803781617  0.4555705673781603   F   F   F
  0.4154505913781605  0.5588394216218404  0.4555705673781603   F   F   F
  0.5299894026218439  0.5588394216218404  0.4555705673781603   F   F   F
  0.4626842964765286  0.6200830881137672  0.4541876847686938   T   T   T
  0.4744753042655391  0.6707841684262029  0.5131208803480155   T   T   T
  0.3466947464414780  0.5971601900539345  0.5728228984378262   T   T   T
  0.5904621922459193  0.4410028084574423  0.5034325762972003   T   T   T
  0.3467292749766717  0.4063746764744503  0.4537555435560261   T   T   T
  0.3463113281175063  0.5620714421681265  0.4180237204807937   T   T   T
  0.4122860428815582  0.4055484379413440  0.6385086077293892   T   T   T
  0.5671160779967157  0.4412300402102502  0.6393461123109824   T   T   T
  0.5299894026218439  0.5588394216218404  0.5701094086218390   F   F   F
  0.4623493733431768  0.4419602703875012  0.3941249860851835   T   T   T
  0.4727199969999987  0.5015699859999998  0.4552868659266522   F   F   F
  0.5690509844548757  0.6269252589155432  0.5731516966461228   T   T   T
  0.4621353764712009  0.5601047885682313  0.6317004007881970   T   T   T
  0.4154505913781605  0.5588394216218404  0.5701094086218390   F   F   F
  0.4132190644771237  0.4905212828722289  0.6313225440994852   T   T   T
  0.5321369205002290  0.4906113037597109  0.3936761335457785   T   T   T
  0.5673026294963877  0.3749431773726050  0.4547253460579762   T   T   T
  0.5299894026218439  0.4443005803781617  0.5701094086218390   F   F   F
  0.3771973284768241  0.5600202431459425  0.6390776361071808   T   T   T
  0.4708364977048197  0.3316356815805324  0.5118630679884475   T   T   T
  0.5984270588617505  0.5592402123048854  0.6093840875572285   T   T   T
  0.3722616861512957  0.3754016129966399  0.5720125470829965   T   T   T
  0.4830633950939313  0.5608320135323616  0.3944318960677318   T   T   T
  0.5993801952127056  0.5956861793049079  0.4545139771208894   T   T   T
  0.5324067290760633  0.6278053580337379  0.4184244811916961   T   T   T
  0.5305571909262522  0.3821239696999515  0.5240097372876067   T   T   T
  0.4151668899266525  0.5015699859999998  0.5128399729999984   F   F   F
  0.5331639649012602  0.6192097997719604  0.5034754313087525   T   T   T
  0.5316957738771432  0.5959659156568227  0.6396759511617072   T   T   T
  0.4826688603068229  0.3833647285004191  0.4539355446793868   T   T   T
  0.4134882812719133  0.3748416884883635  0.4183246290799675   T   T   T
  0.5300264769604760  0.3750274963376392  0.6084838907335477   T   T   T
  0.4815627166057841  0.4413639729175187  0.6306529421314206   T   T   T
  0.6421784345004293  0.4997439101529305  0.5114892142932133   T   T   T
  0.3543871416007649  0.4919445569888233  0.4528718245368455   T   T   T
  0.2865230835978739  0.4107349061045961  0.6207251349644006   T   T   T
  0.3142187620533328  0.3453179965029933  0.5861205546181655   T   T   T
  0.2831849338080207  0.3693735294716828  0.6059954761033114   T   T   T
  0.2493450103324817  0.3525116076826167  0.6110572463344492   T   T   T
 
  0.00000000E+00  0.00000000E+00  0.00000000E+00
  0.00000000E+00  0.00000000E+00  0.00000000E+00
  0.00000000E+00  0.00000000E+00  0.00000000E+00
  0.00000000E+00  0.00000000E+00  0.00000000E+00
  0.00000000E+00  0.00000000E+00  0.00000000E+00
  0.00000000E+00  0.00000000E+00  0.00000000E+00
  0.00000000E+00  0.00000000E+00  0.00000000E+00
  0.00000000E+00  0.00000000E+00  0.00000000E+00
  0.00000000E+00  0.00000000E+00  0.00000000E+00
  0.00000000E+00  0.00000000E+00  0.00000000E+00
  0.00000000E+00  0.00000000E+00  0.00000000E+00
  0.00000000E+00  0.00000000E+00  0.00000000E+00
  0.00000000E+00  0.00000000E+00  0.00000000E+00
  0.00000000E+00  0.00000000E+00  0.00000000E+00
  0.00000000E+00  0.00000000E+00  0.00000000E+00
  0.00000000E+00  0.00000000E+00  0.00000000E+00
  0.00000000E+00  0.00000000E+00  0.00000000E+00
  0.00000000E+00  0.00000000E+00  0.00000000E+00
  0.00000000E+00  0.00000000E+00  0.00000000E+00
  0.00000000E+00  0.00000000E+00  0.00000000E+00
  0.00000000E+00  0.00000000E+00  0.00000000E+00
  0.00000000E+00  0.00000000E+00  0.00000000E+00
  0.00000000E+00  0.00000000E+00  0.00000000E+00
  0.00000000E+00  0.00000000E+00  0.00000000E+00
  0.00000000E+00  0.00000000E+00  0.00000000E+00
  0.00000000E+00  0.00000000E+00  0.00000000E+00
  0.00000000E+00  0.00000000E+00  0.00000000E+00
  0.00000000E+00  0.00000000E+00  0.00000000E+00
  0.00000000E+00  0.00000000E+00  0.00000000E+00
  0.00000000E+00  0.00000000E+00  0.00000000E+00
  0.00000000E+00  0.00000000E+00  0.00000000E+00
  0.00000000E+00  0.00000000E+00  0.00000000E+00
  0.00000000E+00  0.00000000E+00  0.00000000E+00
  0.00000000E+00  0.00000000E+00  0.00000000E+00
  0.00000000E+00  0.00000000E+00  0.00000000E+00
  0.00000000E+00  0.00000000E+00  0.00000000E+00
  0.00000000E+00  0.00000000E+00  0.00000000E+00
  0.00000000E+00  0.00000000E+00  0.00000000E+00
  0.00000000E+00  0.00000000E+00  0.00000000E+00
  0.00000000E+00  0.00000000E+00  0.00000000E+00
  0.00000000E+00  0.00000000E+00  0.00000000E+00
  0.00000000E+00  0.00000000E+00  0.00000000E+00
  0.00000000E+00  0.00000000E+00  0.00000000E+00
  0.00000000E+00  0.00000000E+00  0.00000000E+00
  0.00000000E+00  0.00000000E+00  0.00000000E+00
  0.00000000E+00  0.00000000E+00  0.00000000E+00
  0.00000000E+00  0.00000000E+00  0.00000000E+00
  0.00000000E+00  0.00000000E+00  0.00000000E+00
  0.00000000E+00  0.00000000E+00  0.00000000E+00
  0.00000000E+00  0.00000000E+00  0.00000000E+00
  0.00000000E+00  0.00000000E+00  0.00000000E+00
  0.00000000E+00  0.00000000E+00  0.00000000E+00
  0.00000000E+00  0.00000000E+00  0.00000000E+00
  0.00000000E+00  0.00000000E+00  0.00000000E+00
  0.00000000E+00  0.00000000E+00  0.00000000E+00
  0.00000000E+00  0.00000000E+00  0.00000000E+00
  0.00000000E+00  0.00000000E+00  0.00000000E+00
  0.00000000E+00  0.00000000E+00  0.00000000E+00
  0.00000000E+00  0.00000000E+00  0.00000000E+00
  0.00000000E+00  0.00000000E+00  0.00000000E+00
  0.00000000E+00  0.00000000E+00  0.00000000E+00
  0.00000000E+00  0.00000000E+00  0.00000000E+00
  0.00000000E+00  0.00000000E+00  0.00000000E+00
  0.00000000E+00  0.00000000E+00  0.00000000E+00
  0.00000000E+00  0.00000000E+00  0.00000000E+00
  0.00000000E+00  0.00000000E+00  0.00000000E+00
  0.00000000E+00  0.00000000E+00  0.00000000E+00
  0.00000000E+00  0.00000000E+00  0.00000000E+00
  0.00000000E+00  0.00000000E+00  0.00000000E+00
  0.00000000E+00  0.00000000E+00  0.00000000E+00
  0.00000000E+00  0.00000000E+00  0.00000000E+00
  0.00000000E+00  0.00000000E+00  0.00000000E+00
