Ni O  C  H                              
   1.00000000000000     
    29.0000000000000000    0.0000000000000000    0.0000000000000000
     0.0000000000000000   29.0000000000000000    0.0000000000000000
     0.0000000000000000    0.0000000000000000   29.0000000000000000
   Ni   O    C    H 
    68     2     1     1
Selective dynamics
Direct
  0.4730133110752165  0.5006368075717998  0.6821518183582830   T   T   T
  0.3761679600744920  0.6271535428887588  0.4537702528026821   T   T   T
  0.3539050634935663  0.5597965795940072  0.5023181013594881   T   T   T
  0.5299894026218439  0.4443005803781617  0.4555705673781603   F   F   F
  0.4154505913781605  0.4443005803781617  0.5701094086218390   F   F   F
  0.5908464333429314  0.5618564397440365  0.5226930116745269   T   T   T
  0.4127988319529939  0.5110053326885398  0.3947281726991762   T   T   T
  0.4155195504343950  0.3827174703449947  0.5024458018326132   T   T   T
  0.5319927430657914  0.5116449109720989  0.6312123037060835   T   T   T
  0.3462802598187966  0.4416153811450884  0.6074762891949705   T   T   T
  0.4824704690388930  0.6197031264303614  0.5727203688668877   T   T   T
  0.5315445316471222  0.4061980372751604  0.3863076061984365   T   T   T
  0.4127427801244608  0.6200693080183557  0.5231810647336921   T   T   T
  0.4130237722839619  0.5969508117285329  0.3869429031324608   T   T   T
  0.5912654203233388  0.4913796034009700  0.5721915411546648   T   T   T
  0.5678152046291020  0.5606907695631272  0.3865000803650312   T   T   T
  0.5993347831800268  0.4067794229405937  0.5719595871495374   T   T   T
  0.4727199969999987  0.4440168789266536  0.5128399729999984   F   F   F
  0.3554975053040163  0.4412001854558210  0.5213803416085013   T   T   T
  0.4727199969999987  0.5591231230733484  0.5128399729999984   F   F   F
  0.4727199969999987  0.5015699859999998  0.5703931100733470   F   F   F
  0.4127575101726015  0.6278071739704038  0.6080272377926190   T   T   T
  0.5302731040733519  0.5015699859999998  0.5128399729999984   F   F   F
  0.4627144976994880  0.3829995681457034  0.5718848925252746   T   T   T
  0.3036902810296670  0.5001002594228116  0.5136190955451070   T   T   T
  0.3547619815459863  0.5111565687945142  0.5723077197475537   T   T   T
  0.4717952132337154  0.5020243225737500  0.3434570692276326   T   T   T
  0.3779264045985432  0.4413416593593764  0.3861989329807661   T   T   T
  0.5983282928001091  0.4433652434378124  0.4163777442148467   T   T   T
  0.5915285335089634  0.5124190102357726  0.4534429390001746   T   T   T
  0.4154505913781605  0.4443005803781617  0.4555705673781603   F   F   F
  0.4154505913781605  0.5588394216218404  0.4555705673781603   F   F   F
  0.5299894026218439  0.5588394216218404  0.4555705673781603   F   F   F
  0.4617223377618362  0.6208474838936028  0.4541592149611862   T   T   T
  0.4719266184981056  0.6712758749170115  0.5143249076079426   T   T   T
  0.3461886825977332  0.5962582922402776  0.5717448069248905   T   T   T
  0.5919134981971141  0.4428320953067980  0.5020365547692106   T   T   T
  0.3466245732102870  0.4016239383688724  0.4523526435871972   T   T   T
  0.3463714230148531  0.5597276881487844  0.4176836042278618   T   T   T
  0.4132072963820326  0.4053943135902175  0.6385200249981360   T   T   T
  0.5677075384766569  0.4418146260447331  0.6390642315102690   T   T   T
  0.5299894026218439  0.5588394216218404  0.5701094086218390   F   F   F
  0.4621023019994984  0.4423349901610953  0.3945194398943739   T   T   T
  0.4727199969999987  0.5015699859999998  0.4552868659266522   F   F   F
  0.5668688599167049  0.6282573656296785  0.5723330806524355   T   T   T
  0.4620505267521922  0.5605867280486878  0.6317184963241794   T   T   T
  0.4154505913781605  0.5588394216218404  0.5701094086218390   F   F   F
  0.4133378563974615  0.4906817936596745  0.6316765186033753   T   T   T
  0.5314679899128885  0.4913034401745610  0.3942185761127150   T   T   T
  0.5687637073290728  0.3759265794170716  0.4527536514532648   T   T   T
  0.5299894026218439  0.4443005803781617  0.5701094086218390   F   F   F
  0.3770583486542778  0.5602684339330999  0.6387683193104560   T   T   T
  0.4751962322412823  0.3318296283257647  0.5131341443969113   T   T   T
  0.5989942409797063  0.5612360243413334  0.6076762053114977   T   T   T
  0.3775461316606690  0.3752264970644502  0.5710037015608124   T   T   T
  0.4825024694700757  0.5608010383118004  0.3946803314391025   T   T   T
  0.5982843665063606  0.5977737406648758  0.4529996821750265   T   T   T
  0.5307414165215353  0.6274828737443094  0.4168669162839015   T   T   T
  0.5329872568787409  0.3838467378119935  0.5225464910838369   T   T   T
  0.4151668899266525  0.5015699859999998  0.5128399729999984   F   F   F
  0.5314615783516480  0.6206711919349469  0.5024817403253822   T   T   T
  0.5317972162809382  0.5964116313017617  0.6393217657572535   T   T   T
  0.4829746953062254  0.3832271709087702  0.4533177652938167   T   T   T
  0.4143337868788217  0.3728860879653729  0.4154289006393656   T   T   T
  0.5323103492268708  0.3748508388545394  0.6072666270445162   T   T   T
  0.4828352380636832  0.4414146158155380  0.6311752240997188   T   T   T
  0.6421707630354995  0.5028714882318700  0.5133175366139032   T   T   T
  0.3534134980959369  0.4896015242716932  0.4530820808568853   T   T   T
  0.3147926009985825  0.3467535821944757  0.4310061363878880   T   T   T
  0.3802467649006141  0.3187157887270011  0.3967375572964167   T   T   T
  0.3378543014467092  0.3167215303190610  0.4085373848903168   T   T   T
  0.3189481992726258  0.2853376165698554  0.3979115925782817   T   T   T
 
  0.00000000E+00  0.00000000E+00  0.00000000E+00
  0.00000000E+00  0.00000000E+00  0.00000000E+00
  0.00000000E+00  0.00000000E+00  0.00000000E+00
  0.00000000E+00  0.00000000E+00  0.00000000E+00
  0.00000000E+00  0.00000000E+00  0.00000000E+00
  0.00000000E+00  0.00000000E+00  0.00000000E+00
  0.00000000E+00  0.00000000E+00  0.00000000E+00
  0.00000000E+00  0.00000000E+00  0.00000000E+00
  0.00000000E+00  0.00000000E+00  0.00000000E+00
  0.00000000E+00  0.00000000E+00  0.00000000E+00
  0.00000000E+00  0.00000000E+00  0.00000000E+00
  0.00000000E+00  0.00000000E+00  0.00000000E+00
  0.00000000E+00  0.00000000E+00  0.00000000E+00
  0.00000000E+00  0.00000000E+00  0.00000000E+00
  0.00000000E+00  0.00000000E+00  0.00000000E+00
  0.00000000E+00  0.00000000E+00  0.00000000E+00
  0.00000000E+00  0.00000000E+00  0.00000000E+00
  0.00000000E+00  0.00000000E+00  0.00000000E+00
  0.00000000E+00  0.00000000E+00  0.00000000E+00
  0.00000000E+00  0.00000000E+00  0.00000000E+00
  0.00000000E+00  0.00000000E+00  0.00000000E+00
  0.00000000E+00  0.00000000E+00  0.00000000E+00
  0.00000000E+00  0.00000000E+00  0.00000000E+00
  0.00000000E+00  0.00000000E+00  0.00000000E+00
  0.00000000E+00  0.00000000E+00  0.00000000E+00
  0.00000000E+00  0.00000000E+00  0.00000000E+00
  0.00000000E+00  0.00000000E+00  0.00000000E+00
  0.00000000E+00  0.00000000E+00  0.00000000E+00
  0.00000000E+00  0.00000000E+00  0.00000000E+00
  0.00000000E+00  0.00000000E+00  0.00000000E+00
  0.00000000E+00  0.00000000E+00  0.00000000E+00
  0.00000000E+00  0.00000000E+00  0.00000000E+00
  0.00000000E+00  0.00000000E+00  0.00000000E+00
  0.00000000E+00  0.00000000E+00  0.00000000E+00
  0.00000000E+00  0.00000000E+00  0.00000000E+00
  0.00000000E+00  0.00000000E+00  0.00000000E+00
  0.00000000E+00  0.00000000E+00  0.00000000E+00
  0.00000000E+00  0.00000000E+00  0.00000000E+00
  0.00000000E+00  0.00000000E+00  0.00000000E+00
  0.00000000E+00  0.00000000E+00  0.00000000E+00
  0.00000000E+00  0.00000000E+00  0.00000000E+00
  0.00000000E+00  0.00000000E+00  0.00000000E+00
  0.00000000E+00  0.00000000E+00  0.00000000E+00
  0.00000000E+00  0.00000000E+00  0.00000000E+00
  0.00000000E+00  0.00000000E+00  0.00000000E+00
  0.00000000E+00  0.00000000E+00  0.00000000E+00
  0.00000000E+00  0.00000000E+00  0.00000000E+00
  0.00000000E+00  0.00000000E+00  0.00000000E+00
  0.00000000E+00  0.00000000E+00  0.00000000E+00
  0.00000000E+00  0.00000000E+00  0.00000000E+00
  0.00000000E+00  0.00000000E+00  0.00000000E+00
  0.00000000E+00  0.00000000E+00  0.00000000E+00
  0.00000000E+00  0.00000000E+00  0.00000000E+00
  0.00000000E+00  0.00000000E+00  0.00000000E+00
  0.00000000E+00  0.00000000E+00  0.00000000E+00
  0.00000000E+00  0.00000000E+00  0.00000000E+00
  0.00000000E+00  0.00000000E+00  0.00000000E+00
  0.00000000E+00  0.00000000E+00  0.00000000E+00
  0.00000000E+00  0.00000000E+00  0.00000000E+00
  0.00000000E+00  0.00000000E+00  0.00000000E+00
  0.00000000E+00  0.00000000E+00  0.00000000E+00
  0.00000000E+00  0.00000000E+00  0.00000000E+00
  0.00000000E+00  0.00000000E+00  0.00000000E+00
  0.00000000E+00  0.00000000E+00  0.00000000E+00
  0.00000000E+00  0.00000000E+00  0.00000000E+00
  0.00000000E+00  0.00000000E+00  0.00000000E+00
  0.00000000E+00  0.00000000E+00  0.00000000E+00
  0.00000000E+00  0.00000000E+00  0.00000000E+00
  0.00000000E+00  0.00000000E+00  0.00000000E+00
  0.00000000E+00  0.00000000E+00  0.00000000E+00
  0.00000000E+00  0.00000000E+00  0.00000000E+00
  0.00000000E+00  0.00000000E+00  0.00000000E+00
