Ni O  C  H                              
   1.00000000000000     
    29.0000000000000000    0.0000000000000000    0.0000000000000000
     0.0000000000000000   29.0000000000000000    0.0000000000000000
     0.0000000000000000    0.0000000000000000   29.0000000000000000
   Ni   O    C    H 
    68     2     1     1
Selective dynamics
Direct
  0.4731315794885725  0.5001200821802082  0.6819041501127180   T   T   T
  0.3772491205704284  0.6278123270188547  0.4544888638972443   T   T   T
  0.3541819771952416  0.5605403038019803  0.5023531454222300   T   T   T
  0.5299894026218439  0.4443005803781617  0.4555705673781603   F   F   F
  0.4154505913781605  0.4443005803781617  0.5701094086218390   F   F   F
  0.5922172269498174  0.5596635933648275  0.5241566225838095   T   T   T
  0.4134524512775675  0.5114670968814260  0.3946873858952413   T   T   T
  0.4134677851259190  0.3822509691028352  0.5009064073671949   T   T   T
  0.5318832904455806  0.5109446222326862  0.6308408009482995   T   T   T
  0.3462084836051137  0.4422454482975978  0.6074571043164583   T   T   T
  0.4830791705817302  0.6200014907876047  0.5733415483497788   T   T   T
  0.5322106222598062  0.4066291659730912  0.3867655301511659   T   T   T
  0.4135767109730582  0.6207608381255412  0.5238939183799181   T   T   T
  0.4132404117201871  0.5974311702915120  0.3870575687108559   T   T   T
  0.5922666198427053  0.4900220862538655  0.5727342387452846   T   T   T
  0.5683241290620434  0.5621372187229844  0.3871454553727720   T   T   T
  0.5981022848727460  0.4048278627983573  0.5725567964685871   T   T   T
  0.4727199969999987  0.4440168789266536  0.5128399729999984   F   F   F
  0.3546846252034557  0.4420917989122849  0.5220164828886248   T   T   T
  0.4727199969999987  0.5591231230733484  0.5128399729999984   F   F   F
  0.4727199969999987  0.5015699859999998  0.5703931100733470   F   F   F
  0.4131284126516434  0.6277338665179867  0.6083891014554227   T   T   T
  0.5302731040733519  0.5015699859999998  0.5128399729999984   F   F   F
  0.4613018279583461  0.3820020459943080  0.5710284875781182   T   T   T
  0.3031949664895159  0.5010626584745768  0.5127243036299562   T   T   T
  0.3542150751377551  0.5118029553057727  0.5717797038119650   T   T   T
  0.4735180863243594  0.5031735136040871  0.3438154603662199   T   T   T
  0.3764044647194634  0.4421090870129985  0.3843198767511090   T   T   T
  0.5994334811382880  0.4419774498123442  0.4184779556005467   T   T   T
  0.5912754607981678  0.5118507237495564  0.4537202508118380   T   T   T
  0.4154505913781605  0.4443005803781617  0.4555705673781603   F   F   F
  0.4154505913781605  0.5588394216218404  0.4555705673781603   F   F   F
  0.5299894026218439  0.5588394216218404  0.4555705673781603   F   F   F
  0.4619610030516665  0.6206659640597100  0.4545408590502709   T   T   T
  0.4740376571515871  0.6709592593168859  0.5139824752449244   T   T   T
  0.3464998107864778  0.5974044839681883  0.5711894197178602   T   T   T
  0.5907420629194421  0.4415191477032431  0.5030764152399837   T   T   T
  0.3470064642070647  0.4056806019600216  0.4531095792996140   T   T   T
  0.3466817523810537  0.5609588218896527  0.4175383810800640   T   T   T
  0.4125427611655889  0.4051584922853623  0.6382393155154603   T   T   T
  0.5670177440858369  0.4410770122123585  0.6394913970417920   T   T   T
  0.5299894026218439  0.5588394216218404  0.5701094086218390   F   F   F
  0.4635401599610616  0.4439059645958259  0.3948495138682224   T   T   T
  0.4727199969999987  0.5015699859999998  0.4552868659266522   F   F   F
  0.5686457721193273  0.6270555579057483  0.5731371183193423   T   T   T
  0.4616921449098441  0.5603598453098095  0.6319366971508494   T   T   T
  0.4154505913781605  0.5588394216218404  0.5701094086218390   F   F   F
  0.4128052317020575  0.4908359478049333  0.6316042647052846   T   T   T
  0.5328336387376349  0.4921746641436351  0.3947728061501096   T   T   T
  0.5674445814198893  0.3750448380501881  0.4539088733568341   T   T   T
  0.5299894026218439  0.4443005803781617  0.5701094086218390   F   F   F
  0.3761932961294028  0.5605729814188977  0.6382681430011443   T   T   T
  0.4731819457357887  0.3314396129023855  0.5111675999376891   T   T   T
  0.5984245118040498  0.5595301603540640  0.6092737089958221   T   T   T
  0.3764779153283980  0.3755416443445558  0.5704099399525390   T   T   T
  0.4829008069262216  0.5617991809475359  0.3948629318265739   T   T   T
  0.5989323512162946  0.5969947974390499  0.4549859825662173   T   T   T
  0.5318236968235127  0.6285169753104977  0.4193634767478642   T   T   T
  0.5313959319145372  0.3829866655658845  0.5231056633405373   T   T   T
  0.4151668899266525  0.5015699859999998  0.5128399729999984   F   F   F
  0.5324334505478326  0.6192095985778114  0.5036976554785871   T   T   T
  0.5314973863962573  0.5957218659652123  0.6397089642388853   T   T   T
  0.4819798849958021  0.3837859360670298  0.4527456209889488   T   T   T
  0.4132094533806547  0.3745563577762023  0.4132810370168263   T   T   T
  0.5305037441559964  0.3748558801332625  0.6077363331634744   T   T   T
  0.4820662026020104  0.4411987779694187  0.6304329196037926   T   T   T
  0.6425491553487336  0.4999884332467204  0.5121063215883598   T   T   T
  0.3543426791121907  0.4908402326713250  0.4532029478706520   T   T   T
  0.3955120632264922  0.3437034264564066  0.3565849842406199   T   T   T
  0.3604341513568854  0.4088482737492335  0.3288607597679341   T   T   T
  0.3738512332159951  0.3670004886451059  0.3261700903038814   T   T   T
  0.3657155170318847  0.3488626508815403  0.2935920085438010   T   T   T
 
  0.00000000E+00  0.00000000E+00  0.00000000E+00
  0.00000000E+00  0.00000000E+00  0.00000000E+00
  0.00000000E+00  0.00000000E+00  0.00000000E+00
  0.00000000E+00  0.00000000E+00  0.00000000E+00
  0.00000000E+00  0.00000000E+00  0.00000000E+00
  0.00000000E+00  0.00000000E+00  0.00000000E+00
  0.00000000E+00  0.00000000E+00  0.00000000E+00
  0.00000000E+00  0.00000000E+00  0.00000000E+00
  0.00000000E+00  0.00000000E+00  0.00000000E+00
  0.00000000E+00  0.00000000E+00  0.00000000E+00
  0.00000000E+00  0.00000000E+00  0.00000000E+00
  0.00000000E+00  0.00000000E+00  0.00000000E+00
  0.00000000E+00  0.00000000E+00  0.00000000E+00
  0.00000000E+00  0.00000000E+00  0.00000000E+00
  0.00000000E+00  0.00000000E+00  0.00000000E+00
  0.00000000E+00  0.00000000E+00  0.00000000E+00
  0.00000000E+00  0.00000000E+00  0.00000000E+00
  0.00000000E+00  0.00000000E+00  0.00000000E+00
  0.00000000E+00  0.00000000E+00  0.00000000E+00
  0.00000000E+00  0.00000000E+00  0.00000000E+00
  0.00000000E+00  0.00000000E+00  0.00000000E+00
  0.00000000E+00  0.00000000E+00  0.00000000E+00
  0.00000000E+00  0.00000000E+00  0.00000000E+00
  0.00000000E+00  0.00000000E+00  0.00000000E+00
  0.00000000E+00  0.00000000E+00  0.00000000E+00
  0.00000000E+00  0.00000000E+00  0.00000000E+00
  0.00000000E+00  0.00000000E+00  0.00000000E+00
  0.00000000E+00  0.00000000E+00  0.00000000E+00
  0.00000000E+00  0.00000000E+00  0.00000000E+00
  0.00000000E+00  0.00000000E+00  0.00000000E+00
  0.00000000E+00  0.00000000E+00  0.00000000E+00
  0.00000000E+00  0.00000000E+00  0.00000000E+00
  0.00000000E+00  0.00000000E+00  0.00000000E+00
  0.00000000E+00  0.00000000E+00  0.00000000E+00
  0.00000000E+00  0.00000000E+00  0.00000000E+00
  0.00000000E+00  0.00000000E+00  0.00000000E+00
  0.00000000E+00  0.00000000E+00  0.00000000E+00
  0.00000000E+00  0.00000000E+00  0.00000000E+00
  0.00000000E+00  0.00000000E+00  0.00000000E+00
  0.00000000E+00  0.00000000E+00  0.00000000E+00
  0.00000000E+00  0.00000000E+00  0.00000000E+00
  0.00000000E+00  0.00000000E+00  0.00000000E+00
  0.00000000E+00  0.00000000E+00  0.00000000E+00
  0.00000000E+00  0.00000000E+00  0.00000000E+00
  0.00000000E+00  0.00000000E+00  0.00000000E+00
  0.00000000E+00  0.00000000E+00  0.00000000E+00
  0.00000000E+00  0.00000000E+00  0.00000000E+00
  0.00000000E+00  0.00000000E+00  0.00000000E+00
  0.00000000E+00  0.00000000E+00  0.00000000E+00
  0.00000000E+00  0.00000000E+00  0.00000000E+00
  0.00000000E+00  0.00000000E+00  0.00000000E+00
  0.00000000E+00  0.00000000E+00  0.00000000E+00
  0.00000000E+00  0.00000000E+00  0.00000000E+00
  0.00000000E+00  0.00000000E+00  0.00000000E+00
  0.00000000E+00  0.00000000E+00  0.00000000E+00
  0.00000000E+00  0.00000000E+00  0.00000000E+00
  0.00000000E+00  0.00000000E+00  0.00000000E+00
  0.00000000E+00  0.00000000E+00  0.00000000E+00
  0.00000000E+00  0.00000000E+00  0.00000000E+00
  0.00000000E+00  0.00000000E+00  0.00000000E+00
  0.00000000E+00  0.00000000E+00  0.00000000E+00
  0.00000000E+00  0.00000000E+00  0.00000000E+00
  0.00000000E+00  0.00000000E+00  0.00000000E+00
  0.00000000E+00  0.00000000E+00  0.00000000E+00
  0.00000000E+00  0.00000000E+00  0.00000000E+00
  0.00000000E+00  0.00000000E+00  0.00000000E+00
  0.00000000E+00  0.00000000E+00  0.00000000E+00
  0.00000000E+00  0.00000000E+00  0.00000000E+00
  0.00000000E+00  0.00000000E+00  0.00000000E+00
  0.00000000E+00  0.00000000E+00  0.00000000E+00
  0.00000000E+00  0.00000000E+00  0.00000000E+00
  0.00000000E+00  0.00000000E+00  0.00000000E+00
