Sn H                                    
   1.00000000000000     
    29.0000000000000000    0.0000000000000000    0.0000000000000000
     0.0000000000000000   29.0000000000000000    0.0000000000000000
     0.0000000000000000    0.0000000000000000   29.0000000000000000
   Sn   H 
    68     1
Selective dynamics
Direct
  0.5338877787947698  0.5227318172131705  0.7493446415685687   T   T   T
  0.3903858849973575  0.6701085595365149  0.4515947955463270   T   T   T
  0.3832701544365976  0.6007594690177425  0.5242907283454695   T   T   T
  0.6076089470065611  0.4504110489934376  0.4498710309934353   F   F   F
  0.4613510339934379  0.4504110489934376  0.5961189590065601   F   F   F
  0.6852028221419241  0.6012209011387931  0.5242205559259214   T   T   T
  0.4582785851913442  0.5227235940078927  0.3695691277159223   T   T   T
  0.4598314160594161  0.3688325997923457  0.5234780337835430   T   T   T
  0.6060233606621684  0.5221574062641087  0.6794601978553299   T   T   T
  0.3913422769012370  0.4505700117963920  0.6711153370770683   T   T   T
  0.5345322881452542  0.6793673097834666  0.5970663343431011   T   T   T
  0.6061743498943302  0.3783941237329479  0.3766619718762245   T   T   T
  0.4607576361901887  0.6799041140297776  0.5237404922198622   T   T   T
  0.4641512222540398  0.6689989214600550  0.3767223211958160   T   T   T
  0.6849121980776267  0.5235416193750403  0.6020025053459892   T   T   T
  0.6806350551177373  0.5960449355276658  0.3775506927770475   T   T   T
  0.6806089593700049  0.3778285845300819  0.5949440945594155   T   T   T
  0.5344799760000001  0.4444887396173627  0.5229899879999991   F   F   F
  0.3819960140204815  0.4475390515204473  0.5222619155142179   T   T   T
  0.5344799760000001  0.6025912403826368  0.5229899879999991   F   F   F
  0.5344799760000001  0.5235400199999987  0.6020412683826351   F   F   F
  0.4638165985671353  0.6718878674854851  0.6679741854088643   T   T   T
  0.6135312563826361  0.5235400199999987  0.5229899879999991   F   F   F
  0.5345883320905938  0.3686966844205469  0.5962286920807763   T   T   T
  0.3158963370477255  0.5250152094093345  0.5276867570219910   T   T   T
  0.3834027356987406  0.5234546028323767  0.6019289277563571   T   T   T
  0.5340633069700270  0.5242111062680824  0.3000139019604932   T   T   T
  0.3867829494989784  0.4512369029510013  0.3798867700391270   T   T   T
  0.6822888939618258  0.4514897291038003  0.3799986236316111   T   T   T
  0.6882150848493703  0.5246348524332699  0.4484594813099608   T   T   T
  0.4613510339934379  0.4504110489934376  0.4498710309934353   F   F   F
  0.4613510339934379  0.5966689310065618  0.4498710309934353   F   F   F
  0.6076089470065611  0.5966689310065618  0.4498710309934353   F   F   F
  0.5347166572773850  0.6779630573488095  0.4482077926807290   T   T   T
  0.5341638857399987  0.7515465444681692  0.5193829447407250   T   T   T
  0.3904453491869707  0.6710698855560964  0.5960323394404023   T   T   T
  0.6869245160112223  0.4472034248750006  0.5224873337309791   T   T   T
  0.3897017848073957  0.3757726316339965  0.4517054127177296   T   T   T
  0.3888317945506617  0.5961914283990331  0.3770151842567726   T   T   T
  0.4626570379089130  0.3739448154344792  0.6659546178957675   T   T   T
  0.6773615780811603  0.4509197377765955  0.6713657614056076   T   T   T
  0.6076089470065611  0.5966689310065618  0.5961189590065601   F   F   F
  0.5346573953719053  0.4488005390678918  0.3687183441240804   T   T   T
  0.5344799760000001  0.5235400199999987  0.4439487216173603   F   F   F
  0.6785441565657918  0.6710329717722983  0.5963738140784197   T   T   T
  0.5343137137222335  0.5999664617896401  0.6760974864825022   T   T   T
  0.4613510339934379  0.5966689310065618  0.5961189590065601   F   F   F
  0.4621692339299813  0.5222703759434231  0.6790859363847072   T   T   T
  0.6106692614079918  0.5229897072311992  0.3693893957279828   T   T   T
  0.6793206177972690  0.3756961747826408  0.4516908954481776   T   T   T
  0.6076089470065611  0.4504110489934376  0.5961189590065601   F   F   F
  0.3932732382697305  0.5951539379496662  0.6721727064731039   T   T   T
  0.5341600269052823  0.2983794623136990  0.5201285427489450   T   T   T
  0.6754400896621016  0.5947741808857021  0.6724660659919182   T   T   T
  0.3880723245202088  0.3779723209828572  0.5944799896823347   T   T   T
  0.5342719773990869  0.5979168466396415  0.3693996355436021   T   T   T
  0.6780387391670498  0.6706755808476655  0.4514680058703324   T   T   T
  0.6049030435659918  0.6682304975980109  0.3761810371639451   T   T   T
  0.6091543973963665  0.3685254261603918  0.5235499332984688   T   T   T
  0.4554287246173629  0.5235400199999987  0.5229899879999991   F   F   F
  0.6082269784764758  0.6803512317088012  0.5239985511198159   T   T   T
  0.6050522546978347  0.6715244657531336  0.6683291816536698   T   T   T
  0.5346940410188167  0.3698932795814053  0.4475309898510591   T   T   T
  0.4631640721024687  0.3784016856195018  0.3767972698796479   T   T   T
  0.6057692357617442  0.3746443555276286  0.6666225326920404   T   T   T
  0.5339007802348464  0.4448402581637251  0.6773075932975037   T   T   T
  0.7524782609895286  0.5251308166447082  0.5279839968343343   T   T   T
  0.3805748736228634  0.5247484224697131  0.4481883158224037   T   T   T
  0.5330914827393076  0.4539218763408174  0.7447446015186606   T   T   T
 
  0.00000000E+00  0.00000000E+00  0.00000000E+00
  0.00000000E+00  0.00000000E+00  0.00000000E+00
  0.00000000E+00  0.00000000E+00  0.00000000E+00
  0.00000000E+00  0.00000000E+00  0.00000000E+00
  0.00000000E+00  0.00000000E+00  0.00000000E+00
  0.00000000E+00  0.00000000E+00  0.00000000E+00
  0.00000000E+00  0.00000000E+00  0.00000000E+00
  0.00000000E+00  0.00000000E+00  0.00000000E+00
  0.00000000E+00  0.00000000E+00  0.00000000E+00
  0.00000000E+00  0.00000000E+00  0.00000000E+00
  0.00000000E+00  0.00000000E+00  0.00000000E+00
  0.00000000E+00  0.00000000E+00  0.00000000E+00
  0.00000000E+00  0.00000000E+00  0.00000000E+00
  0.00000000E+00  0.00000000E+00  0.00000000E+00
  0.00000000E+00  0.00000000E+00  0.00000000E+00
  0.00000000E+00  0.00000000E+00  0.00000000E+00
  0.00000000E+00  0.00000000E+00  0.00000000E+00
  0.00000000E+00  0.00000000E+00  0.00000000E+00
  0.00000000E+00  0.00000000E+00  0.00000000E+00
  0.00000000E+00  0.00000000E+00  0.00000000E+00
  0.00000000E+00  0.00000000E+00  0.00000000E+00
  0.00000000E+00  0.00000000E+00  0.00000000E+00
  0.00000000E+00  0.00000000E+00  0.00000000E+00
  0.00000000E+00  0.00000000E+00  0.00000000E+00
  0.00000000E+00  0.00000000E+00  0.00000000E+00
  0.00000000E+00  0.00000000E+00  0.00000000E+00
  0.00000000E+00  0.00000000E+00  0.00000000E+00
  0.00000000E+00  0.00000000E+00  0.00000000E+00
  0.00000000E+00  0.00000000E+00  0.00000000E+00
  0.00000000E+00  0.00000000E+00  0.00000000E+00
  0.00000000E+00  0.00000000E+00  0.00000000E+00
  0.00000000E+00  0.00000000E+00  0.00000000E+00
  0.00000000E+00  0.00000000E+00  0.00000000E+00
  0.00000000E+00  0.00000000E+00  0.00000000E+00
  0.00000000E+00  0.00000000E+00  0.00000000E+00
  0.00000000E+00  0.00000000E+00  0.00000000E+00
  0.00000000E+00  0.00000000E+00  0.00000000E+00
  0.00000000E+00  0.00000000E+00  0.00000000E+00
  0.00000000E+00  0.00000000E+00  0.00000000E+00
  0.00000000E+00  0.00000000E+00  0.00000000E+00
  0.00000000E+00  0.00000000E+00  0.00000000E+00
  0.00000000E+00  0.00000000E+00  0.00000000E+00
  0.00000000E+00  0.00000000E+00  0.00000000E+00
  0.00000000E+00  0.00000000E+00  0.00000000E+00
  0.00000000E+00  0.00000000E+00  0.00000000E+00
  0.00000000E+00  0.00000000E+00  0.00000000E+00
  0.00000000E+00  0.00000000E+00  0.00000000E+00
  0.00000000E+00  0.00000000E+00  0.00000000E+00
  0.00000000E+00  0.00000000E+00  0.00000000E+00
  0.00000000E+00  0.00000000E+00  0.00000000E+00
  0.00000000E+00  0.00000000E+00  0.00000000E+00
  0.00000000E+00  0.00000000E+00  0.00000000E+00
  0.00000000E+00  0.00000000E+00  0.00000000E+00
  0.00000000E+00  0.00000000E+00  0.00000000E+00
  0.00000000E+00  0.00000000E+00  0.00000000E+00
  0.00000000E+00  0.00000000E+00  0.00000000E+00
  0.00000000E+00  0.00000000E+00  0.00000000E+00
  0.00000000E+00  0.00000000E+00  0.00000000E+00
  0.00000000E+00  0.00000000E+00  0.00000000E+00
  0.00000000E+00  0.00000000E+00  0.00000000E+00
  0.00000000E+00  0.00000000E+00  0.00000000E+00
  0.00000000E+00  0.00000000E+00  0.00000000E+00
  0.00000000E+00  0.00000000E+00  0.00000000E+00
  0.00000000E+00  0.00000000E+00  0.00000000E+00
  0.00000000E+00  0.00000000E+00  0.00000000E+00
  0.00000000E+00  0.00000000E+00  0.00000000E+00
  0.00000000E+00  0.00000000E+00  0.00000000E+00
  0.00000000E+00  0.00000000E+00  0.00000000E+00
  0.00000000E+00  0.00000000E+00  0.00000000E+00
