Sn H                                    
   1.00000000000000     
    29.0000000000000000    0.0000000000000000    0.0000000000000000
     0.0000000000000000   29.0000000000000000    0.0000000000000000
     0.0000000000000000    0.0000000000000000   29.0000000000000000
   Sn   H 
    68     1
Selective dynamics
Direct
  0.5344799760000001  0.5228826394525481  0.7496513849009969   T   T   T
  0.3875998281936469  0.6695587755371352  0.4511614310892147   T   T   T
  0.3803027899844573  0.5990004419714813  0.5227559629815112   T   T   T
  0.6076089470065611  0.4504110489934376  0.4498710309934353   F   F   F
  0.4613510339934379  0.4504110489934376  0.5961189590065601   F   F   F
  0.6886572210155442  0.5990004419714813  0.5227559629815112   T   T   T
  0.4577457974621803  0.5234053232919164  0.3700732672047569   T   T   T
  0.4592267510915070  0.3691671907079453  0.5225593170752774   T   T   T
  0.6094577122496726  0.5237009301463632  0.6767791602287413   T   T   T
  0.3879118437714296  0.4527536462130420  0.6670372354551783   T   T   T
  0.5344799760000001  0.6778462247102894  0.5959305153229976   T   T   T
  0.6066096546582554  0.3767967076929157  0.3780555401650859   T   T   T
  0.4589220868484006  0.6778811612691115  0.5224946829831437   T   T   T
  0.4621652039639484  0.6704801503675847  0.3783641642577640   T   T   T
  0.6884334478371981  0.5235335236326931  0.5963951543148488   T   T   T
  0.6812643624838735  0.5955377276078180  0.3780251683359587   T   T   T
  0.6803381093544281  0.3776737547676288  0.5945388581200252   T   T   T
  0.5344799760000001  0.4444887396173627  0.5229899879999991   F   F   F
  0.3803866551232224  0.4481762514774021  0.5224779817319404   T   T   T
  0.5344799760000001  0.6025912403826368  0.5229899879999991   F   F   F
  0.5344799760000001  0.5235400199999987  0.6020412683826351   F   F   F
  0.4637810012660481  0.6702328900510034  0.6668999337657345   T   T   T
  0.6135312563826361  0.5235400199999987  0.5229899879999991   F   F   F
  0.5344799760000001  0.3692300412935902  0.5962072249120268   T   T   T
  0.3084048074310246  0.5241227293998976  0.5229992560157569   T   T   T
  0.3805265631628034  0.5235335236326931  0.5963951543148488   T   T   T
  0.5344799760000001  0.5225574663829894  0.3063452872659099   T   T   T
  0.3874924729731891  0.4513649643379932  0.3781809209477821   T   T   T
  0.6814675380268123  0.4513649643379932  0.3781809209477821   T   T   T
  0.6883666764875250  0.5235534247142392  0.4487942845390768   T   T   T
  0.4613510339934379  0.4504110489934376  0.4498710309934353   F   F   F
  0.4613510339934379  0.5966689310065618  0.4498710309934353   F   F   F
  0.6076089470065611  0.5966689310065618  0.4498710309934353   F   F   F
  0.5344799760000001  0.6774461468444948  0.4487540739890320   T   T   T
  0.5344799760000001  0.7502991074285721  0.5220028322545792   T   T   T
  0.3885289274916610  0.6695047839907780  0.5946107356125119   T   T   T
  0.6885733558767790  0.4481762514774021  0.5224779817319404   T   T   T
  0.3883126600668951  0.3768646218756577  0.4512427822562847   T   T   T
  0.3876956485161277  0.5955377276078180  0.3780251683359587   T   T   T
  0.4639713197326390  0.3766919874818019  0.6669811218655729   T   T   T
  0.6810481672285719  0.4527536462130420  0.6670372354551783   T   T   T
  0.6076089470065611  0.5966689310065618  0.5961189590065601   F   F   F
  0.5344799760000001  0.4466229381569952  0.3704228484228657   T   T   T
  0.5344799760000001  0.5235400199999987  0.4439487216173603   F   F   F
  0.6804310835083404  0.6695047839907780  0.5946107356125119   T   T   T
  0.5344799760000001  0.5984737012628806  0.6766936807784135   T   T   T
  0.4613510339934379  0.5966689310065618  0.5961189590065601   F   F   F
  0.4595022687503265  0.5237009301463632  0.6767791602287413   T   T   T
  0.6112141835378186  0.5234053232919164  0.3700732672047569   T   T   T
  0.6806473509331065  0.3768646218756577  0.4512427822562847   T   T   T
  0.6076089470065611  0.4504110489934376  0.5961189590065601   F   F   F
  0.3877180846765086  0.5943069196217341  0.6671612383049689   T   T   T
  0.5344799760000001  0.2975065675940002  0.5222496257819305   T   T   T
  0.6812419263234932  0.5943069196217341  0.6671612383049689   T   T   T
  0.3886219016455736  0.3776737547676288  0.5945388581200252   T   T   T
  0.5344799760000001  0.6002528544963386  0.3697085027776004   T   T   T
  0.6813601828063547  0.6695587755371352  0.4511614310892147   T   T   T
  0.6067947770360436  0.6704801503675847  0.3783641642577640   T   T   T
  0.6097332299084920  0.3691671907079453  0.5225593170752774   T   T   T
  0.4554287246173629  0.5235400199999987  0.5229899879999991   F   F   F
  0.6100378941515983  0.6778811612691115  0.5224946829831437   T   T   T
  0.6051789797339436  0.6702328900510034  0.6668999337657345   T   T   T
  0.5344799760000001  0.3694666888388783  0.4487151987587027   T   T   T
  0.4623503263417363  0.3767967076929157  0.3780555401650859   T   T   T
  0.6049886612673528  0.3766919874818019  0.6669811218655729   T   T   T
  0.5344799760000001  0.4485656296949369  0.6765522228607999   T   T   T
  0.7605552035689768  0.5241227293998976  0.5229992560157569   T   T   T
  0.3805933345124765  0.5235534247142392  0.4487942845390768   T   T   T
  0.5344799688599693  0.5165599725411291  0.2458806011456224   T   T   T
 
  0.00000000E+00  0.00000000E+00  0.00000000E+00
  0.00000000E+00  0.00000000E+00  0.00000000E+00
  0.00000000E+00  0.00000000E+00  0.00000000E+00
  0.00000000E+00  0.00000000E+00  0.00000000E+00
  0.00000000E+00  0.00000000E+00  0.00000000E+00
  0.00000000E+00  0.00000000E+00  0.00000000E+00
  0.00000000E+00  0.00000000E+00  0.00000000E+00
  0.00000000E+00  0.00000000E+00  0.00000000E+00
  0.00000000E+00  0.00000000E+00  0.00000000E+00
  0.00000000E+00  0.00000000E+00  0.00000000E+00
  0.00000000E+00  0.00000000E+00  0.00000000E+00
  0.00000000E+00  0.00000000E+00  0.00000000E+00
  0.00000000E+00  0.00000000E+00  0.00000000E+00
  0.00000000E+00  0.00000000E+00  0.00000000E+00
  0.00000000E+00  0.00000000E+00  0.00000000E+00
  0.00000000E+00  0.00000000E+00  0.00000000E+00
  0.00000000E+00  0.00000000E+00  0.00000000E+00
  0.00000000E+00  0.00000000E+00  0.00000000E+00
  0.00000000E+00  0.00000000E+00  0.00000000E+00
  0.00000000E+00  0.00000000E+00  0.00000000E+00
  0.00000000E+00  0.00000000E+00  0.00000000E+00
  0.00000000E+00  0.00000000E+00  0.00000000E+00
  0.00000000E+00  0.00000000E+00  0.00000000E+00
  0.00000000E+00  0.00000000E+00  0.00000000E+00
  0.00000000E+00  0.00000000E+00  0.00000000E+00
  0.00000000E+00  0.00000000E+00  0.00000000E+00
  0.00000000E+00  0.00000000E+00  0.00000000E+00
  0.00000000E+00  0.00000000E+00  0.00000000E+00
  0.00000000E+00  0.00000000E+00  0.00000000E+00
  0.00000000E+00  0.00000000E+00  0.00000000E+00
  0.00000000E+00  0.00000000E+00  0.00000000E+00
  0.00000000E+00  0.00000000E+00  0.00000000E+00
  0.00000000E+00  0.00000000E+00  0.00000000E+00
  0.00000000E+00  0.00000000E+00  0.00000000E+00
  0.00000000E+00  0.00000000E+00  0.00000000E+00
  0.00000000E+00  0.00000000E+00  0.00000000E+00
  0.00000000E+00  0.00000000E+00  0.00000000E+00
  0.00000000E+00  0.00000000E+00  0.00000000E+00
  0.00000000E+00  0.00000000E+00  0.00000000E+00
  0.00000000E+00  0.00000000E+00  0.00000000E+00
  0.00000000E+00  0.00000000E+00  0.00000000E+00
  0.00000000E+00  0.00000000E+00  0.00000000E+00
  0.00000000E+00  0.00000000E+00  0.00000000E+00
  0.00000000E+00  0.00000000E+00  0.00000000E+00
  0.00000000E+00  0.00000000E+00  0.00000000E+00
  0.00000000E+00  0.00000000E+00  0.00000000E+00
  0.00000000E+00  0.00000000E+00  0.00000000E+00
  0.00000000E+00  0.00000000E+00  0.00000000E+00
  0.00000000E+00  0.00000000E+00  0.00000000E+00
  0.00000000E+00  0.00000000E+00  0.00000000E+00
  0.00000000E+00  0.00000000E+00  0.00000000E+00
  0.00000000E+00  0.00000000E+00  0.00000000E+00
  0.00000000E+00  0.00000000E+00  0.00000000E+00
  0.00000000E+00  0.00000000E+00  0.00000000E+00
  0.00000000E+00  0.00000000E+00  0.00000000E+00
  0.00000000E+00  0.00000000E+00  0.00000000E+00
  0.00000000E+00  0.00000000E+00  0.00000000E+00
  0.00000000E+00  0.00000000E+00  0.00000000E+00
  0.00000000E+00  0.00000000E+00  0.00000000E+00
  0.00000000E+00  0.00000000E+00  0.00000000E+00
  0.00000000E+00  0.00000000E+00  0.00000000E+00
  0.00000000E+00  0.00000000E+00  0.00000000E+00
  0.00000000E+00  0.00000000E+00  0.00000000E+00
  0.00000000E+00  0.00000000E+00  0.00000000E+00
  0.00000000E+00  0.00000000E+00  0.00000000E+00
  0.00000000E+00  0.00000000E+00  0.00000000E+00
  0.00000000E+00  0.00000000E+00  0.00000000E+00
  0.00000000E+00  0.00000000E+00  0.00000000E+00
  0.00000000E+00  0.00000000E+00  0.00000000E+00
