Sn H                                    
   1.00000000000000     
    29.0000000000000000    0.0000000000000000    0.0000000000000000
     0.0000000000000000   29.0000000000000000    0.0000000000000000
     0.0000000000000000    0.0000000000000000   29.0000000000000000
   Sn   H 
    68     1
Selective dynamics
Direct
  0.5337021514972969  0.5235400199999987  0.7488787296449669   T   T   T
  0.3896015798808639  0.6703690738776947  0.4509054122400440   T   T   T
  0.3813999681614856  0.6002002583169588  0.5228690162009714   T   T   T
  0.6076089470065611  0.4504110489934376  0.4498710309934353   F   F   F
  0.4613510339934379  0.4504110489934376  0.5961189590065601   F   F   F
  0.6883358459597052  0.5983550214736958  0.5230047313572032   T   T   T
  0.4601851412325102  0.5235400199999987  0.3689005994052313   T   T   T
  0.4602331227854138  0.3697793225710305  0.5229593656654374   T   T   T
  0.6073106109197404  0.5235400199999987  0.6772006304296677   T   T   T
  0.3896338429371253  0.4513211466132682  0.6696317705354876   T   T   T
  0.5340086971935628  0.6780802911437959  0.5985330730293617   T   T   T
  0.6064282485175885  0.3777865789533706  0.3771106249459598   T   T   T
  0.4602331227854138  0.6773006584289728  0.5229593656654374   T   T   T
  0.4627174875006499  0.6697286173936190  0.3768897382597729   T   T   T
  0.6883280327581461  0.5235400199999987  0.5980118027137720   T   T   T
  0.6785996553021381  0.5939424251025635  0.3765053000659941   T   T   T
  0.6785943602022767  0.3771091016845651  0.5934198957348029   T   T   T
  0.5344799760000001  0.4444887396173627  0.5229899879999991   F   F   F
  0.3813999681614856  0.4468797216830410  0.5228690162009714   T   T   T
  0.5344799760000001  0.6025912403826368  0.5229899879999991   F   F   F
  0.5344799760000001  0.5235400199999987  0.6020412683826351   F   F   F
  0.4626176446439808  0.6700027504643472  0.6693274462223280   T   T   T
  0.6135312563826361  0.5235400199999987  0.5229899879999991   F   F   F
  0.5340086971935628  0.3689996898562071  0.5985330730293617   T   T   T
  0.3175289653559210  0.5235400199999987  0.5217130182149338   T   T   T
  0.3809404902948241  0.5235400199999987  0.5993930105041716   T   T   T
  0.5343671596537395  0.5235400199999987  0.2967615212545795   T   T   T
  0.3895269914177260  0.4512760198859384  0.3761066772942798   T   T   T
  0.6785996553021381  0.4531375548974361  0.3765053000659941   T   T   T
  0.6880868228869450  0.5235400199999987  0.4481776169644361   T   T   T
  0.4613510339934379  0.4504110489934376  0.4498710309934353   F   F   F
  0.4613510339934379  0.5966689310065618  0.4498710309934353   F   F   F
  0.6076089470065611  0.5966689310065618  0.4498710309934353   F   F   F
  0.5342668167808045  0.6776501941164592  0.4475290570281191   T   T   T
  0.5343519564100137  0.7498074257620293  0.5228413546762756   T   T   T
  0.3895723041731126  0.6704187688158677  0.5950207673651176   T   T   T
  0.6883358459597052  0.4487249585263038  0.5230047313572032   T   T   T
  0.3896015798808639  0.3767109071223084  0.4509054122400440   T   T   T
  0.3895269914177260  0.5958039601140611  0.3761066772942798   T   T   T
  0.4626176446439808  0.3770772305356558  0.6693274462223280   T   T   T
  0.6782638959769822  0.4532582633397698  0.6697391389984046   T   T   T
  0.6076089470065611  0.5966689310065618  0.5961189590065601   F   F   F
  0.5341412163806109  0.4481875352185760  0.3687253854523607   T   T   T
  0.5344799760000001  0.5235400199999987  0.4439487216173603   F   F   F
  0.6785943602022767  0.6699708793154378  0.5934198957348029   T   T   T
  0.5340579007801217  0.5991810726095316  0.6769321607334609   T   T   T
  0.4613510339934379  0.5966689310065618  0.5961189590065601   F   F   F
  0.4598225671923870  0.5235400199999987  0.6767128574021318   T   T   T
  0.6076049288185633  0.5235400199999987  0.3686547009832600   T   T   T
  0.6783042644071415  0.3769825295747127  0.4526853559234009   T   T   T
  0.6076089470065611  0.4504110489934376  0.5961189590065601   F   F   F
  0.3896338429371253  0.5957588333867314  0.6696317705354876   T   T   T
  0.5343519564100137  0.2972725852379760  0.5228413546762756   T   T   T
  0.6782638959769822  0.5938217166602295  0.6697391389984046   T   T   T
  0.3895723041731126  0.3766612121841356  0.5950207673651176   T   T   T
  0.5341412163806109  0.5988924447814236  0.3687253854523607   T   T   T
  0.6783042644071415  0.6700974514252901  0.4526853559234009   T   T   T
  0.6064282485175885  0.6692934020466325  0.3771106249459598   T   T   T
  0.6074678353759762  0.3694863184763662  0.5232713781166962   T   T   T
  0.4554287246173629  0.5235400199999987  0.5229899879999991   F   F   F
  0.6074678353759762  0.6775936625236370  0.5232713781166962   T   T   T
  0.6063995542940263  0.6694800784458789  0.6687236207051054   T   T   T
  0.5342668167808045  0.3694297868835438  0.4475290570281191   T   T   T
  0.4627174875006499  0.3773513636063839  0.3768897382597729   T   T   T
  0.6063995542940263  0.3775999025541241  0.6687236207051054   T   T   T
  0.5340579007801217  0.4478989073904679  0.6769321607334609   T   T   T
  0.7613173925430713  0.5235400199999987  0.5233343769376458   T   T   T
  0.3819229765642440  0.5235400199999987  0.4459876699259129   T   T   T
  0.2568965419584817  0.5235400294680801  0.5156994601267281   T   T   T
 
  0.00000000E+00  0.00000000E+00  0.00000000E+00
  0.00000000E+00  0.00000000E+00  0.00000000E+00
  0.00000000E+00  0.00000000E+00  0.00000000E+00
  0.00000000E+00  0.00000000E+00  0.00000000E+00
  0.00000000E+00  0.00000000E+00  0.00000000E+00
  0.00000000E+00  0.00000000E+00  0.00000000E+00
  0.00000000E+00  0.00000000E+00  0.00000000E+00
  0.00000000E+00  0.00000000E+00  0.00000000E+00
  0.00000000E+00  0.00000000E+00  0.00000000E+00
  0.00000000E+00  0.00000000E+00  0.00000000E+00
  0.00000000E+00  0.00000000E+00  0.00000000E+00
  0.00000000E+00  0.00000000E+00  0.00000000E+00
  0.00000000E+00  0.00000000E+00  0.00000000E+00
  0.00000000E+00  0.00000000E+00  0.00000000E+00
  0.00000000E+00  0.00000000E+00  0.00000000E+00
  0.00000000E+00  0.00000000E+00  0.00000000E+00
  0.00000000E+00  0.00000000E+00  0.00000000E+00
  0.00000000E+00  0.00000000E+00  0.00000000E+00
  0.00000000E+00  0.00000000E+00  0.00000000E+00
  0.00000000E+00  0.00000000E+00  0.00000000E+00
  0.00000000E+00  0.00000000E+00  0.00000000E+00
  0.00000000E+00  0.00000000E+00  0.00000000E+00
  0.00000000E+00  0.00000000E+00  0.00000000E+00
  0.00000000E+00  0.00000000E+00  0.00000000E+00
  0.00000000E+00  0.00000000E+00  0.00000000E+00
  0.00000000E+00  0.00000000E+00  0.00000000E+00
  0.00000000E+00  0.00000000E+00  0.00000000E+00
  0.00000000E+00  0.00000000E+00  0.00000000E+00
  0.00000000E+00  0.00000000E+00  0.00000000E+00
  0.00000000E+00  0.00000000E+00  0.00000000E+00
  0.00000000E+00  0.00000000E+00  0.00000000E+00
  0.00000000E+00  0.00000000E+00  0.00000000E+00
  0.00000000E+00  0.00000000E+00  0.00000000E+00
  0.00000000E+00  0.00000000E+00  0.00000000E+00
  0.00000000E+00  0.00000000E+00  0.00000000E+00
  0.00000000E+00  0.00000000E+00  0.00000000E+00
  0.00000000E+00  0.00000000E+00  0.00000000E+00
  0.00000000E+00  0.00000000E+00  0.00000000E+00
  0.00000000E+00  0.00000000E+00  0.00000000E+00
  0.00000000E+00  0.00000000E+00  0.00000000E+00
  0.00000000E+00  0.00000000E+00  0.00000000E+00
  0.00000000E+00  0.00000000E+00  0.00000000E+00
  0.00000000E+00  0.00000000E+00  0.00000000E+00
  0.00000000E+00  0.00000000E+00  0.00000000E+00
  0.00000000E+00  0.00000000E+00  0.00000000E+00
  0.00000000E+00  0.00000000E+00  0.00000000E+00
  0.00000000E+00  0.00000000E+00  0.00000000E+00
  0.00000000E+00  0.00000000E+00  0.00000000E+00
  0.00000000E+00  0.00000000E+00  0.00000000E+00
  0.00000000E+00  0.00000000E+00  0.00000000E+00
  0.00000000E+00  0.00000000E+00  0.00000000E+00
  0.00000000E+00  0.00000000E+00  0.00000000E+00
  0.00000000E+00  0.00000000E+00  0.00000000E+00
  0.00000000E+00  0.00000000E+00  0.00000000E+00
  0.00000000E+00  0.00000000E+00  0.00000000E+00
  0.00000000E+00  0.00000000E+00  0.00000000E+00
  0.00000000E+00  0.00000000E+00  0.00000000E+00
  0.00000000E+00  0.00000000E+00  0.00000000E+00
  0.00000000E+00  0.00000000E+00  0.00000000E+00
  0.00000000E+00  0.00000000E+00  0.00000000E+00
  0.00000000E+00  0.00000000E+00  0.00000000E+00
  0.00000000E+00  0.00000000E+00  0.00000000E+00
  0.00000000E+00  0.00000000E+00  0.00000000E+00
  0.00000000E+00  0.00000000E+00  0.00000000E+00
  0.00000000E+00  0.00000000E+00  0.00000000E+00
  0.00000000E+00  0.00000000E+00  0.00000000E+00
  0.00000000E+00  0.00000000E+00  0.00000000E+00
  0.00000000E+00  0.00000000E+00  0.00000000E+00
  0.00000000E+00  0.00000000E+00  0.00000000E+00
