Sn H                                    
   1.00000000000000     
    29.0000000000000000    0.0000000000000000    0.0000000000000000
     0.0000000000000000   29.0000000000000000    0.0000000000000000
     0.0000000000000000    0.0000000000000000   29.0000000000000000
   Sn   H 
    68     1
Selective dynamics
Direct
  0.5343982864381340  0.5220895312355026  0.7489317928584428   T   T   T
  0.3886703521157410  0.6682522387237427  0.4511830364802085   T   T   T
  0.3804470507878102  0.5990110011045832  0.5231691678490235   T   T   T
  0.6076089470065611  0.4504110489934376  0.4498710309934353   F   F   F
  0.4613510339934379  0.4504110489934376  0.5961189590065601   F   F   F
  0.6885956333218395  0.5992999684968990  0.5231164421320584   T   T   T
  0.4601098302943954  0.5235169903068609  0.3686374890673673   T   T   T
  0.4591482048701509  0.3701092105721576  0.5230938979378871   T   T   T
  0.6089847132727602  0.5236474147805619  0.6772734720541960   T   T   T
  0.3884619946712820  0.4521579174746143  0.6682647457748392   T   T   T
  0.5349812321868919  0.6819669217717453  0.6005398591656256   T   T   T
  0.6060088056066912  0.3775880165309940  0.3772153731888890   T   T   T
  0.4597098482514106  0.6776606068533567  0.5243420078241747   T   T   T
  0.4631748797233683  0.6687591588286796  0.3769057278435023   T   T   T
  0.6877967821703065  0.5236320336572163  0.5980733515505409   T   T   T
  0.6798103765734083  0.5953673974216463  0.3761604024065773   T   T   T
  0.6809645140941809  0.3789385953847611  0.5951116725049295   T   T   T
  0.5344799760000001  0.4444887396173627  0.5229899879999991   F   F   F
  0.3797608453491346  0.4484829830237856  0.5221961419184827   T   T   T
  0.5344799760000001  0.6025912403826368  0.5229899879999991   F   F   F
  0.5344799760000001  0.5235400199999987  0.6020412683826351   F   F   F
  0.4602208594539485  0.6680340944017077  0.6707225521431180   T   T   T
  0.6135312563826361  0.5235400199999987  0.5229899879999991   F   F   F
  0.5344983138654154  0.3691722935384870  0.5978289290178571   T   T   T
  0.3093295320793196  0.5244309702619441  0.5243497880787287   T   T   T
  0.3810812533541999  0.5234327598610459  0.5978993124113571   T   T   T
  0.5343160090331422  0.5231671416638857  0.2977617295485021   T   T   T
  0.3896295155156528  0.4522801620820620  0.3774612172011583   T   T   T
  0.6790552312187553  0.4519245034622775  0.3771721421787686   T   T   T
  0.6874787917989051  0.5242762803776041  0.4484847081179048   T   T   T
  0.4613510339934379  0.4504110489934376  0.4498710309934353   F   F   F
  0.4613510339934379  0.5966689310065618  0.4498710309934353   F   F   F
  0.6076089470065611  0.5966689310065618  0.4498710309934353   F   F   F
  0.5344153754614597  0.6765863950586780  0.4481414464533289   T   T   T
  0.5346119703316429  0.7482345529197630  0.5205344217081525   T   T   T
  0.3886189495672553  0.6697773502401457  0.5947499555156667   T   T   T
  0.6892351981696624  0.4487975083677450  0.5223320644232555   T   T   T
  0.3888751954917344  0.3772037076364839  0.4513128633615083   T   T   T
  0.3892184844084555  0.5953694565172563  0.3761887760468578   T   T   T
  0.4630638870190796  0.3774159721386292  0.6684292302353976   T   T   T
  0.6805519521021883  0.4521676685227507  0.6685876507718546   T   T   T
  0.6076089470065611  0.5966689310065618  0.5961189590065601   F   F   F
  0.5343605289231228  0.4483883021209658  0.3687657324583151   T   T   T
  0.5344799760000001  0.5235400199999987  0.4439487216173603   F   F   F
  0.6805655934624442  0.6697326354288106  0.5946623509614986   T   T   T
  0.5346253460704903  0.5999326412545860  0.6760798903836102   T   T   T
  0.4613510339934379  0.5966689310065618  0.5961189590065601   F   F   F
  0.4598755279293528  0.5237660226664842  0.6771485433933410   T   T   T
  0.6087709858566801  0.5234824238660626  0.3684352063900502   T   T   T
  0.6803147003254602  0.3773436527399694  0.4514286328719697   T   T   T
  0.6076089470065611  0.4504110489934376  0.5961189590065601   F   F   F
  0.3885583462326198  0.5941614657845382  0.6686636645420282   T   T   T
  0.5346002845869788  0.2984402266335759  0.5220789693177429   T   T   T
  0.6801600535546268  0.5944351062946355  0.6689019453620919   T   T   T
  0.3883167458716531  0.3783797906916107  0.5951136299118898   T   T   T
  0.5345015823051430  0.5980698924472364  0.3683991135778487   T   T   T
  0.6808265706606570  0.6682521388371501  0.4505577392485000   T   T   T
  0.6056896021696723  0.6689721002285378  0.3770655520100094   T   T   T
  0.6099518200373508  0.3702616506967789  0.5230648396476028   T   T   T
  0.4554287246173629  0.5235400199999987  0.5229899879999991   F   F   F
  0.6098268653418077  0.6776724925339602  0.5236901841388438   T   T   T
  0.6083818540945212  0.6684498062391966  0.6703251760327484   T   T   T
  0.5344699478811171  0.3702748151907312  0.4482388238265870   T   T   T
  0.4631052938107929  0.3776186462849352  0.3772809713587806   T   T   T
  0.6060507523645854  0.3775906626199974  0.6686148723139336   T   T   T
  0.5345463292289875  0.4481482128594184  0.6764399603577149   T   T   T
  0.7597602481712771  0.5246196876875056  0.5244175872093538   T   T   T
  0.3811719236029921  0.5240597855833630  0.4484543328989066   T   T   T
  0.5277446077544726  0.7342237903974889  0.6334974374298641   T   T   T
 
  0.00000000E+00  0.00000000E+00  0.00000000E+00
  0.00000000E+00  0.00000000E+00  0.00000000E+00
  0.00000000E+00  0.00000000E+00  0.00000000E+00
  0.00000000E+00  0.00000000E+00  0.00000000E+00
  0.00000000E+00  0.00000000E+00  0.00000000E+00
  0.00000000E+00  0.00000000E+00  0.00000000E+00
  0.00000000E+00  0.00000000E+00  0.00000000E+00
  0.00000000E+00  0.00000000E+00  0.00000000E+00
  0.00000000E+00  0.00000000E+00  0.00000000E+00
  0.00000000E+00  0.00000000E+00  0.00000000E+00
  0.00000000E+00  0.00000000E+00  0.00000000E+00
  0.00000000E+00  0.00000000E+00  0.00000000E+00
  0.00000000E+00  0.00000000E+00  0.00000000E+00
  0.00000000E+00  0.00000000E+00  0.00000000E+00
  0.00000000E+00  0.00000000E+00  0.00000000E+00
  0.00000000E+00  0.00000000E+00  0.00000000E+00
  0.00000000E+00  0.00000000E+00  0.00000000E+00
  0.00000000E+00  0.00000000E+00  0.00000000E+00
  0.00000000E+00  0.00000000E+00  0.00000000E+00
  0.00000000E+00  0.00000000E+00  0.00000000E+00
  0.00000000E+00  0.00000000E+00  0.00000000E+00
  0.00000000E+00  0.00000000E+00  0.00000000E+00
  0.00000000E+00  0.00000000E+00  0.00000000E+00
  0.00000000E+00  0.00000000E+00  0.00000000E+00
  0.00000000E+00  0.00000000E+00  0.00000000E+00
  0.00000000E+00  0.00000000E+00  0.00000000E+00
  0.00000000E+00  0.00000000E+00  0.00000000E+00
  0.00000000E+00  0.00000000E+00  0.00000000E+00
  0.00000000E+00  0.00000000E+00  0.00000000E+00
  0.00000000E+00  0.00000000E+00  0.00000000E+00
  0.00000000E+00  0.00000000E+00  0.00000000E+00
  0.00000000E+00  0.00000000E+00  0.00000000E+00
  0.00000000E+00  0.00000000E+00  0.00000000E+00
  0.00000000E+00  0.00000000E+00  0.00000000E+00
  0.00000000E+00  0.00000000E+00  0.00000000E+00
  0.00000000E+00  0.00000000E+00  0.00000000E+00
  0.00000000E+00  0.00000000E+00  0.00000000E+00
  0.00000000E+00  0.00000000E+00  0.00000000E+00
  0.00000000E+00  0.00000000E+00  0.00000000E+00
  0.00000000E+00  0.00000000E+00  0.00000000E+00
  0.00000000E+00  0.00000000E+00  0.00000000E+00
  0.00000000E+00  0.00000000E+00  0.00000000E+00
  0.00000000E+00  0.00000000E+00  0.00000000E+00
  0.00000000E+00  0.00000000E+00  0.00000000E+00
  0.00000000E+00  0.00000000E+00  0.00000000E+00
  0.00000000E+00  0.00000000E+00  0.00000000E+00
  0.00000000E+00  0.00000000E+00  0.00000000E+00
  0.00000000E+00  0.00000000E+00  0.00000000E+00
  0.00000000E+00  0.00000000E+00  0.00000000E+00
  0.00000000E+00  0.00000000E+00  0.00000000E+00
  0.00000000E+00  0.00000000E+00  0.00000000E+00
  0.00000000E+00  0.00000000E+00  0.00000000E+00
  0.00000000E+00  0.00000000E+00  0.00000000E+00
  0.00000000E+00  0.00000000E+00  0.00000000E+00
  0.00000000E+00  0.00000000E+00  0.00000000E+00
  0.00000000E+00  0.00000000E+00  0.00000000E+00
  0.00000000E+00  0.00000000E+00  0.00000000E+00
  0.00000000E+00  0.00000000E+00  0.00000000E+00
  0.00000000E+00  0.00000000E+00  0.00000000E+00
  0.00000000E+00  0.00000000E+00  0.00000000E+00
  0.00000000E+00  0.00000000E+00  0.00000000E+00
  0.00000000E+00  0.00000000E+00  0.00000000E+00
  0.00000000E+00  0.00000000E+00  0.00000000E+00
  0.00000000E+00  0.00000000E+00  0.00000000E+00
  0.00000000E+00  0.00000000E+00  0.00000000E+00
  0.00000000E+00  0.00000000E+00  0.00000000E+00
  0.00000000E+00  0.00000000E+00  0.00000000E+00
  0.00000000E+00  0.00000000E+00  0.00000000E+00
  0.00000000E+00  0.00000000E+00  0.00000000E+00
