Sn H                                    
   1.00000000000000     
    29.0000000000000000    0.0000000000000000    0.0000000000000000
     0.0000000000000000   29.0000000000000000    0.0000000000000000
     0.0000000000000000    0.0000000000000000   29.0000000000000000
   Sn   H 
    68     1
Selective dynamics
Direct
  0.5344378475522286  0.5230181144496372  0.7477327569936935   T   T   T
  0.3883497755603498  0.6691021580976665  0.4512468922931840   T   T   T
  0.3808883931785504  0.5990937322874171  0.5234654776884100   T   T   T
  0.6076089470065611  0.4504110489934376  0.4498710309934353   F   F   F
  0.4613510339934379  0.4504110489934376  0.5961189590065601   F   F   F
  0.6885984579556303  0.5994487359566841  0.5235339180755285   T   T   T
  0.4595204403746214  0.5236419505475572  0.3691001235952161   T   T   T
  0.4595765050299201  0.3695536419922970  0.5232078707444030   T   T   T
  0.6088636007460040  0.5240322109392285  0.6772552263935612   T   T   T
  0.3881993275349974  0.4516756724058166  0.6686260391181564   T   T   T
  0.5337206749497422  0.6789767930071636  0.5978738690300754   T   T   T
  0.6073033717877490  0.3784646333196837  0.3781721608991633   T   T   T
  0.4592033417623748  0.6778897407701316  0.5222564728552874   T   T   T
  0.4627664722929809  0.6702763119949113  0.3776304600138446   T   T   T
  0.6885690426093422  0.5243058712360983  0.5989050285666548   T   T   T
  0.6802789072957728  0.5957480621149623  0.3764502645326441   T   T   T
  0.6804715005636640  0.3773829288692619  0.5950940445887321   T   T   T
  0.5344799760000001  0.4444887396173627  0.5229899879999991   F   F   F
  0.3807164482168961  0.4487603602577048  0.5234201988232161   T   T   T
  0.5344799760000001  0.6025912403826368  0.5229899879999991   F   F   F
  0.5344799760000001  0.5235400199999987  0.6020412683826351   F   F   F
  0.4630696363852865  0.6703553020718696  0.6692339692604258   T   T   T
  0.6135312563826361  0.5235400199999987  0.5229899879999991   F   F   F
  0.5342556744393372  0.3698371055505926  0.5988836628028908   T   T   T
  0.3110256497275211  0.5239708379724906  0.5237635418082723   T   T   T
  0.3809210314084130  0.5241141270237509  0.5987100350746623   T   T   T
  0.5353049398522711  0.5238728933070387  0.3004247783449056   T   T   T
  0.3889974229307789  0.4523415508369214  0.3775690668573896   T   T   T
  0.6813556911534389  0.4522123648144305  0.3779567231291802   T   T   T
  0.6891304878963407  0.5247216670991165  0.4481173566837519   T   T   T
  0.4613510339934379  0.4504110489934376  0.4498710309934353   F   F   F
  0.4613510339934379  0.5966689310065618  0.4498710309934353   F   F   F
  0.6076089470065611  0.5966689310065618  0.4498710309934353   F   F   F
  0.5346610064561190  0.6777807335348448  0.4478118185904318   T   T   T
  0.5346461107352478  0.7484293640573129  0.5223938589301048   T   T   T
  0.3898107532351204  0.6701644755723257  0.5949121706509627   T   T   T
  0.6891808758909475  0.4489924392968816  0.5242475047832655   T   T   T
  0.3891887732150863  0.3777209480366283  0.4518733361204074   T   T   T
  0.3896314330482833  0.5955092289248651  0.3763233034435168   T   T   T
  0.4627094216819543  0.3781147953763150  0.6695578391293472   T   T   T
  0.6795417225779387  0.4520720847332396  0.6691805168608621   T   T   T
  0.6076089470065611  0.5966689310065618  0.5961189590065601   F   F   F
  0.5342100950045756  0.4481754241480881  0.3692241895168061   T   T   T
  0.5344799760000001  0.5235400199999987  0.4439487216173603   F   F   F
  0.6788162301817178  0.6707124661890395  0.5954168156170641   T   T   T
  0.5331093115627575  0.5984423405747433  0.6782205580909811   T   T   T
  0.4613510339934379  0.5966689310065618  0.5961189590065601   F   F   F
  0.4592326602713669  0.5223796242553724  0.6774088860507618   T   T   T
  0.6102776749652122  0.5238244009334775  0.3696068393390527   T   T   T
  0.6816775940729418  0.3788789528884251  0.4516198728817352   T   T   T
  0.6076089470065611  0.4504110489934376  0.5961189590065601   F   F   F
  0.3903694500078088  0.5955102486160234  0.6698301350359822   T   T   T
  0.5355058357398651  0.3009692637408079  0.5233484109242327   T   T   T
  0.6785939741014088  0.5960782355924333  0.6706772720404337   T   T   T
  0.3894018588027708  0.3771429077870334  0.5946693645456376   T   T   T
  0.5342195719295585  0.5994074087320027  0.3693910121849941   T   T   T
  0.6797271447163723  0.6695445455915355  0.4511938004288699   T   T   T
  0.6063071422167386  0.6695384252520620  0.3771616787688830   T   T   T
  0.6104922660204577  0.3703322207053057  0.5232791283417416   T   T   T
  0.4554287246173629  0.5235400199999987  0.5229899879999991   F   F   F
  0.6091246520981212  0.6778650285281494  0.5231958501627619   T   T   T
  0.6039425886861320  0.6688596173875990  0.6686608593129002   T   T   T
  0.5341275246032500  0.3697698277797658  0.4476518991281471   T   T   T
  0.4623813829208809  0.3775777517708284  0.3769837382852554   T   T   T
  0.6064077722067369  0.3777779836001831  0.6689635133202028   T   T   T
  0.5346643123558562  0.4482579364122321  0.6771816452907877   T   T   T
  0.7596334148689282  0.5241803299986967  0.5235574927486022   T   T   T
  0.3804478304526547  0.5242120724206134  0.4480571553099832   T   T   T
  0.6173171004827798  0.7132664618028927  0.7081572726496130   T   T   T
 
  0.00000000E+00  0.00000000E+00  0.00000000E+00
  0.00000000E+00  0.00000000E+00  0.00000000E+00
  0.00000000E+00  0.00000000E+00  0.00000000E+00
  0.00000000E+00  0.00000000E+00  0.00000000E+00
  0.00000000E+00  0.00000000E+00  0.00000000E+00
  0.00000000E+00  0.00000000E+00  0.00000000E+00
  0.00000000E+00  0.00000000E+00  0.00000000E+00
  0.00000000E+00  0.00000000E+00  0.00000000E+00
  0.00000000E+00  0.00000000E+00  0.00000000E+00
  0.00000000E+00  0.00000000E+00  0.00000000E+00
  0.00000000E+00  0.00000000E+00  0.00000000E+00
  0.00000000E+00  0.00000000E+00  0.00000000E+00
  0.00000000E+00  0.00000000E+00  0.00000000E+00
  0.00000000E+00  0.00000000E+00  0.00000000E+00
  0.00000000E+00  0.00000000E+00  0.00000000E+00
  0.00000000E+00  0.00000000E+00  0.00000000E+00
  0.00000000E+00  0.00000000E+00  0.00000000E+00
  0.00000000E+00  0.00000000E+00  0.00000000E+00
  0.00000000E+00  0.00000000E+00  0.00000000E+00
  0.00000000E+00  0.00000000E+00  0.00000000E+00
  0.00000000E+00  0.00000000E+00  0.00000000E+00
  0.00000000E+00  0.00000000E+00  0.00000000E+00
  0.00000000E+00  0.00000000E+00  0.00000000E+00
  0.00000000E+00  0.00000000E+00  0.00000000E+00
  0.00000000E+00  0.00000000E+00  0.00000000E+00
  0.00000000E+00  0.00000000E+00  0.00000000E+00
  0.00000000E+00  0.00000000E+00  0.00000000E+00
  0.00000000E+00  0.00000000E+00  0.00000000E+00
  0.00000000E+00  0.00000000E+00  0.00000000E+00
  0.00000000E+00  0.00000000E+00  0.00000000E+00
  0.00000000E+00  0.00000000E+00  0.00000000E+00
  0.00000000E+00  0.00000000E+00  0.00000000E+00
  0.00000000E+00  0.00000000E+00  0.00000000E+00
  0.00000000E+00  0.00000000E+00  0.00000000E+00
  0.00000000E+00  0.00000000E+00  0.00000000E+00
  0.00000000E+00  0.00000000E+00  0.00000000E+00
  0.00000000E+00  0.00000000E+00  0.00000000E+00
  0.00000000E+00  0.00000000E+00  0.00000000E+00
  0.00000000E+00  0.00000000E+00  0.00000000E+00
  0.00000000E+00  0.00000000E+00  0.00000000E+00
  0.00000000E+00  0.00000000E+00  0.00000000E+00
  0.00000000E+00  0.00000000E+00  0.00000000E+00
  0.00000000E+00  0.00000000E+00  0.00000000E+00
  0.00000000E+00  0.00000000E+00  0.00000000E+00
  0.00000000E+00  0.00000000E+00  0.00000000E+00
  0.00000000E+00  0.00000000E+00  0.00000000E+00
  0.00000000E+00  0.00000000E+00  0.00000000E+00
  0.00000000E+00  0.00000000E+00  0.00000000E+00
  0.00000000E+00  0.00000000E+00  0.00000000E+00
  0.00000000E+00  0.00000000E+00  0.00000000E+00
  0.00000000E+00  0.00000000E+00  0.00000000E+00
  0.00000000E+00  0.00000000E+00  0.00000000E+00
  0.00000000E+00  0.00000000E+00  0.00000000E+00
  0.00000000E+00  0.00000000E+00  0.00000000E+00
  0.00000000E+00  0.00000000E+00  0.00000000E+00
  0.00000000E+00  0.00000000E+00  0.00000000E+00
  0.00000000E+00  0.00000000E+00  0.00000000E+00
  0.00000000E+00  0.00000000E+00  0.00000000E+00
  0.00000000E+00  0.00000000E+00  0.00000000E+00
  0.00000000E+00  0.00000000E+00  0.00000000E+00
  0.00000000E+00  0.00000000E+00  0.00000000E+00
  0.00000000E+00  0.00000000E+00  0.00000000E+00
  0.00000000E+00  0.00000000E+00  0.00000000E+00
  0.00000000E+00  0.00000000E+00  0.00000000E+00
  0.00000000E+00  0.00000000E+00  0.00000000E+00
  0.00000000E+00  0.00000000E+00  0.00000000E+00
  0.00000000E+00  0.00000000E+00  0.00000000E+00
  0.00000000E+00  0.00000000E+00  0.00000000E+00
  0.00000000E+00  0.00000000E+00  0.00000000E+00
