Sn H                                    
   1.00000000000000     
    29.0000000000000000    0.0000000000000000    0.0000000000000000
     0.0000000000000000   29.0000000000000000    0.0000000000000000
     0.0000000000000000    0.0000000000000000   29.0000000000000000
   Sn   H 
    68     1
Selective dynamics
Direct
  0.5332294828297822  0.5285463991945116  0.7415119613977201   T   T   T
  0.3867544798574558  0.6687360405838203  0.4523323659684423   T   T   T
  0.3788580000434399  0.5978646854144298  0.5232295085321136   T   T   T
  0.6076089470065611  0.4504110489934376  0.4498710309934353   F   F   F
  0.4613510339934379  0.4504110489934376  0.5961189590065601   F   F   F
  0.6892643048702060  0.5969078131108486  0.5225833036613446   T   T   T
  0.4570970843351372  0.5247557325376381  0.3719782656861234   T   T   T
  0.4597620930399854  0.3697755129830458  0.5231262371016893   T   T   T
  0.6106095476414847  0.5230674687644762  0.6754284122607406   T   T   T
  0.3880442194017932  0.4523284188735357  0.6674625151929475   T   T   T
  0.5356831510639716  0.6802170260874035  0.5949091479421520   T   T   T
  0.6061203574419262  0.3801651778742347  0.3754578852082158   T   T   T
  0.4584001025036849  0.6768635521597679  0.5232237163476278   T   T   T
  0.4633679582186860  0.6729940561366632  0.3818178784776974   T   T   T
  0.6892040498286246  0.5241391979968169  0.5977565094484238   T   T   T
  0.6802951628607256  0.5956381150040851  0.3767335100450959   T   T   T
  0.6796147869465694  0.3769996058905197  0.5941022744447676   T   T   T
  0.5344799760000001  0.4444887396173627  0.5229899879999991   F   F   F
  0.3800637944197722  0.4485692215593660  0.5227353688365917   T   T   T
  0.5344799760000001  0.6025912403826368  0.5229899879999991   F   F   F
  0.5344799760000001  0.5235400199999987  0.6020412683826351   F   F   F
  0.4631369231693371  0.6729044291330013  0.6641666713450718   T   T   T
  0.6135312563826361  0.5235400199999987  0.5229899879999991   F   F   F
  0.5347959152741084  0.3696723383249335  0.5986209033370166   T   T   T
  0.3065324625170005  0.5197968100514161  0.5229578008719786   T   T   T
  0.3781908725367671  0.5242557389528943  0.5968194699335565   T   T   T
  0.5332385896046703  0.5288356372616391  0.3047618707719406   T   T   T
  0.3874002291343047  0.4523747108080649  0.3792295310501950   T   T   T
  0.6818599033253544  0.4520939086217395  0.3780152533158175   T   T   T
  0.6892923418046585  0.5239893677253046  0.4480663029041410   T   T   T
  0.4613510339934379  0.4504110489934376  0.4498710309934353   F   F   F
  0.4613510339934379  0.5966689310065618  0.4498710309934353   F   F   F
  0.6076089470065611  0.5966689310065618  0.4498710309934353   F   F   F
  0.5357012458097575  0.6799271612530526  0.4511642642739251   T   T   T
  0.5356115957142845  0.7504465392872863  0.5226743095175396   T   T   T
  0.3865425540064550  0.6690722774816855  0.5937529618284126   T   T   T
  0.6878136408771939  0.4479824295710755  0.5229710372288611   T   T   T
  0.3893461634185464  0.3768355442127316  0.4522157874080596   T   T   T
  0.3869940352502925  0.5967984066444756  0.3789975718456848   T   T   T
  0.4620909121982563  0.3781720712940193  0.6690057505692606   T   T   T
  0.6817298286878966  0.4519633056254347  0.6677554386305560   T   T   T
  0.6076089470065611  0.5966689310065618  0.5961189590065601   F   F   F
  0.5336259627700083  0.4491454714961501  0.3689681087523055   T   T   T
  0.5344799760000001  0.5235400199999987  0.4439487216173603   F   F   F
  0.6837777447598463  0.6667603824684097  0.5944236141274696   T   T   T
  0.5347042365372051  0.6028252486568928  0.6737187337935452   T   T   T
  0.4613510339934379  0.5966689310065618  0.5961189590065601   F   F   F
  0.4574053216189029  0.5249877726756330  0.6741724193091858   T   T   T
  0.6107037631364859  0.5233314756261827  0.3706237049831735   T   T   T
  0.6793939671872068  0.3770536868424936  0.4514722429911857   T   T   T
  0.6076089470065611  0.4504110489934376  0.5961189590065601   F   F   F
  0.3871625293888174  0.5967006501106821  0.6668743602492104   T   T   T
  0.5337314501361324  0.2997609404495104  0.5221498034453358   T   T   T
  0.6800245333389087  0.5954921291064441  0.6692822327711233   T   T   T
  0.3889622302759699  0.3775528556271185  0.5937599523262882   T   T   T
  0.5343603656741528  0.6024826987478544  0.3724902243768715   T   T   T
  0.6830216639193700  0.6674112217925767  0.4512781080408048   T   T   T
  0.6069417706195899  0.6716677734061955  0.3797314196924241   T   T   T
  0.6089707556201622  0.3689689462927339  0.5228459514212800   T   T   T
  0.4554287246173629  0.5235400199999987  0.5229899879999991   F   F   F
  0.6128957425210330  0.6778095187930829  0.5231913113960343   T   T   T
  0.6074866927594812  0.6721116761688289  0.6656941362812979   T   T   T
  0.5345853653388062  0.3700507763409767  0.4468636351334272   T   T   T
  0.4618787469140577  0.3785722443741484  0.3765093593552654   T   T   T
  0.6064577301638882  0.3795393718801444  0.6700061928969862   T   T   T
  0.5339007017648980  0.4487071478402237  0.6768236196181128   T   T   T
  0.7592377700173555  0.5206080275640577  0.5228563939387373   T   T   T
  0.3782123949262061  0.5246594445093645  0.4492840881399324   T   T   T
  0.6045332621404024  0.7456202922226464  0.5227655668231588   T   T   T
 
  0.00000000E+00  0.00000000E+00  0.00000000E+00
  0.00000000E+00  0.00000000E+00  0.00000000E+00
  0.00000000E+00  0.00000000E+00  0.00000000E+00
  0.00000000E+00  0.00000000E+00  0.00000000E+00
  0.00000000E+00  0.00000000E+00  0.00000000E+00
  0.00000000E+00  0.00000000E+00  0.00000000E+00
  0.00000000E+00  0.00000000E+00  0.00000000E+00
  0.00000000E+00  0.00000000E+00  0.00000000E+00
  0.00000000E+00  0.00000000E+00  0.00000000E+00
  0.00000000E+00  0.00000000E+00  0.00000000E+00
  0.00000000E+00  0.00000000E+00  0.00000000E+00
  0.00000000E+00  0.00000000E+00  0.00000000E+00
  0.00000000E+00  0.00000000E+00  0.00000000E+00
  0.00000000E+00  0.00000000E+00  0.00000000E+00
  0.00000000E+00  0.00000000E+00  0.00000000E+00
  0.00000000E+00  0.00000000E+00  0.00000000E+00
  0.00000000E+00  0.00000000E+00  0.00000000E+00
  0.00000000E+00  0.00000000E+00  0.00000000E+00
  0.00000000E+00  0.00000000E+00  0.00000000E+00
  0.00000000E+00  0.00000000E+00  0.00000000E+00
  0.00000000E+00  0.00000000E+00  0.00000000E+00
  0.00000000E+00  0.00000000E+00  0.00000000E+00
  0.00000000E+00  0.00000000E+00  0.00000000E+00
  0.00000000E+00  0.00000000E+00  0.00000000E+00
  0.00000000E+00  0.00000000E+00  0.00000000E+00
  0.00000000E+00  0.00000000E+00  0.00000000E+00
  0.00000000E+00  0.00000000E+00  0.00000000E+00
  0.00000000E+00  0.00000000E+00  0.00000000E+00
  0.00000000E+00  0.00000000E+00  0.00000000E+00
  0.00000000E+00  0.00000000E+00  0.00000000E+00
  0.00000000E+00  0.00000000E+00  0.00000000E+00
  0.00000000E+00  0.00000000E+00  0.00000000E+00
  0.00000000E+00  0.00000000E+00  0.00000000E+00
  0.00000000E+00  0.00000000E+00  0.00000000E+00
  0.00000000E+00  0.00000000E+00  0.00000000E+00
  0.00000000E+00  0.00000000E+00  0.00000000E+00
  0.00000000E+00  0.00000000E+00  0.00000000E+00
  0.00000000E+00  0.00000000E+00  0.00000000E+00
  0.00000000E+00  0.00000000E+00  0.00000000E+00
  0.00000000E+00  0.00000000E+00  0.00000000E+00
  0.00000000E+00  0.00000000E+00  0.00000000E+00
  0.00000000E+00  0.00000000E+00  0.00000000E+00
  0.00000000E+00  0.00000000E+00  0.00000000E+00
  0.00000000E+00  0.00000000E+00  0.00000000E+00
  0.00000000E+00  0.00000000E+00  0.00000000E+00
  0.00000000E+00  0.00000000E+00  0.00000000E+00
  0.00000000E+00  0.00000000E+00  0.00000000E+00
  0.00000000E+00  0.00000000E+00  0.00000000E+00
  0.00000000E+00  0.00000000E+00  0.00000000E+00
  0.00000000E+00  0.00000000E+00  0.00000000E+00
  0.00000000E+00  0.00000000E+00  0.00000000E+00
  0.00000000E+00  0.00000000E+00  0.00000000E+00
  0.00000000E+00  0.00000000E+00  0.00000000E+00
  0.00000000E+00  0.00000000E+00  0.00000000E+00
  0.00000000E+00  0.00000000E+00  0.00000000E+00
  0.00000000E+00  0.00000000E+00  0.00000000E+00
  0.00000000E+00  0.00000000E+00  0.00000000E+00
  0.00000000E+00  0.00000000E+00  0.00000000E+00
  0.00000000E+00  0.00000000E+00  0.00000000E+00
  0.00000000E+00  0.00000000E+00  0.00000000E+00
  0.00000000E+00  0.00000000E+00  0.00000000E+00
  0.00000000E+00  0.00000000E+00  0.00000000E+00
  0.00000000E+00  0.00000000E+00  0.00000000E+00
  0.00000000E+00  0.00000000E+00  0.00000000E+00
  0.00000000E+00  0.00000000E+00  0.00000000E+00
  0.00000000E+00  0.00000000E+00  0.00000000E+00
  0.00000000E+00  0.00000000E+00  0.00000000E+00
  0.00000000E+00  0.00000000E+00  0.00000000E+00
  0.00000000E+00  0.00000000E+00  0.00000000E+00
