Sn H                                    
   1.00000000000000     
    29.0000000000000000    0.0000000000000000    0.0000000000000000
     0.0000000000000000   29.0000000000000000    0.0000000000000000
     0.0000000000000000    0.0000000000000000   29.0000000000000000
   Sn   H 
    68     1
Selective dynamics
Direct
  0.5304848753768892  0.5222995467034450  0.7420309760993299   T   T   T
  0.3907113888589995  0.6724073914316474  0.4510604749483912   T   T   T
  0.3800272606735748  0.6018451921086652  0.5228060422286609   T   T   T
  0.6076089470065611  0.4504110489934376  0.4498710309934353   F   F   F
  0.4613510339934379  0.4504110489934376  0.5961189590065601   F   F   F
  0.6887742424303073  0.5985219206385448  0.5231977854574076   T   T   T
  0.4565599075714615  0.5237737737718859  0.3716440320000571   T   T   T
  0.4597398038064839  0.3684331500919026  0.5228939304394152   T   T   T
  0.6094824493005501  0.5230745174769830  0.6768217659601663   T   T   T
  0.3865621332918073  0.4524841353211814  0.6655051798842747   T   T   T
  0.5343648727661091  0.6784275104719125  0.5974985374486205   T   T   T
  0.6055828664361685  0.3767462847318162  0.3787669894216191   T   T   T
  0.4606596984740303  0.6783198026703873  0.5228711168673851   T   T   T
  0.4630237563233207  0.6694288336489771  0.3769604614554041   T   T   T
  0.6881978057558755  0.5238319828491818  0.5986267563979787   T   T   T
  0.6788120569073989  0.5954408603650151  0.3760236246937651   T   T   T
  0.6806322409086369  0.3778961796841904  0.5937776736137065   T   T   T
  0.5344799760000001  0.4444887396173627  0.5229899879999991   F   F   F
  0.3812806278785251  0.4475579677180439  0.5229311060219162   T   T   T
  0.5344799760000001  0.6025912403826368  0.5229899879999991   F   F   F
  0.5344799760000001  0.5235400199999987  0.6020412683826351   F   F   F
  0.4630476330962335  0.6697389029963955  0.6687740296192518   T   T   T
  0.6135312563826361  0.5235400199999987  0.5229899879999991   F   F   F
  0.5335903524344685  0.3674799863999834  0.5967773665138071   T   T   T
  0.3080393005841793  0.5241649297621271  0.5228450885888817   T   T   T
  0.3782081684194842  0.5247820717584311  0.5952822707284198   T   T   T
  0.5307941762784021  0.5222679950929137  0.3035650562816858   T   T   T
  0.3863000793458767  0.4523053005903019  0.3807134663134080   T   T   T
  0.6798646304890154  0.4511132219399292  0.3769602013866922   T   T   T
  0.6879351459631220  0.5237438344169800  0.4473145462024106   T   T   T
  0.4613510339934379  0.4504110489934376  0.4498710309934353   F   F   F
  0.4613510339934379  0.5966689310065618  0.4498710309934353   F   F   F
  0.6076089470065611  0.5966689310065618  0.4498710309934353   F   F   F
  0.5343671770244773  0.6780713302084077  0.4482188188341723   T   T   T
  0.5360122143737268  0.7481917809284888  0.5226863114202456   T   T   T
  0.3906567945547476  0.6723631251692295  0.5946360330465574   T   T   T
  0.6881196261920557  0.4485909400496885  0.5229930836551057   T   T   T
  0.3889721179692985  0.3760677002981672  0.4517802803646739   T   T   T
  0.3869374457303006  0.5962571112091857  0.3792799522168740   T   T   T
  0.4617201972073127  0.3761435851453793  0.6674183815879715   T   T   T
  0.6798614012392716  0.4511668017736417  0.6685878701392494   T   T   T
  0.6076089470065611  0.5966689310065618  0.5961189590065601   F   F   F
  0.5335188244143725  0.4466677861105474  0.3716604540290597   T   T   T
  0.5344799760000001  0.5235400199999987  0.4439487216173603   F   F   F
  0.6804616159576409  0.6692935852636326  0.5943614384429778   T   T   T
  0.5349581016727685  0.5998417373014271  0.6754305134857613   T   T   T
  0.4613510339934379  0.5966689310065618  0.5961189590065601   F   F   F
  0.4564940175713512  0.5239163788279316  0.6740612705703604   T   T   T
  0.6094927980509858  0.5229971518657752  0.3690490293225089   T   T   T
  0.6803452651493541  0.3779253528581287  0.4522683840651975   T   T   T
  0.6076089470065611  0.4504110489934376  0.5961189590065601   F   F   F
  0.3870783305548551  0.5962780158225398  0.6666296836396911   T   T   T
  0.5369542152064393  0.2967143555525357  0.5229474012902963   T   T   T
  0.6787830375077708  0.5956705268386310  0.6696659983153965   T   T   T
  0.3891972062610113  0.3762139873852035  0.5942856621429544   T   T   T
  0.5351063478917191  0.5996581133512985  0.3704410908005502   T   T   T
  0.6806838088556563  0.6688310101696835  0.4515368511710122   T   T   T
  0.6063243650685493  0.6705236322886017  0.3777137203774689   T   T   T
  0.6093291657995100  0.3688620457030363  0.5231391771806690   T   T   T
  0.4554287246173629  0.5235400199999987  0.5229899879999991   F   F   F
  0.6098902664125683  0.6773612973398698  0.5228363491218081   T   T   T
  0.6060491500551916  0.6708072028317089  0.6680721707800615   T   T   T
  0.5338493295490537  0.3677100926841165  0.4494037146495923   T   T   T
  0.4619363170996519  0.3762152483165044  0.3789016393953000   T   T   T
  0.6055105731988609  0.3764972255070118  0.6669498615330686   T   T   T
  0.5334404141756911  0.4463395566655436  0.6741542493542327   T   T   T
  0.7577836003729541  0.5231651214995822  0.5229175891177634   T   T   T
  0.3784409981058418  0.5246709485669088  0.4505046557390240   T   T   T
  0.3119062065198560  0.5926394421822408  0.5214471483965301   T   T   T
 
  0.00000000E+00  0.00000000E+00  0.00000000E+00
  0.00000000E+00  0.00000000E+00  0.00000000E+00
  0.00000000E+00  0.00000000E+00  0.00000000E+00
  0.00000000E+00  0.00000000E+00  0.00000000E+00
  0.00000000E+00  0.00000000E+00  0.00000000E+00
  0.00000000E+00  0.00000000E+00  0.00000000E+00
  0.00000000E+00  0.00000000E+00  0.00000000E+00
  0.00000000E+00  0.00000000E+00  0.00000000E+00
  0.00000000E+00  0.00000000E+00  0.00000000E+00
  0.00000000E+00  0.00000000E+00  0.00000000E+00
  0.00000000E+00  0.00000000E+00  0.00000000E+00
  0.00000000E+00  0.00000000E+00  0.00000000E+00
  0.00000000E+00  0.00000000E+00  0.00000000E+00
  0.00000000E+00  0.00000000E+00  0.00000000E+00
  0.00000000E+00  0.00000000E+00  0.00000000E+00
  0.00000000E+00  0.00000000E+00  0.00000000E+00
  0.00000000E+00  0.00000000E+00  0.00000000E+00
  0.00000000E+00  0.00000000E+00  0.00000000E+00
  0.00000000E+00  0.00000000E+00  0.00000000E+00
  0.00000000E+00  0.00000000E+00  0.00000000E+00
  0.00000000E+00  0.00000000E+00  0.00000000E+00
  0.00000000E+00  0.00000000E+00  0.00000000E+00
  0.00000000E+00  0.00000000E+00  0.00000000E+00
  0.00000000E+00  0.00000000E+00  0.00000000E+00
  0.00000000E+00  0.00000000E+00  0.00000000E+00
  0.00000000E+00  0.00000000E+00  0.00000000E+00
  0.00000000E+00  0.00000000E+00  0.00000000E+00
  0.00000000E+00  0.00000000E+00  0.00000000E+00
  0.00000000E+00  0.00000000E+00  0.00000000E+00
  0.00000000E+00  0.00000000E+00  0.00000000E+00
  0.00000000E+00  0.00000000E+00  0.00000000E+00
  0.00000000E+00  0.00000000E+00  0.00000000E+00
  0.00000000E+00  0.00000000E+00  0.00000000E+00
  0.00000000E+00  0.00000000E+00  0.00000000E+00
  0.00000000E+00  0.00000000E+00  0.00000000E+00
  0.00000000E+00  0.00000000E+00  0.00000000E+00
  0.00000000E+00  0.00000000E+00  0.00000000E+00
  0.00000000E+00  0.00000000E+00  0.00000000E+00
  0.00000000E+00  0.00000000E+00  0.00000000E+00
  0.00000000E+00  0.00000000E+00  0.00000000E+00
  0.00000000E+00  0.00000000E+00  0.00000000E+00
  0.00000000E+00  0.00000000E+00  0.00000000E+00
  0.00000000E+00  0.00000000E+00  0.00000000E+00
  0.00000000E+00  0.00000000E+00  0.00000000E+00
  0.00000000E+00  0.00000000E+00  0.00000000E+00
  0.00000000E+00  0.00000000E+00  0.00000000E+00
  0.00000000E+00  0.00000000E+00  0.00000000E+00
  0.00000000E+00  0.00000000E+00  0.00000000E+00
  0.00000000E+00  0.00000000E+00  0.00000000E+00
  0.00000000E+00  0.00000000E+00  0.00000000E+00
  0.00000000E+00  0.00000000E+00  0.00000000E+00
  0.00000000E+00  0.00000000E+00  0.00000000E+00
  0.00000000E+00  0.00000000E+00  0.00000000E+00
  0.00000000E+00  0.00000000E+00  0.00000000E+00
  0.00000000E+00  0.00000000E+00  0.00000000E+00
  0.00000000E+00  0.00000000E+00  0.00000000E+00
  0.00000000E+00  0.00000000E+00  0.00000000E+00
  0.00000000E+00  0.00000000E+00  0.00000000E+00
  0.00000000E+00  0.00000000E+00  0.00000000E+00
  0.00000000E+00  0.00000000E+00  0.00000000E+00
  0.00000000E+00  0.00000000E+00  0.00000000E+00
  0.00000000E+00  0.00000000E+00  0.00000000E+00
  0.00000000E+00  0.00000000E+00  0.00000000E+00
  0.00000000E+00  0.00000000E+00  0.00000000E+00
  0.00000000E+00  0.00000000E+00  0.00000000E+00
  0.00000000E+00  0.00000000E+00  0.00000000E+00
  0.00000000E+00  0.00000000E+00  0.00000000E+00
  0.00000000E+00  0.00000000E+00  0.00000000E+00
  0.00000000E+00  0.00000000E+00  0.00000000E+00
