Sn H                                    
   1.00000000000000     
    29.0000000000000000    0.0000000000000000    0.0000000000000000
     0.0000000000000000   29.0000000000000000    0.0000000000000000
     0.0000000000000000    0.0000000000000000   29.0000000000000000
   Sn   H 
    68     1
Selective dynamics
Direct
  0.5371730355672313  0.5243246487691421  0.7495911162548116   T   T   T
  0.3877277997135092  0.6675560193669339  0.4516399466867168   T   T   T
  0.3803500156468577  0.5977235391492237  0.5242426486503741   T   T   T
  0.6076089470065611  0.4504110489934376  0.4498710309934353   F   F   F
  0.4613510339934379  0.4504110489934376  0.5961189590065601   F   F   F
  0.6875386166823229  0.5992375189676883  0.5236200194312529   T   T   T
  0.4598122070896327  0.5226729408993810  0.3684800072745942   T   T   T
  0.4593021597572829  0.3696159496814849  0.5234342404665446   T   T   T
  0.6105271918183356  0.5236357773489556  0.6766433891657218   T   T   T
  0.3877345072399562  0.4502687829775497  0.6692833199931629   T   T   T
  0.5373568555315694  0.6778773280349174  0.5971270067547082   T   T   T
  0.6058077690861295  0.3786374261882271  0.3761246237162061   T   T   T
  0.4585713346385822  0.6770140866124220  0.5236680903676203   T   T   T
  0.4623216236586737  0.6699630439270601  0.3775130353745086   T   T   T
  0.6886785161033659  0.5232602320274761  0.5976337888861772   T   T   T
  0.6793193998564776  0.5957777775946915  0.3755776389547663   T   T   T
  0.6765622309517066  0.3750472172189018  0.5952351251788700   T   T   T
  0.5344799760000001  0.4444887396173627  0.5229899879999991   F   F   F
  0.3809739741983315  0.4465314437885090  0.5211971413043662   T   T   T
  0.5344799760000001  0.6025912403826368  0.5229899879999991   F   F   F
  0.5344799760000001  0.5235400199999987  0.6020412683826351   F   F   F
  0.4665937624795281  0.6740380648248017  0.6655694356900121   T   T   T
  0.6135312563826361  0.5235400199999987  0.5229899879999991   F   F   F
  0.5354908608164557  0.3702575001935033  0.5990085697572508   T   T   T
  0.3104210932227103  0.5211384109538163  0.5210377423780742   T   T   T
  0.3796405239194617  0.5208698192607650  0.5977376661775577   T   T   T
  0.5344205344621549  0.5266494905593565  0.2977117888063324   T   T   T
  0.3885333213601326  0.4519978872824127  0.3768856296918136   T   T   T
  0.6793091145668126  0.4519064908687153  0.3762212995559446   T   T   T
  0.6872563109555192  0.5244563554226853  0.4469774806232066   T   T   T
  0.4613510339934379  0.4504110489934376  0.4498710309934353   F   F   F
  0.4613510339934379  0.5966689310065618  0.4498710309934353   F   F   F
  0.6076089470065611  0.5966689310065618  0.4498710309934353   F   F   F
  0.5339311510108500  0.6774359409892137  0.4485042739749207   T   T   T
  0.5317103574269429  0.7483658649556144  0.5234046970779367   T   T   T
  0.3885892242480350  0.6693812387125816  0.5952046296426401   T   T   T
  0.6868946212002780  0.4468996086889155  0.5232865407220655   T   T   T
  0.3903831527645613  0.3754164109684344  0.4501214096016946   T   T   T
  0.3898907860273653  0.5954219047460380  0.3760576802061803   T   T   T
  0.4639349779137191  0.3782320630643733  0.6692114024849565   T   T   T
  0.6818290253977326  0.4510610027663553  0.6672920267158915   T   T   T
  0.6076089470065611  0.5966689310065618  0.5961189590065601   F   F   F
  0.5350212906997320  0.4499776424319281  0.3673623785932906   T   T   T
  0.5344799760000001  0.5235400199999987  0.4439487216173603   F   F   F
  0.6786334366728758  0.6703988831448469  0.5948829636371471   T   T   T
  0.5318970743537715  0.5976321681454669  0.6774634728061588   T   T   T
  0.4613510339934379  0.5966689310065618  0.5961189590065601   F   F   F
  0.4576562221160784  0.5224125768550362  0.6762015147212918   T   T   T
  0.6089820977113961  0.5238339831655360  0.3682336387463646   T   T   T
  0.6794977089590175  0.3770842178584277  0.4504042071895000   T   T   T
  0.6076089470065611  0.4504110489934376  0.5961189590065601   F   F   F
  0.3935864589340911  0.5996565441373896  0.6748432704370666   T   T   T
  0.5323019123306403  0.2982401601720448  0.5247897735988403   T   T   T
  0.6819651469829591  0.5951485090147591  0.6672138225211469   T   T   T
  0.3885411713966427  0.3779045978974050  0.5949852925907217   T   T   T
  0.5338125518342383  0.5987873234689017  0.3694441734100224   T   T   T
  0.6810719888178997  0.6684003941798115  0.4501919201968181   T   T   T
  0.6050665553029524  0.6700950408180623  0.3781010821219758   T   T   T
  0.6080588483999962  0.3684241371141239  0.5213278542822095   T   T   T
  0.4554287246173629  0.5235400199999987  0.5229899879999991   F   F   F
  0.6094216160444087  0.6785233786049696  0.5216201391452749   T   T   T
  0.6049524419708440  0.6666697594148320  0.6708556115070182   T   T   T
  0.5333524610113035  0.3709653816631305  0.4472858416278316   T   T   T
  0.4631906421044448  0.3797427546502272  0.3749709928622478   T   T   T
  0.6055566426038509  0.3802631776186191  0.6719592922036344   T   T   T
  0.5339820303027877  0.4502605777557652  0.6775635154354653   T   T   T
  0.7566889035358062  0.5223519239810664  0.5213116498817001   T   T   T
  0.3812860980975182  0.5238948391163176  0.4473275119138865   T   T   T
  0.3489800350428987  0.5684759473611226  0.6343351736913443   T   T   T
 
  0.00000000E+00  0.00000000E+00  0.00000000E+00
  0.00000000E+00  0.00000000E+00  0.00000000E+00
  0.00000000E+00  0.00000000E+00  0.00000000E+00
  0.00000000E+00  0.00000000E+00  0.00000000E+00
  0.00000000E+00  0.00000000E+00  0.00000000E+00
  0.00000000E+00  0.00000000E+00  0.00000000E+00
  0.00000000E+00  0.00000000E+00  0.00000000E+00
  0.00000000E+00  0.00000000E+00  0.00000000E+00
  0.00000000E+00  0.00000000E+00  0.00000000E+00
  0.00000000E+00  0.00000000E+00  0.00000000E+00
  0.00000000E+00  0.00000000E+00  0.00000000E+00
  0.00000000E+00  0.00000000E+00  0.00000000E+00
  0.00000000E+00  0.00000000E+00  0.00000000E+00
  0.00000000E+00  0.00000000E+00  0.00000000E+00
  0.00000000E+00  0.00000000E+00  0.00000000E+00
  0.00000000E+00  0.00000000E+00  0.00000000E+00
  0.00000000E+00  0.00000000E+00  0.00000000E+00
  0.00000000E+00  0.00000000E+00  0.00000000E+00
  0.00000000E+00  0.00000000E+00  0.00000000E+00
  0.00000000E+00  0.00000000E+00  0.00000000E+00
  0.00000000E+00  0.00000000E+00  0.00000000E+00
  0.00000000E+00  0.00000000E+00  0.00000000E+00
  0.00000000E+00  0.00000000E+00  0.00000000E+00
  0.00000000E+00  0.00000000E+00  0.00000000E+00
  0.00000000E+00  0.00000000E+00  0.00000000E+00
  0.00000000E+00  0.00000000E+00  0.00000000E+00
  0.00000000E+00  0.00000000E+00  0.00000000E+00
  0.00000000E+00  0.00000000E+00  0.00000000E+00
  0.00000000E+00  0.00000000E+00  0.00000000E+00
  0.00000000E+00  0.00000000E+00  0.00000000E+00
  0.00000000E+00  0.00000000E+00  0.00000000E+00
  0.00000000E+00  0.00000000E+00  0.00000000E+00
  0.00000000E+00  0.00000000E+00  0.00000000E+00
  0.00000000E+00  0.00000000E+00  0.00000000E+00
  0.00000000E+00  0.00000000E+00  0.00000000E+00
  0.00000000E+00  0.00000000E+00  0.00000000E+00
  0.00000000E+00  0.00000000E+00  0.00000000E+00
  0.00000000E+00  0.00000000E+00  0.00000000E+00
  0.00000000E+00  0.00000000E+00  0.00000000E+00
  0.00000000E+00  0.00000000E+00  0.00000000E+00
  0.00000000E+00  0.00000000E+00  0.00000000E+00
  0.00000000E+00  0.00000000E+00  0.00000000E+00
  0.00000000E+00  0.00000000E+00  0.00000000E+00
  0.00000000E+00  0.00000000E+00  0.00000000E+00
  0.00000000E+00  0.00000000E+00  0.00000000E+00
  0.00000000E+00  0.00000000E+00  0.00000000E+00
  0.00000000E+00  0.00000000E+00  0.00000000E+00
  0.00000000E+00  0.00000000E+00  0.00000000E+00
  0.00000000E+00  0.00000000E+00  0.00000000E+00
  0.00000000E+00  0.00000000E+00  0.00000000E+00
  0.00000000E+00  0.00000000E+00  0.00000000E+00
  0.00000000E+00  0.00000000E+00  0.00000000E+00
  0.00000000E+00  0.00000000E+00  0.00000000E+00
  0.00000000E+00  0.00000000E+00  0.00000000E+00
  0.00000000E+00  0.00000000E+00  0.00000000E+00
  0.00000000E+00  0.00000000E+00  0.00000000E+00
  0.00000000E+00  0.00000000E+00  0.00000000E+00
  0.00000000E+00  0.00000000E+00  0.00000000E+00
  0.00000000E+00  0.00000000E+00  0.00000000E+00
  0.00000000E+00  0.00000000E+00  0.00000000E+00
  0.00000000E+00  0.00000000E+00  0.00000000E+00
  0.00000000E+00  0.00000000E+00  0.00000000E+00
  0.00000000E+00  0.00000000E+00  0.00000000E+00
  0.00000000E+00  0.00000000E+00  0.00000000E+00
  0.00000000E+00  0.00000000E+00  0.00000000E+00
  0.00000000E+00  0.00000000E+00  0.00000000E+00
  0.00000000E+00  0.00000000E+00  0.00000000E+00
  0.00000000E+00  0.00000000E+00  0.00000000E+00
  0.00000000E+00  0.00000000E+00  0.00000000E+00
