Sn H                                    
   1.00000000000000     
    29.0000000000000000    0.0000000000000000    0.0000000000000000
     0.0000000000000000   29.0000000000000000    0.0000000000000000
     0.0000000000000000    0.0000000000000000   29.0000000000000000
   Sn   H 
    68     1
Selective dynamics
Direct
  0.5344676515764095  0.5237538305773264  0.7471323786753572   T   T   T
  0.3872798201306770  0.6681206595771718  0.4517683017920518   T   T   T
  0.3797666270416504  0.5982522742037150  0.5243006288807258   T   T   T
  0.6076089470065611  0.4504110489934376  0.4498710309934353   F   F   F
  0.4613510339934379  0.4504110489934376  0.5961189590065601   F   F   F
  0.6885948266707168  0.5981830969879837  0.5235791101058103   T   T   T
  0.4583333417760016  0.5230327549091461  0.3698691172200422   T   T   T
  0.4600410444287172  0.3692647117103856  0.5236309297595824   T   T   T
  0.6097702257892084  0.5244362614752150  0.6773535636579238   T   T   T
  0.3901454828490358  0.4510556201107738  0.6700249339335985   T   T   T
  0.5345464072107524  0.6773850799675319  0.5985728815349699   T   T   T
  0.6062136908965946  0.3770146760029908  0.3773790000585809   T   T   T
  0.4586354494499501  0.6770401583541255  0.5231895816270751   T   T   T
  0.4616077763272424  0.6687256479326302  0.3782371665280476   T   T   T
  0.6881496854820549  0.5231027052714533  0.5987215099361252   T   T   T
  0.6801574642793831  0.5945724767881700  0.3774565580688976   T   T   T
  0.6784808144051625  0.3768092135291141  0.5950310045378290   T   T   T
  0.5344799760000001  0.4444887396173627  0.5229899879999991   F   F   F
  0.3801163883696859  0.4474425565239506  0.5236390842728013   T   T   T
  0.5344799760000001  0.6025912403826368  0.5229899879999991   F   F   F
  0.5344799760000001  0.5235400199999987  0.6020412683826351   F   F   F
  0.4625375650741147  0.6695815454372861  0.6688585972304546   T   T   T
  0.6135312563826361  0.5235400199999987  0.5229899879999991   F   F   F
  0.5357578787774024  0.3681208964020834  0.5980694111054857   T   T   T
  0.3092735215270359  0.5232051359390331  0.5238413186878736   T   T   T
  0.3803338148135068  0.5229229306648598  0.5988850981134479   T   T   T
  0.5332757246788389  0.5226310527393635  0.3007234728534848   T   T   T
  0.3884424643575672  0.4510890574163554  0.3768709889407318   T   T   T
  0.6792921441943230  0.4515736940937598  0.3763556197128169   T   T   T
  0.6884258038460930  0.5227576705746082  0.4481512594350290   T   T   T
  0.4613510339934379  0.4504110489934376  0.4498710309934353   F   F   F
  0.4613510339934379  0.5966689310065618  0.4498710309934353   F   F   F
  0.6076089470065611  0.5966689310065618  0.4498710309934353   F   F   F
  0.5348136916753679  0.6775618247808964  0.4475976814752042   T   T   T
  0.5340438715621669  0.7462718568173111  0.5231855922479223   T   T   T
  0.3886597557631144  0.6699397440905221  0.5949358040198639   T   T   T
  0.6882048203238531  0.4477739410437667  0.5234159008310516   T   T   T
  0.3896741779989173  0.3768525715798032  0.4515459539430691   T   T   T
  0.3874557940309820  0.5948601040330472  0.3781507881835162   T   T   T
  0.4649063697737814  0.3778743667462781  0.6683941884272516   T   T   T
  0.6788451271415981  0.4516943845146028  0.6697364174261549   T   T   T
  0.6076089470065611  0.5966689310065618  0.5961189590065601   F   F   F
  0.5346928953258309  0.4475728357366996  0.3696124054867373   T   T   T
  0.5344799760000001  0.5235400199999987  0.4439487216173603   F   F   F
  0.6798695195844111  0.6697748941218464  0.5946683962670077   T   T   T
  0.5344063871585409  0.5991001472772551  0.6769835561389597   T   T   T
  0.4613510339934379  0.5966689310065618  0.5961189590065601   F   F   F
  0.4596481616131144  0.5234337887095710  0.6772457180340726   T   T   T
  0.6094623208332610  0.5235098576540484  0.3689831558629906   T   T   T
  0.6804967280797164  0.3773364391692553  0.4512698598308822   T   T   T
  0.6076089470065611  0.4504110489934376  0.5961189590065601   F   F   F
  0.3890301896372465  0.5954160971094824  0.6688050102220583   T   T   T
  0.5345719691259675  0.2991031241559149  0.5223071550391719   T   T   T
  0.6804720485518616  0.5955215066951522  0.6688453240134294   T   T   T
  0.3903985476932063  0.3758504259100579  0.5957263306898094   T   T   T
  0.5346098422560921  0.5988683737200027  0.3690415445817263   T   T   T
  0.6804573407932717  0.6684241725952184  0.4516957891168722   T   T   T
  0.6065802143712574  0.6694092280509752  0.3771274986393648   T   T   T
  0.6096731726057801  0.3691978084546193  0.5219660917643948   T   T   T
  0.4554287246173629  0.5235400199999987  0.5229899879999991   F   F   F
  0.6097590577653520  0.6773678804709277  0.5229913176186786   T   T   T
  0.6062582334558364  0.6695145690679738  0.6690049196131492   T   T   T
  0.5342485309007536  0.3694104749521674  0.4475691533953952   T   T   T
  0.4624695364610688  0.3774295641012136  0.3770949551327623   T   T   T
  0.6057243191690367  0.3773210544214599  0.6700065225232764   T   T   T
  0.5351732923519089  0.4485509589186044  0.6779245179741532   T   T   T
  0.7579338046704706  0.5231446951115523  0.5235907321746848   T   T   T
  0.3795524446864360  0.5222179483429150  0.4484066947413819   T   T   T
  0.4524469223940117  0.3389539928808361  0.7134545822859493   T   T   T
 
  0.00000000E+00  0.00000000E+00  0.00000000E+00
  0.00000000E+00  0.00000000E+00  0.00000000E+00
  0.00000000E+00  0.00000000E+00  0.00000000E+00
  0.00000000E+00  0.00000000E+00  0.00000000E+00
  0.00000000E+00  0.00000000E+00  0.00000000E+00
  0.00000000E+00  0.00000000E+00  0.00000000E+00
  0.00000000E+00  0.00000000E+00  0.00000000E+00
  0.00000000E+00  0.00000000E+00  0.00000000E+00
  0.00000000E+00  0.00000000E+00  0.00000000E+00
  0.00000000E+00  0.00000000E+00  0.00000000E+00
  0.00000000E+00  0.00000000E+00  0.00000000E+00
  0.00000000E+00  0.00000000E+00  0.00000000E+00
  0.00000000E+00  0.00000000E+00  0.00000000E+00
  0.00000000E+00  0.00000000E+00  0.00000000E+00
  0.00000000E+00  0.00000000E+00  0.00000000E+00
  0.00000000E+00  0.00000000E+00  0.00000000E+00
  0.00000000E+00  0.00000000E+00  0.00000000E+00
  0.00000000E+00  0.00000000E+00  0.00000000E+00
  0.00000000E+00  0.00000000E+00  0.00000000E+00
  0.00000000E+00  0.00000000E+00  0.00000000E+00
  0.00000000E+00  0.00000000E+00  0.00000000E+00
  0.00000000E+00  0.00000000E+00  0.00000000E+00
  0.00000000E+00  0.00000000E+00  0.00000000E+00
  0.00000000E+00  0.00000000E+00  0.00000000E+00
  0.00000000E+00  0.00000000E+00  0.00000000E+00
  0.00000000E+00  0.00000000E+00  0.00000000E+00
  0.00000000E+00  0.00000000E+00  0.00000000E+00
  0.00000000E+00  0.00000000E+00  0.00000000E+00
  0.00000000E+00  0.00000000E+00  0.00000000E+00
  0.00000000E+00  0.00000000E+00  0.00000000E+00
  0.00000000E+00  0.00000000E+00  0.00000000E+00
  0.00000000E+00  0.00000000E+00  0.00000000E+00
  0.00000000E+00  0.00000000E+00  0.00000000E+00
  0.00000000E+00  0.00000000E+00  0.00000000E+00
  0.00000000E+00  0.00000000E+00  0.00000000E+00
  0.00000000E+00  0.00000000E+00  0.00000000E+00
  0.00000000E+00  0.00000000E+00  0.00000000E+00
  0.00000000E+00  0.00000000E+00  0.00000000E+00
  0.00000000E+00  0.00000000E+00  0.00000000E+00
  0.00000000E+00  0.00000000E+00  0.00000000E+00
  0.00000000E+00  0.00000000E+00  0.00000000E+00
  0.00000000E+00  0.00000000E+00  0.00000000E+00
  0.00000000E+00  0.00000000E+00  0.00000000E+00
  0.00000000E+00  0.00000000E+00  0.00000000E+00
  0.00000000E+00  0.00000000E+00  0.00000000E+00
  0.00000000E+00  0.00000000E+00  0.00000000E+00
  0.00000000E+00  0.00000000E+00  0.00000000E+00
  0.00000000E+00  0.00000000E+00  0.00000000E+00
  0.00000000E+00  0.00000000E+00  0.00000000E+00
  0.00000000E+00  0.00000000E+00  0.00000000E+00
  0.00000000E+00  0.00000000E+00  0.00000000E+00
  0.00000000E+00  0.00000000E+00  0.00000000E+00
  0.00000000E+00  0.00000000E+00  0.00000000E+00
  0.00000000E+00  0.00000000E+00  0.00000000E+00
  0.00000000E+00  0.00000000E+00  0.00000000E+00
  0.00000000E+00  0.00000000E+00  0.00000000E+00
  0.00000000E+00  0.00000000E+00  0.00000000E+00
  0.00000000E+00  0.00000000E+00  0.00000000E+00
  0.00000000E+00  0.00000000E+00  0.00000000E+00
  0.00000000E+00  0.00000000E+00  0.00000000E+00
  0.00000000E+00  0.00000000E+00  0.00000000E+00
  0.00000000E+00  0.00000000E+00  0.00000000E+00
  0.00000000E+00  0.00000000E+00  0.00000000E+00
  0.00000000E+00  0.00000000E+00  0.00000000E+00
  0.00000000E+00  0.00000000E+00  0.00000000E+00
  0.00000000E+00  0.00000000E+00  0.00000000E+00
  0.00000000E+00  0.00000000E+00  0.00000000E+00
  0.00000000E+00  0.00000000E+00  0.00000000E+00
  0.00000000E+00  0.00000000E+00  0.00000000E+00
