Sn H                                    
   1.00000000000000     
    29.0000000000000000    0.0000000000000000    0.0000000000000000
     0.0000000000000000   29.0000000000000000    0.0000000000000000
     0.0000000000000000    0.0000000000000000   29.0000000000000000
   Sn   H 
    68     1
Selective dynamics
Direct
  0.5343545774597066  0.5239097083805948  0.7483151934223359   T   T   T
  0.3885496947712153  0.6696643526308030  0.4513109555409831   T   T   T
  0.3809570064479909  0.5992270824600194  0.5228278839820500   T   T   T
  0.6076089470065611  0.4504110489934376  0.4498710309934353   F   F   F
  0.4613510339934379  0.4504110489934376  0.5961189590065601   F   F   F
  0.6897343088152343  0.5984554935763532  0.5218363077655879   T   T   T
  0.4597064668115209  0.5240488871923773  0.3689815275664846   T   T   T
  0.4593531820029643  0.3695567693657207  0.5225033896151692   T   T   T
  0.6102518716305249  0.5240982168868898  0.6774644436419270   T   T   T
  0.3889628337337236  0.4518315661852804  0.6692083967181023   T   T   T
  0.5346379662145402  0.6783061839416673  0.5972843013827474   T   T   T
  0.6062906963765118  0.3769959944903056  0.3778425426925134   T   T   T
  0.4593163879035042  0.6778413379630497  0.5229233155562070   T   T   T
  0.4626079044046862  0.6696583123846293  0.3773270734909543   T   T   T
  0.6886333037371213  0.5240959265783249  0.5977929502034577   T   T   T
  0.6811592771086388  0.5950268304622582  0.3788170951877234   T   T   T
  0.6805404896121409  0.3776853995323588  0.5947164961306087   T   T   T
  0.5344799760000001  0.4444887396173627  0.5229899879999991   F   F   F
  0.3805605007470276  0.4483515052784025  0.5225197689448891   T   T   T
  0.5344799760000001  0.6025912403826368  0.5229899879999991   F   F   F
  0.5344799760000001  0.5235400199999987  0.6020412683826351   F   F   F
  0.4629283069696513  0.6698280811437863  0.6680382609506073   T   T   T
  0.6135312563826361  0.5235400199999987  0.5229899879999991   F   F   F
  0.5346012462039781  0.3701565969299984  0.5988554295179930   T   T   T
  0.3117138733445467  0.5242068728453955  0.5239678196153869   T   T   T
  0.3810189667639813  0.5238943365478101  0.5986796479358926   T   T   T
  0.5347223172011561  0.5233570143199342  0.2990702346779927   T   T   T
  0.3891178238840444  0.4523342535842241  0.3773445200770094   T   T   T
  0.6802195058761002  0.4516067604838501  0.3767531289516742   T   T   T
  0.6886715500773462  0.5223511370422544  0.4479736411812695   T   T   T
  0.4613510339934379  0.4504110489934376  0.4498710309934353   F   F   F
  0.4613510339934379  0.5966689310065618  0.4498710309934353   F   F   F
  0.6076089470065611  0.5966689310065618  0.4498710309934353   F   F   F
  0.5338692835045141  0.6777485317144047  0.4477382692193461   T   T   T
  0.5346232237223654  0.7486249911534988  0.5222326372538135   T   T   T
  0.3887598168966810  0.6696980261980205  0.5946825596035886   T   T   T
  0.6886300274206721  0.4482139966344337  0.5230630463157739   T   T   T
  0.3886869196239507  0.3772569816740776  0.4510875682687603   T   T   T
  0.3880978708051903  0.5952665467042469  0.3778797426875712   T   T   T
  0.4628990183387949  0.3787655068259361  0.6701384508871147   T   T   T
  0.6807738222032194  0.4518650518384831  0.6679023800981735   T   T   T
  0.6076089470065611  0.5966689310065618  0.5961189590065601   F   F   F
  0.5351259191495992  0.4486310020410916  0.3690679720590643   T   T   T
  0.5344799760000001  0.5235400199999987  0.4439487216173603   F   F   F
  0.6802229105328073  0.6689471873801621  0.5926415478326251   T   T   T
  0.5347154362695493  0.5992244207592008  0.6770753649472085   T   T   T
  0.4613510339934379  0.5966689310065618  0.5961189590065601   F   F   F
  0.4591735935980443  0.5245844983449286  0.6776167346722242   T   T   T
  0.6099467804744382  0.5238119956832320  0.3691919447969295   T   T   T
  0.6806693197309969  0.3775011942813737  0.4513314066772488   T   T   T
  0.6076089470065611  0.4504110489934376  0.5961189590065601   F   F   F
  0.3880839909353886  0.5958766730048843  0.6685820447157983   T   T   T
  0.5352664799011635  0.3011320599941412  0.5235941711952585   T   T   T
  0.6816401265237930  0.5964760695480875  0.6672038852845750   T   T   T
  0.3897406046544221  0.3783501772523912  0.5952870138683862   T   T   T
  0.5348448540137322  0.5991207285253981  0.3691391416470797   T   T   T
  0.6812703711585513  0.6699949128437843  0.4517022068220489   T   T   T
  0.6067105027144999  0.6702136652167074  0.3786903078597244   T   T   T
  0.6102540479455564  0.3699140756530749  0.5227548055446908   T   T   T
  0.4554287246173629  0.5235400199999987  0.5229899879999991   F   F   F
  0.6096201842809683  0.6786406501869713  0.5221027092468061   T   T   T
  0.6064972387005045  0.6705677351548056  0.6671567793632893   T   T   T
  0.5345866661902523  0.3696396828696804  0.4478203964910126   T   T   T
  0.4632668487192541  0.3780640501398204  0.3773737045313478   T   T   T
  0.6065012640280736  0.3772664156862449  0.6687213783087936   T   T   T
  0.5356311454371652  0.4488461043669117  0.6776496823795445   T   T   T
  0.7593553131099613  0.5232343012960897  0.5236059143839803   T   T   T
  0.3804823688940578  0.5236644531320562  0.4479596377117770   T   T   T
  0.7196113137467154  0.7136705943538334  0.6053042103327134   T   T   T
 
  0.00000000E+00  0.00000000E+00  0.00000000E+00
  0.00000000E+00  0.00000000E+00  0.00000000E+00
  0.00000000E+00  0.00000000E+00  0.00000000E+00
  0.00000000E+00  0.00000000E+00  0.00000000E+00
  0.00000000E+00  0.00000000E+00  0.00000000E+00
  0.00000000E+00  0.00000000E+00  0.00000000E+00
  0.00000000E+00  0.00000000E+00  0.00000000E+00
  0.00000000E+00  0.00000000E+00  0.00000000E+00
  0.00000000E+00  0.00000000E+00  0.00000000E+00
  0.00000000E+00  0.00000000E+00  0.00000000E+00
  0.00000000E+00  0.00000000E+00  0.00000000E+00
  0.00000000E+00  0.00000000E+00  0.00000000E+00
  0.00000000E+00  0.00000000E+00  0.00000000E+00
  0.00000000E+00  0.00000000E+00  0.00000000E+00
  0.00000000E+00  0.00000000E+00  0.00000000E+00
  0.00000000E+00  0.00000000E+00  0.00000000E+00
  0.00000000E+00  0.00000000E+00  0.00000000E+00
  0.00000000E+00  0.00000000E+00  0.00000000E+00
  0.00000000E+00  0.00000000E+00  0.00000000E+00
  0.00000000E+00  0.00000000E+00  0.00000000E+00
  0.00000000E+00  0.00000000E+00  0.00000000E+00
  0.00000000E+00  0.00000000E+00  0.00000000E+00
  0.00000000E+00  0.00000000E+00  0.00000000E+00
  0.00000000E+00  0.00000000E+00  0.00000000E+00
  0.00000000E+00  0.00000000E+00  0.00000000E+00
  0.00000000E+00  0.00000000E+00  0.00000000E+00
  0.00000000E+00  0.00000000E+00  0.00000000E+00
  0.00000000E+00  0.00000000E+00  0.00000000E+00
  0.00000000E+00  0.00000000E+00  0.00000000E+00
  0.00000000E+00  0.00000000E+00  0.00000000E+00
  0.00000000E+00  0.00000000E+00  0.00000000E+00
  0.00000000E+00  0.00000000E+00  0.00000000E+00
  0.00000000E+00  0.00000000E+00  0.00000000E+00
  0.00000000E+00  0.00000000E+00  0.00000000E+00
  0.00000000E+00  0.00000000E+00  0.00000000E+00
  0.00000000E+00  0.00000000E+00  0.00000000E+00
  0.00000000E+00  0.00000000E+00  0.00000000E+00
  0.00000000E+00  0.00000000E+00  0.00000000E+00
  0.00000000E+00  0.00000000E+00  0.00000000E+00
  0.00000000E+00  0.00000000E+00  0.00000000E+00
  0.00000000E+00  0.00000000E+00  0.00000000E+00
  0.00000000E+00  0.00000000E+00  0.00000000E+00
  0.00000000E+00  0.00000000E+00  0.00000000E+00
  0.00000000E+00  0.00000000E+00  0.00000000E+00
  0.00000000E+00  0.00000000E+00  0.00000000E+00
  0.00000000E+00  0.00000000E+00  0.00000000E+00
  0.00000000E+00  0.00000000E+00  0.00000000E+00
  0.00000000E+00  0.00000000E+00  0.00000000E+00
  0.00000000E+00  0.00000000E+00  0.00000000E+00
  0.00000000E+00  0.00000000E+00  0.00000000E+00
  0.00000000E+00  0.00000000E+00  0.00000000E+00
  0.00000000E+00  0.00000000E+00  0.00000000E+00
  0.00000000E+00  0.00000000E+00  0.00000000E+00
  0.00000000E+00  0.00000000E+00  0.00000000E+00
  0.00000000E+00  0.00000000E+00  0.00000000E+00
  0.00000000E+00  0.00000000E+00  0.00000000E+00
  0.00000000E+00  0.00000000E+00  0.00000000E+00
  0.00000000E+00  0.00000000E+00  0.00000000E+00
  0.00000000E+00  0.00000000E+00  0.00000000E+00
  0.00000000E+00  0.00000000E+00  0.00000000E+00
  0.00000000E+00  0.00000000E+00  0.00000000E+00
  0.00000000E+00  0.00000000E+00  0.00000000E+00
  0.00000000E+00  0.00000000E+00  0.00000000E+00
  0.00000000E+00  0.00000000E+00  0.00000000E+00
  0.00000000E+00  0.00000000E+00  0.00000000E+00
  0.00000000E+00  0.00000000E+00  0.00000000E+00
  0.00000000E+00  0.00000000E+00  0.00000000E+00
  0.00000000E+00  0.00000000E+00  0.00000000E+00
  0.00000000E+00  0.00000000E+00  0.00000000E+00
