La C  O  H                              
   1.00000000000000     
    29.0000000000000000    0.0000000000000000    0.0000000000000000
     0.0000000000000000   29.0000000000000000    0.0000000000000000
     0.0000000000000000    0.0000000000000000   29.0000000000000000
   La   C    O    H 
    68     1     2     1
Selective dynamics
Direct
  0.5439241370523167  0.4917538459265453  0.7066333207319196   T   T   T
  0.3963106985661257  0.6752787624598339  0.3963489782665687   T   T   T
  0.3654757444176647  0.5984262047172956  0.4738880031721199   T   T   T
  0.5847735850602547  0.4395563749397482  0.4024863989397502   F   F   F
  0.4413263949397503  0.4395563749397482  0.5459335890602546   F   F   F
  0.6594892777694906  0.5994588830171748  0.4739118862180453   T   T   T
  0.4246303484505079  0.5109400384137499  0.3267331666937612   T   T   T
  0.4534365675198811  0.3655001882805236  0.4752214987951946   T   T   T
  0.6019716651663986  0.5134652241640250  0.6156410098877046   T   T   T
  0.3474369518610524  0.4327960932224042  0.5904165567222669   T   T   T
  0.5139504254725402  0.6540683807983098  0.5631282134943385   T   T   T
  0.5898535175733668  0.3952865737591092  0.3080574804446671   T   T   T
  0.4522642639464656  0.6566668872203729  0.4747460870255754   T   T   T
  0.4346849144417661  0.6273583029166809  0.3092280523790817   T   T   T
  0.6618034893619285  0.5093710303741402  0.5306681641011324   T   T   T
  0.6788949153280009  0.5882668525602497  0.3579182062668232   T   T   T
  0.6310162642781768  0.3509472930022592  0.5558379827064228   T   T   T
  0.5130500200000014  0.4385212377386409  0.4742099939999989   F   F   F
  0.3658818373842883  0.4229480561036704  0.4740612435260517   T   T   T
  0.5130500200000014  0.5840387622613576  0.4742099939999989   F   F   F
  0.5130500200000014  0.5112799999999993  0.5469687262613618   F   F   F
  0.4355517831344726  0.6285526570423766  0.6371270652876251   T   T   T
  0.5858087222613619  0.5112799999999993  0.4742099939999989   F   F   F
  0.5145119916346361  0.3674120375507683  0.5633667380567642   T   T   T
  0.2933007972682175  0.5103166213653864  0.4756912581568998   T   T   T
  0.3686954487328358  0.5107102620970357  0.5356757343716909   T   T   T
  0.5131681100981625  0.5113144801725437  0.2542613349320049   T   T   T
  0.3481930135405044  0.4324279569593466  0.3583408952404268   T   T   T
  0.6772762664124734  0.4341537784585036  0.3567869531455388   T   T   T
  0.6584867013749659  0.5111333096933932  0.4134029524924128   T   T   T
  0.4413263949397503  0.4395563749397482  0.4024863989397502   F   F   F
  0.4413263949397503  0.5830036250602504  0.4024863989397502   F   F   F
  0.5847735850602547  0.5830036250602504  0.4024863989397502   F   F   F
  0.5127331953684625  0.6589602550345952  0.3863348079416593   T   T   T
  0.5118620315422429  0.7312512964703303  0.4784147164045716   T   T   T
  0.3960024292798879  0.6776258224225217  0.5506535529309239   T   T   T
  0.6610081253571088  0.4230114262550955  0.4728834753853173   T   T   T
  0.3978645290746418  0.3454501323121490  0.3969861871935616   T   T   T
  0.3479419960068548  0.5882224077520195  0.3572951945489816   T   T   T
  0.4362775489491432  0.3957090424009544  0.6384576622227722   T   T   T
  0.6766706557687732  0.4398613230062345  0.6007890095734493   T   T   T
  0.5847735850602547  0.5830036250602504  0.5459335890602546   F   F   F
  0.5128708144438096  0.4506037464187077  0.3287385593036143   T   T   T
  0.5130500200000014  0.5112799999999993  0.4014512617386430   F   F   F
  0.6300813084745922  0.6758158289642915  0.5511437615380406   T   T   T
  0.5126411612560835  0.5669115384268215  0.6257605599516687   T   T   T
  0.4413263949397503  0.5830036250602504  0.5459335890602546   F   F   F
  0.4251141867907292  0.5111913697768017  0.6251176449484868   T   T   T
  0.6005996394235208  0.5112187909865730  0.3268989059646150   T   T   T
  0.6282785893076622  0.3463568277878256  0.3952469922344588   T   T   T
  0.5847735850602547  0.4395563749397482  0.5459335890602546   F   F   F
  0.3475804405661840  0.5895105221823764  0.5891628210447207   T   T   T
  0.5125786751889460  0.2909216223279110  0.4731655720012135   T   T   T
  0.6793821963635361  0.5875528974047420  0.5880372704923027   T   T   T
  0.3973187156956035  0.3452400342765102  0.5520139426462899   T   T   T
  0.5127307861866398  0.5717876062898498  0.3289288864610542   T   T   T
  0.6310205484796306  0.6754745317747364  0.3972647887858516   T   T   T
  0.5912408666569072  0.6271594769317941  0.3096260710642845   T   T   T
  0.5739904757464194  0.3655748668493156  0.4753380206883138   T   T   T
  0.4402912577386431  0.5112799999999993  0.4742099939999989   F   F   F
  0.5729309866199851  0.6577009232982173  0.4738039561843052   T   T   T
  0.5924133157817256  0.6258833746714386  0.6380928897880980   T   T   T
  0.5136137995470864  0.3630386681788914  0.3860036764887195   T   T   T
  0.4355081836514581  0.3941767891667863  0.3097932408212742   T   T   T
  0.5855343736807013  0.3966270180115234  0.6458187922257305   T   T   T
  0.5127603429371029  0.4548813677185272  0.6212841073059846   T   T   T
  0.7360906505081753  0.5176015261254232  0.4668234459211366   T   T   T
  0.3671793098788687  0.5108259634157508  0.4140677142627025   T   T   T
  0.6281388562891298  0.4604622397224835  0.6833125974288915   T   T   T
  0.6243660954835326  0.5044770213063458  0.6987824950643375   T   T   T
  0.6741078338158346  0.4414944251886207  0.6934820996561731   T   T   T
  0.6904893001889734  0.4651385351228172  0.7113319773554744   T   T   T
 
  0.00000000E+00  0.00000000E+00  0.00000000E+00
  0.00000000E+00  0.00000000E+00  0.00000000E+00
  0.00000000E+00  0.00000000E+00  0.00000000E+00
  0.00000000E+00  0.00000000E+00  0.00000000E+00
  0.00000000E+00  0.00000000E+00  0.00000000E+00
  0.00000000E+00  0.00000000E+00  0.00000000E+00
  0.00000000E+00  0.00000000E+00  0.00000000E+00
  0.00000000E+00  0.00000000E+00  0.00000000E+00
  0.00000000E+00  0.00000000E+00  0.00000000E+00
  0.00000000E+00  0.00000000E+00  0.00000000E+00
  0.00000000E+00  0.00000000E+00  0.00000000E+00
  0.00000000E+00  0.00000000E+00  0.00000000E+00
  0.00000000E+00  0.00000000E+00  0.00000000E+00
  0.00000000E+00  0.00000000E+00  0.00000000E+00
  0.00000000E+00  0.00000000E+00  0.00000000E+00
  0.00000000E+00  0.00000000E+00  0.00000000E+00
  0.00000000E+00  0.00000000E+00  0.00000000E+00
  0.00000000E+00  0.00000000E+00  0.00000000E+00
  0.00000000E+00  0.00000000E+00  0.00000000E+00
  0.00000000E+00  0.00000000E+00  0.00000000E+00
  0.00000000E+00  0.00000000E+00  0.00000000E+00
  0.00000000E+00  0.00000000E+00  0.00000000E+00
  0.00000000E+00  0.00000000E+00  0.00000000E+00
  0.00000000E+00  0.00000000E+00  0.00000000E+00
  0.00000000E+00  0.00000000E+00  0.00000000E+00
  0.00000000E+00  0.00000000E+00  0.00000000E+00
  0.00000000E+00  0.00000000E+00  0.00000000E+00
  0.00000000E+00  0.00000000E+00  0.00000000E+00
  0.00000000E+00  0.00000000E+00  0.00000000E+00
  0.00000000E+00  0.00000000E+00  0.00000000E+00
  0.00000000E+00  0.00000000E+00  0.00000000E+00
  0.00000000E+00  0.00000000E+00  0.00000000E+00
  0.00000000E+00  0.00000000E+00  0.00000000E+00
  0.00000000E+00  0.00000000E+00  0.00000000E+00
  0.00000000E+00  0.00000000E+00  0.00000000E+00
  0.00000000E+00  0.00000000E+00  0.00000000E+00
  0.00000000E+00  0.00000000E+00  0.00000000E+00
  0.00000000E+00  0.00000000E+00  0.00000000E+00
  0.00000000E+00  0.00000000E+00  0.00000000E+00
  0.00000000E+00  0.00000000E+00  0.00000000E+00
  0.00000000E+00  0.00000000E+00  0.00000000E+00
  0.00000000E+00  0.00000000E+00  0.00000000E+00
  0.00000000E+00  0.00000000E+00  0.00000000E+00
  0.00000000E+00  0.00000000E+00  0.00000000E+00
  0.00000000E+00  0.00000000E+00  0.00000000E+00
  0.00000000E+00  0.00000000E+00  0.00000000E+00
  0.00000000E+00  0.00000000E+00  0.00000000E+00
  0.00000000E+00  0.00000000E+00  0.00000000E+00
  0.00000000E+00  0.00000000E+00  0.00000000E+00
  0.00000000E+00  0.00000000E+00  0.00000000E+00
  0.00000000E+00  0.00000000E+00  0.00000000E+00
  0.00000000E+00  0.00000000E+00  0.00000000E+00
  0.00000000E+00  0.00000000E+00  0.00000000E+00
  0.00000000E+00  0.00000000E+00  0.00000000E+00
  0.00000000E+00  0.00000000E+00  0.00000000E+00
  0.00000000E+00  0.00000000E+00  0.00000000E+00
  0.00000000E+00  0.00000000E+00  0.00000000E+00
  0.00000000E+00  0.00000000E+00  0.00000000E+00
  0.00000000E+00  0.00000000E+00  0.00000000E+00
  0.00000000E+00  0.00000000E+00  0.00000000E+00
  0.00000000E+00  0.00000000E+00  0.00000000E+00
  0.00000000E+00  0.00000000E+00  0.00000000E+00
  0.00000000E+00  0.00000000E+00  0.00000000E+00
  0.00000000E+00  0.00000000E+00  0.00000000E+00
  0.00000000E+00  0.00000000E+00  0.00000000E+00
  0.00000000E+00  0.00000000E+00  0.00000000E+00
  0.00000000E+00  0.00000000E+00  0.00000000E+00
  0.00000000E+00  0.00000000E+00  0.00000000E+00
  0.00000000E+00  0.00000000E+00  0.00000000E+00
  0.00000000E+00  0.00000000E+00  0.00000000E+00
  0.00000000E+00  0.00000000E+00  0.00000000E+00
  0.00000000E+00  0.00000000E+00  0.00000000E+00
