La C  O  H                              
   1.00000000000000     
    29.0000000000000000    0.0000000000000000    0.0000000000000000
     0.0000000000000000   29.0000000000000000    0.0000000000000000
     0.0000000000000000    0.0000000000000000   29.0000000000000000
   La   C    O    H 
    68     1     2     1
Selective dynamics
Direct
  0.5127557213850251  0.5114188324803076  0.6952227750161685   T   T   T
  0.3963779063080310  0.6765994959291045  0.3967287212053699   T   T   T
  0.3656656146374819  0.5993433272184492  0.4741174424740469   T   T   T
  0.5847735850602547  0.4395563749397482  0.4024863989397502   F   F   F
  0.4413263949397503  0.4395563749397482  0.5459335890602546   F   F   F
  0.6614230282899409  0.6000431503223337  0.4730388535398706   T   T   T
  0.4244138571510236  0.5114087010127859  0.3264883494996276   T   T   T
  0.4532984182953788  0.3655807804426799  0.4741127714949750   T   T   T
  0.6023924758858755  0.5117669945270168  0.6211768141034214   T   T   T
  0.3481940291207034  0.4333821193034594  0.5906701521216506   T   T   T
  0.5131634598349492  0.6578220435741525  0.5619381979609842   T   T   T
  0.5904417086355707  0.3951207737688925  0.3089838479480961   T   T   T
  0.4528530876447312  0.6569937275592271  0.4738185519799857   T   T   T
  0.4349246354636922  0.6268591841650468  0.3096376518146033   T   T   T
  0.6588762386058248  0.5111677335020368  0.5327986874126805   T   T   T
  0.6795602160236464  0.5883587112081514  0.3588047680734970   T   T   T
  0.6291810394753914  0.3457505703907783  0.5514320365507234   T   T   T
  0.5130500200000014  0.4385212377386409  0.4742099939999989   F   F   F
  0.3660361309375680  0.4228694904421433  0.4744277903788687   T   T   T
  0.5130500200000014  0.5840387622613576  0.4742099939999989   F   F   F
  0.5130500200000014  0.5112799999999993  0.5469687262613618   F   F   F
  0.4352822132529668  0.6268909441449021  0.6388327127889932   T   T   T
  0.5858087222613619  0.5112799999999993  0.4742099939999989   F   F   F
  0.5133697034538842  0.3641842495619234  0.5624281321698799   T   T   T
  0.2923664696664890  0.5118920513725199  0.4741848092703153   T   T   T
  0.3674741898637111  0.5110189758121205  0.5343205937378024   T   T   T
  0.5133954645242647  0.5113626320815038  0.2530771565547387   T   T   T
  0.3482588053760366  0.4336170827815189  0.3577438458232133   T   T   T
  0.6779724748229182  0.4335501038452463  0.3579468745417738   T   T   T
  0.6584554477630007  0.5110427500516380  0.4143566868279468   T   T   T
  0.4413263949397503  0.4395563749397482  0.4024863989397502   F   F   F
  0.4413263949397503  0.5830036250602504  0.4024863989397502   F   F   F
  0.5847735850602547  0.5830036250602504  0.4024863989397502   F   F   F
  0.5129455742579410  0.6587454484223518  0.3853202768399723   T   T   T
  0.5132515532859699  0.7320370096184274  0.4737370519970350   T   T   T
  0.3965472327288266  0.6759743977618503  0.5517585909279926   T   T   T
  0.6612297488953588  0.4220479622231081  0.4736931579007738   T   T   T
  0.3967483993930894  0.3461825940547920  0.3964119175943291   T   T   T
  0.3469017875752783  0.5888206714025227  0.3587256177857779   T   T   T
  0.4356878770049916  0.3954706481325715  0.6396824765172233   T   T   T
  0.6786859789211421  0.4334156351712007  0.5888006777372875   T   T   T
  0.5847735850602547  0.5830036250602504  0.5459335890602546   F   F   F
  0.5130255481283583  0.4516066907197854  0.3286132035303130   T   T   T
  0.5130500200000014  0.5112799999999993  0.4014512617386430   F   F   F
  0.6303606996956872  0.6762429868229544  0.5502112608843791   T   T   T
  0.5132431699865755  0.5708784900494354  0.6196712931454558   T   T   T
  0.4413263949397503  0.5830036250602504  0.5459335890602546   F   F   F
  0.4242625093053412  0.5114615204171099  0.6221368135365954   T   T   T
  0.6017761456497993  0.5114514521163792  0.3266495945582093   T   T   T
  0.6286834528930132  0.3455327950038206  0.3961705391474719   T   T   T
  0.5847735850602547  0.4395563749397482  0.5459335890602546   F   F   F
  0.3469386937631189  0.5886466090042691  0.5895539597584079   T   T   T
  0.5136185022600890  0.2903358321734070  0.4744599006292960   T   T   T
  0.6843899952996026  0.5885794317747145  0.5869742480939577   T   T   T
  0.3974878991766885  0.3461458953701156  0.5522892727431660   T   T   T
  0.5131422298360492  0.5710854099352858  0.3284767076570073   T   T   T
  0.6295319638882577  0.6767885207232687  0.3969267278328659   T   T   T
  0.5917220619135986  0.6270760137287377  0.3101565067623682   T   T   T
  0.5730789826887752  0.3657414895451647  0.4738908143559970   T   T   T
  0.4402912577386431  0.5112799999999993  0.4742099939999989   F   F   F
  0.5729710865351129  0.6568772409096729  0.4738853403346687   T   T   T
  0.5900528268370520  0.6303211966426085  0.6386546069344267   T   T   T
  0.5128223150015430  0.3639325218546231  0.3857707330342289   T   T   T
  0.4352664963636991  0.3954221336303502  0.3088207718411651   T   T   T
  0.5915163155419109  0.3954215612598406  0.6388921296383692   T   T   T
  0.5133731483782790  0.4516238721491149  0.6199381884339535   T   T   T
  0.7343452190494918  0.5103559259502624  0.4731561357223135   T   T   T
  0.3674632035839299  0.5111461488226189  0.4141554830645927   T   T   T
  0.6698370906332922  0.6079205005738179  0.6697499362984970   T   T   T
  0.7116873194843325  0.5954291779405809  0.6703568566102233   T   T   T
  0.6512962229856577  0.6255160407215122  0.7109939733236996   T   T   T
  0.6760435819700695  0.6265096025861405  0.7341749842105112   T   T   T
 
  0.00000000E+00  0.00000000E+00  0.00000000E+00
  0.00000000E+00  0.00000000E+00  0.00000000E+00
  0.00000000E+00  0.00000000E+00  0.00000000E+00
  0.00000000E+00  0.00000000E+00  0.00000000E+00
  0.00000000E+00  0.00000000E+00  0.00000000E+00
  0.00000000E+00  0.00000000E+00  0.00000000E+00
  0.00000000E+00  0.00000000E+00  0.00000000E+00
  0.00000000E+00  0.00000000E+00  0.00000000E+00
  0.00000000E+00  0.00000000E+00  0.00000000E+00
  0.00000000E+00  0.00000000E+00  0.00000000E+00
  0.00000000E+00  0.00000000E+00  0.00000000E+00
  0.00000000E+00  0.00000000E+00  0.00000000E+00
  0.00000000E+00  0.00000000E+00  0.00000000E+00
  0.00000000E+00  0.00000000E+00  0.00000000E+00
  0.00000000E+00  0.00000000E+00  0.00000000E+00
  0.00000000E+00  0.00000000E+00  0.00000000E+00
  0.00000000E+00  0.00000000E+00  0.00000000E+00
  0.00000000E+00  0.00000000E+00  0.00000000E+00
  0.00000000E+00  0.00000000E+00  0.00000000E+00
  0.00000000E+00  0.00000000E+00  0.00000000E+00
  0.00000000E+00  0.00000000E+00  0.00000000E+00
  0.00000000E+00  0.00000000E+00  0.00000000E+00
  0.00000000E+00  0.00000000E+00  0.00000000E+00
  0.00000000E+00  0.00000000E+00  0.00000000E+00
  0.00000000E+00  0.00000000E+00  0.00000000E+00
  0.00000000E+00  0.00000000E+00  0.00000000E+00
  0.00000000E+00  0.00000000E+00  0.00000000E+00
  0.00000000E+00  0.00000000E+00  0.00000000E+00
  0.00000000E+00  0.00000000E+00  0.00000000E+00
  0.00000000E+00  0.00000000E+00  0.00000000E+00
  0.00000000E+00  0.00000000E+00  0.00000000E+00
  0.00000000E+00  0.00000000E+00  0.00000000E+00
  0.00000000E+00  0.00000000E+00  0.00000000E+00
  0.00000000E+00  0.00000000E+00  0.00000000E+00
  0.00000000E+00  0.00000000E+00  0.00000000E+00
  0.00000000E+00  0.00000000E+00  0.00000000E+00
  0.00000000E+00  0.00000000E+00  0.00000000E+00
  0.00000000E+00  0.00000000E+00  0.00000000E+00
  0.00000000E+00  0.00000000E+00  0.00000000E+00
  0.00000000E+00  0.00000000E+00  0.00000000E+00
  0.00000000E+00  0.00000000E+00  0.00000000E+00
  0.00000000E+00  0.00000000E+00  0.00000000E+00
  0.00000000E+00  0.00000000E+00  0.00000000E+00
  0.00000000E+00  0.00000000E+00  0.00000000E+00
  0.00000000E+00  0.00000000E+00  0.00000000E+00
  0.00000000E+00  0.00000000E+00  0.00000000E+00
  0.00000000E+00  0.00000000E+00  0.00000000E+00
  0.00000000E+00  0.00000000E+00  0.00000000E+00
  0.00000000E+00  0.00000000E+00  0.00000000E+00
  0.00000000E+00  0.00000000E+00  0.00000000E+00
  0.00000000E+00  0.00000000E+00  0.00000000E+00
  0.00000000E+00  0.00000000E+00  0.00000000E+00
  0.00000000E+00  0.00000000E+00  0.00000000E+00
  0.00000000E+00  0.00000000E+00  0.00000000E+00
  0.00000000E+00  0.00000000E+00  0.00000000E+00
  0.00000000E+00  0.00000000E+00  0.00000000E+00
  0.00000000E+00  0.00000000E+00  0.00000000E+00
  0.00000000E+00  0.00000000E+00  0.00000000E+00
  0.00000000E+00  0.00000000E+00  0.00000000E+00
  0.00000000E+00  0.00000000E+00  0.00000000E+00
  0.00000000E+00  0.00000000E+00  0.00000000E+00
  0.00000000E+00  0.00000000E+00  0.00000000E+00
  0.00000000E+00  0.00000000E+00  0.00000000E+00
  0.00000000E+00  0.00000000E+00  0.00000000E+00
  0.00000000E+00  0.00000000E+00  0.00000000E+00
  0.00000000E+00  0.00000000E+00  0.00000000E+00
  0.00000000E+00  0.00000000E+00  0.00000000E+00
  0.00000000E+00  0.00000000E+00  0.00000000E+00
  0.00000000E+00  0.00000000E+00  0.00000000E+00
  0.00000000E+00  0.00000000E+00  0.00000000E+00
  0.00000000E+00  0.00000000E+00  0.00000000E+00
  0.00000000E+00  0.00000000E+00  0.00000000E+00
