La C  O  H                              
   1.00000000000000     
    29.0000000000000000    0.0000000000000000    0.0000000000000000
     0.0000000000000000   29.0000000000000000    0.0000000000000000
     0.0000000000000000    0.0000000000000000   29.0000000000000000
   La   C    O    H 
    68     1     2     1
Selective dynamics
Direct
  0.5133120885598451  0.5107847599820281  0.6955315111395826   T   T   T
  0.3975363469519104  0.6770822166445317  0.3966030840034920   T   T   T
  0.3654592852936046  0.6004069084791992  0.4737383785034884   T   T   T
  0.5847735850602547  0.4395563749397482  0.4024863989397502   F   F   F
  0.4413263949397503  0.4395563749397482  0.5459335890602546   F   F   F
  0.6600691095966551  0.5993096269992259  0.4744633809981669   T   T   T
  0.4245816981218094  0.5113657608873703  0.3268104983807104   T   T   T
  0.4530539581947791  0.3653022906173243  0.4746642745618216   T   T   T
  0.6017604337706659  0.5111158556820712  0.6224268342646609   T   T   T
  0.3408883769843090  0.4369305398642353  0.5892271926790124   T   T   T
  0.5128256558105306  0.6583655684376656  0.5628926472680830   T   T   T
  0.5905687335564777  0.3947171165611045  0.3099682806615654   T   T   T
  0.4533637289848175  0.6570366118126236  0.4742827645760891   T   T   T
  0.4359828946393311  0.6279614348106343  0.3092043384860048   T   T   T
  0.6582342611675178  0.5114655748213472  0.5344643413115717   T   T   T
  0.6776833001558092  0.5894573616780838  0.3582618393149455   T   T   T
  0.6295126663802959  0.3470014864253239  0.5524492249764950   T   T   T
  0.5130500200000014  0.4385212377386409  0.4742099939999989   F   F   F
  0.3653194516114381  0.4229834712765317  0.4728817078550645   T   T   T
  0.5130500200000014  0.5840387622613576  0.4742099939999989   F   F   F
  0.5130500200000014  0.5112799999999993  0.5469687262613618   F   F   F
  0.4343052394492053  0.6268286871276586  0.6387259268659976   T   T   T
  0.5858087222613619  0.5112799999999993  0.4742099939999989   F   F   F
  0.5127041656753507  0.3642700852496283  0.5627062375486362   T   T   T
  0.2922439927232173  0.5126683765812716  0.4748328985936964   T   T   T
  0.3679616622602757  0.5113176872987939  0.5333489473650451   T   T   T
  0.5121895997611043  0.5116106905058173  0.2535250463949397   T   T   T
  0.3479948572121577  0.4341424074594875  0.3576727502841126   T   T   T
  0.6784603206569573  0.4330030516824861  0.3584912430487422   T   T   T
  0.6586521824189683  0.5112386239805915  0.4141182266473354   T   T   T
  0.4413263949397503  0.4395563749397482  0.4024863989397502   F   F   F
  0.4413263949397503  0.5830036250602504  0.4024863989397502   F   F   F
  0.5847735850602547  0.5830036250602504  0.4024863989397502   F   F   F
  0.5131951219498233  0.6590884205518909  0.3860211703839814   T   T   T
  0.5129359708341797  0.7323880329525289  0.4738485936018683   T   T   T
  0.3964043066290893  0.6762636651119265  0.5515771557813224   T   T   T
  0.6603059246017646  0.4231731602426158  0.4742237819187986   T   T   T
  0.3971206593052635  0.3461361668321470  0.3963525292350972   T   T   T
  0.3483984845148599  0.5892766635445594  0.3577782817828246   T   T   T
  0.4348062140418527  0.3944442255159034  0.6400282068153785   T   T   T
  0.6793078181667592  0.4342701130216282  0.5899025548216935   T   T   T
  0.5847735850602547  0.5830036250602504  0.5459335890602546   F   F   F
  0.5132153870868511  0.4514272254095432  0.3284305472231698   T   T   T
  0.5130500200000014  0.5112799999999993  0.4014512617386430   F   F   F
  0.6294967381439631  0.6758027638596535  0.5524045640417872   T   T   T
  0.5128302634500025  0.5707913015020954  0.6199770093823824   T   T   T
  0.4413263949397503  0.5830036250602504  0.5459335890602546   F   F   F
  0.4240765667674034  0.5115906045650153  0.6215894894667051   T   T   T
  0.6017474455036229  0.5113076057808383  0.3265331610956582   T   T   T
  0.6292635009666451  0.3453828664572128  0.3973375273618252   T   T   T
  0.5847735850602547  0.4395563749397482  0.5459335890602546   F   F   F
  0.3467839326260406  0.5885720144113830  0.5885816838723655   T   T   T
  0.5139546841568754  0.2902988271917564  0.4726412653740010   T   T   T
  0.6783618510359408  0.5885838375267882  0.5909617375253102   T   T   T
  0.3942014632749766  0.3485237950829927  0.5517550277728240   T   T   T
  0.5131561335773854  0.5713814942085237  0.3288603165615954   T   T   T
  0.6291011743822708  0.6769398764562533  0.3971580101074133   T   T   T
  0.5907693237876056  0.6279547992626944  0.3093310168524381   T   T   T
  0.5730720633145207  0.3657266437303262  0.4745062020835790   T   T   T
  0.4402912577386431  0.5112799999999993  0.4742099939999989   F   F   F
  0.5728559297034954  0.6569401186006332  0.4745381921345612   T   T   T
  0.5907652209763233  0.6268343348955600  0.6395523964756381   T   T   T
  0.5130507387063459  0.3637513245328772  0.3857332041799685   T   T   T
  0.4355462737517860  0.3952369734713352  0.3092762457489159   T   T   T
  0.5908349351245054  0.3961219454464657  0.6392926004879378   T   T   T
  0.5127266406695260  0.4517156723237286  0.6195866691931297   T   T   T
  0.7336276428557599  0.5106699794528921  0.4746935382774617   T   T   T
  0.3673520271283956  0.5116623420588741  0.4141482197141506   T   T   T
  0.3504642422183472  0.4010873246208335  0.6667648498436566   T   T   T
  0.3074108869669746  0.4087886323818577  0.6652054493416369   T   T   T
  0.3677005909611640  0.3798094465741031  0.7067842560882966   T   T   T
  0.3414906457996558  0.3730773764550324  0.7272513756794282   T   T   T
 
  0.00000000E+00  0.00000000E+00  0.00000000E+00
  0.00000000E+00  0.00000000E+00  0.00000000E+00
  0.00000000E+00  0.00000000E+00  0.00000000E+00
  0.00000000E+00  0.00000000E+00  0.00000000E+00
  0.00000000E+00  0.00000000E+00  0.00000000E+00
  0.00000000E+00  0.00000000E+00  0.00000000E+00
  0.00000000E+00  0.00000000E+00  0.00000000E+00
  0.00000000E+00  0.00000000E+00  0.00000000E+00
  0.00000000E+00  0.00000000E+00  0.00000000E+00
  0.00000000E+00  0.00000000E+00  0.00000000E+00
  0.00000000E+00  0.00000000E+00  0.00000000E+00
  0.00000000E+00  0.00000000E+00  0.00000000E+00
  0.00000000E+00  0.00000000E+00  0.00000000E+00
  0.00000000E+00  0.00000000E+00  0.00000000E+00
  0.00000000E+00  0.00000000E+00  0.00000000E+00
  0.00000000E+00  0.00000000E+00  0.00000000E+00
  0.00000000E+00  0.00000000E+00  0.00000000E+00
  0.00000000E+00  0.00000000E+00  0.00000000E+00
  0.00000000E+00  0.00000000E+00  0.00000000E+00
  0.00000000E+00  0.00000000E+00  0.00000000E+00
  0.00000000E+00  0.00000000E+00  0.00000000E+00
  0.00000000E+00  0.00000000E+00  0.00000000E+00
  0.00000000E+00  0.00000000E+00  0.00000000E+00
  0.00000000E+00  0.00000000E+00  0.00000000E+00
  0.00000000E+00  0.00000000E+00  0.00000000E+00
  0.00000000E+00  0.00000000E+00  0.00000000E+00
  0.00000000E+00  0.00000000E+00  0.00000000E+00
  0.00000000E+00  0.00000000E+00  0.00000000E+00
  0.00000000E+00  0.00000000E+00  0.00000000E+00
  0.00000000E+00  0.00000000E+00  0.00000000E+00
  0.00000000E+00  0.00000000E+00  0.00000000E+00
  0.00000000E+00  0.00000000E+00  0.00000000E+00
  0.00000000E+00  0.00000000E+00  0.00000000E+00
  0.00000000E+00  0.00000000E+00  0.00000000E+00
  0.00000000E+00  0.00000000E+00  0.00000000E+00
  0.00000000E+00  0.00000000E+00  0.00000000E+00
  0.00000000E+00  0.00000000E+00  0.00000000E+00
  0.00000000E+00  0.00000000E+00  0.00000000E+00
  0.00000000E+00  0.00000000E+00  0.00000000E+00
  0.00000000E+00  0.00000000E+00  0.00000000E+00
  0.00000000E+00  0.00000000E+00  0.00000000E+00
  0.00000000E+00  0.00000000E+00  0.00000000E+00
  0.00000000E+00  0.00000000E+00  0.00000000E+00
  0.00000000E+00  0.00000000E+00  0.00000000E+00
  0.00000000E+00  0.00000000E+00  0.00000000E+00
  0.00000000E+00  0.00000000E+00  0.00000000E+00
  0.00000000E+00  0.00000000E+00  0.00000000E+00
  0.00000000E+00  0.00000000E+00  0.00000000E+00
  0.00000000E+00  0.00000000E+00  0.00000000E+00
  0.00000000E+00  0.00000000E+00  0.00000000E+00
  0.00000000E+00  0.00000000E+00  0.00000000E+00
  0.00000000E+00  0.00000000E+00  0.00000000E+00
  0.00000000E+00  0.00000000E+00  0.00000000E+00
  0.00000000E+00  0.00000000E+00  0.00000000E+00
  0.00000000E+00  0.00000000E+00  0.00000000E+00
  0.00000000E+00  0.00000000E+00  0.00000000E+00
  0.00000000E+00  0.00000000E+00  0.00000000E+00
  0.00000000E+00  0.00000000E+00  0.00000000E+00
  0.00000000E+00  0.00000000E+00  0.00000000E+00
  0.00000000E+00  0.00000000E+00  0.00000000E+00
  0.00000000E+00  0.00000000E+00  0.00000000E+00
  0.00000000E+00  0.00000000E+00  0.00000000E+00
  0.00000000E+00  0.00000000E+00  0.00000000E+00
  0.00000000E+00  0.00000000E+00  0.00000000E+00
  0.00000000E+00  0.00000000E+00  0.00000000E+00
  0.00000000E+00  0.00000000E+00  0.00000000E+00
  0.00000000E+00  0.00000000E+00  0.00000000E+00
  0.00000000E+00  0.00000000E+00  0.00000000E+00
  0.00000000E+00  0.00000000E+00  0.00000000E+00
  0.00000000E+00  0.00000000E+00  0.00000000E+00
  0.00000000E+00  0.00000000E+00  0.00000000E+00
  0.00000000E+00  0.00000000E+00  0.00000000E+00
