La C  O  H                              
   1.00000000000000     
    29.0000000000000000    0.0000000000000000    0.0000000000000000
     0.0000000000000000   29.0000000000000000    0.0000000000000000
     0.0000000000000000    0.0000000000000000   29.0000000000000000
   La   C    O    H 
    68     1     2     1
Selective dynamics
Direct
  0.5124055656508925  0.5241041041975977  0.6897566367807175   T   T   T
  0.3527168095292939  0.6343517862550855  0.3959077522616579   T   T   T
  0.3678642205978084  0.5751811182916122  0.4722583845362055   T   T   T
  0.5847735850602547  0.4395563749397482  0.4024863989397502   F   F   F
  0.4413263949397503  0.4395563749397482  0.5459335890602546   F   F   F
  0.6579016688341335  0.5740935457127385  0.4730494990731856   T   T   T
  0.4488552258264989  0.5136525090472228  0.3297612882048361   T   T   T
  0.4412689888456469  0.3664056103826568  0.4652822062930734   T   T   T
  0.5742107571797680  0.5137354401702824  0.6190352544738930   T   T   T
  0.3499047965988333  0.4380221157622503  0.5941285956958673   T   T   T
  0.5149057847681002  0.6592991635280387  0.5306256513707283   T   T   T
  0.5898352096670332  0.3787059236579773  0.3187112675573013   T   T   T
  0.4262736030521526  0.6607374994743844  0.4744652774433323   T   T   T
  0.4425091222721818  0.6798875239016039  0.3572966139964053   T   T   T
  0.6597479790956700  0.5092691893969612  0.5567307665143163   T   T   T
  0.6193347611434323  0.5888251972033047  0.3101727234162934   T   T   T
  0.6827408929935681  0.4032622806192863  0.5460597488091296   T   T   T
  0.5130500200000014  0.4385212377386409  0.4742099939999989   F   F   F
  0.3675283136266538  0.4457018200527300  0.4838652131591166   T   T   T
  0.5130500200000014  0.5840387622613576  0.4742099939999989   F   F   F
  0.5130500200000014  0.5112799999999993  0.5469687262613618   F   F   F
  0.4395708204134341  0.6800349573529780  0.5868074069215518   T   T   T
  0.5858087222613619  0.5112799999999993  0.4742099939999989   F   F   F
  0.4983520124705805  0.3592612924426934  0.5518138472191206   T   T   T
  0.2967196564526700  0.5120818153099603  0.4827394419098999   T   T   T
  0.3625423931116326  0.5274045669729670  0.5610315340145732   T   T   T
  0.5143334835217295  0.5283007406875523  0.2608166719780509   T   T   T
  0.3912769323947468  0.4316868998159395  0.3158611027291599   T   T   T
  0.6710206741777224  0.4318492158266933  0.3524949579087023   T   T   T
  0.6618209884257906  0.5225663678292056  0.3861754566650297   T   T   T
  0.4413263949397503  0.4395563749397482  0.4024863989397502   F   F   F
  0.4413263949397503  0.5830036250602504  0.4024863989397502   F   F   F
  0.5847735850602547  0.5830036250602504  0.4024863989397502   F   F   F
  0.5133463363045728  0.6579228537017459  0.4173969437780813   T   T   T
  0.5110821987743671  0.7366843272651561  0.4715245799927724   T   T   T
  0.3508323584000562  0.6348123116095358  0.5503889497858517   T   T   T
  0.6598421375209774  0.4442593484128149  0.4609481611774773   T   T   T
  0.3522979698312239  0.3890505101170157  0.4056609457271267   T   T   T
  0.3965272471926236  0.5929853783757028  0.3111540107683919   T   T   T
  0.4309953148475892  0.3858946775852812  0.6313679661766644   T   T   T
  0.6357400557410440  0.4393692982767406  0.6363739391519638   T   T   T
  0.5847735850602547  0.5830036250602504  0.5459335890602546   F   F   F
  0.5023149616042523  0.4297542433352146  0.3223941544829078   T   T   T
  0.5130500200000014  0.5112799999999993  0.4014512617386430   F   F   F
  0.6785501726852317  0.6274233568373512  0.5520669596555707   T   T   T
  0.5112500350286567  0.5986533847486731  0.6172430862075963   T   T   T
  0.4413263949397503  0.5830036250602504  0.5459335890602546   F   F   F
  0.4432911285086628  0.5005156000279976  0.6221273044303777   T   T   T
  0.5844422272286171  0.4947570562453458  0.3219659088785560   T   T   T
  0.6401409689324957  0.3473848415185725  0.4118460058178706   T   T   T
  0.5847735850602547  0.4395563749397482  0.5459335890602546   F   F   F
  0.4008080666340185  0.5924609611953496  0.6357686961631599   T   T   T
  0.5044220773360867  0.2935893069810542  0.4627129594186660   T   T   T
  0.6341465989950982  0.5852602863190906  0.6377638911896852   T   T   T
  0.3827278855302821  0.3525715772829642  0.5412309624435993   T   T   T
  0.5130394048755194  0.5986734346412387  0.3303613516455133   T   T   T
  0.6735259959181130  0.6325568059714876  0.3919319636622473   T   T   T
  0.5839082285945617  0.6791850756413621  0.3568770615155097   T   T   T
  0.5808661722733194  0.3664696688782243  0.4859686422748170   T   T   T
  0.4402912577386431  0.5112799999999993  0.4742099939999989   F   F   F
  0.6016977228416738  0.6599251249895907  0.4725627448382935   T   T   T
  0.5906384171240442  0.6735580914139383  0.5921445967253411   T   T   T
  0.5260750001467579  0.3638501336673915  0.3983009495405075   T   T   T
  0.4384853736109302  0.3448898261197549  0.3572306531304588   T   T   T
  0.5985123375311955  0.3486586638046657  0.5914990039143651   T   T   T
  0.5228637850857054  0.4282235755308481  0.6243151539214742   T   T   T
  0.7293267144637001  0.5105476587349882  0.4770476027287009   T   T   T
  0.3646696113087050  0.5079096192461838  0.3916462077455320   T   T   T
  0.6479224118083955  0.3216255886871201  0.5152583224707402   T   T   T
  0.6738989288396839  0.3205361893702907  0.5529744606574691   T   T   T
  0.6615445676831996  0.2867152679854982  0.4822714157823127   T   T   T
  0.6891093643273470  0.2714615702003705  0.4949184733482757   T   T   T
 
  0.00000000E+00  0.00000000E+00  0.00000000E+00
  0.00000000E+00  0.00000000E+00  0.00000000E+00
  0.00000000E+00  0.00000000E+00  0.00000000E+00
  0.00000000E+00  0.00000000E+00  0.00000000E+00
  0.00000000E+00  0.00000000E+00  0.00000000E+00
  0.00000000E+00  0.00000000E+00  0.00000000E+00
  0.00000000E+00  0.00000000E+00  0.00000000E+00
  0.00000000E+00  0.00000000E+00  0.00000000E+00
  0.00000000E+00  0.00000000E+00  0.00000000E+00
  0.00000000E+00  0.00000000E+00  0.00000000E+00
  0.00000000E+00  0.00000000E+00  0.00000000E+00
  0.00000000E+00  0.00000000E+00  0.00000000E+00
  0.00000000E+00  0.00000000E+00  0.00000000E+00
  0.00000000E+00  0.00000000E+00  0.00000000E+00
  0.00000000E+00  0.00000000E+00  0.00000000E+00
  0.00000000E+00  0.00000000E+00  0.00000000E+00
  0.00000000E+00  0.00000000E+00  0.00000000E+00
  0.00000000E+00  0.00000000E+00  0.00000000E+00
  0.00000000E+00  0.00000000E+00  0.00000000E+00
  0.00000000E+00  0.00000000E+00  0.00000000E+00
  0.00000000E+00  0.00000000E+00  0.00000000E+00
  0.00000000E+00  0.00000000E+00  0.00000000E+00
  0.00000000E+00  0.00000000E+00  0.00000000E+00
  0.00000000E+00  0.00000000E+00  0.00000000E+00
  0.00000000E+00  0.00000000E+00  0.00000000E+00
  0.00000000E+00  0.00000000E+00  0.00000000E+00
  0.00000000E+00  0.00000000E+00  0.00000000E+00
  0.00000000E+00  0.00000000E+00  0.00000000E+00
  0.00000000E+00  0.00000000E+00  0.00000000E+00
  0.00000000E+00  0.00000000E+00  0.00000000E+00
  0.00000000E+00  0.00000000E+00  0.00000000E+00
  0.00000000E+00  0.00000000E+00  0.00000000E+00
  0.00000000E+00  0.00000000E+00  0.00000000E+00
  0.00000000E+00  0.00000000E+00  0.00000000E+00
  0.00000000E+00  0.00000000E+00  0.00000000E+00
  0.00000000E+00  0.00000000E+00  0.00000000E+00
  0.00000000E+00  0.00000000E+00  0.00000000E+00
  0.00000000E+00  0.00000000E+00  0.00000000E+00
  0.00000000E+00  0.00000000E+00  0.00000000E+00
  0.00000000E+00  0.00000000E+00  0.00000000E+00
  0.00000000E+00  0.00000000E+00  0.00000000E+00
  0.00000000E+00  0.00000000E+00  0.00000000E+00
  0.00000000E+00  0.00000000E+00  0.00000000E+00
  0.00000000E+00  0.00000000E+00  0.00000000E+00
  0.00000000E+00  0.00000000E+00  0.00000000E+00
  0.00000000E+00  0.00000000E+00  0.00000000E+00
  0.00000000E+00  0.00000000E+00  0.00000000E+00
  0.00000000E+00  0.00000000E+00  0.00000000E+00
  0.00000000E+00  0.00000000E+00  0.00000000E+00
  0.00000000E+00  0.00000000E+00  0.00000000E+00
  0.00000000E+00  0.00000000E+00  0.00000000E+00
  0.00000000E+00  0.00000000E+00  0.00000000E+00
  0.00000000E+00  0.00000000E+00  0.00000000E+00
  0.00000000E+00  0.00000000E+00  0.00000000E+00
  0.00000000E+00  0.00000000E+00  0.00000000E+00
  0.00000000E+00  0.00000000E+00  0.00000000E+00
  0.00000000E+00  0.00000000E+00  0.00000000E+00
  0.00000000E+00  0.00000000E+00  0.00000000E+00
  0.00000000E+00  0.00000000E+00  0.00000000E+00
  0.00000000E+00  0.00000000E+00  0.00000000E+00
  0.00000000E+00  0.00000000E+00  0.00000000E+00
  0.00000000E+00  0.00000000E+00  0.00000000E+00
  0.00000000E+00  0.00000000E+00  0.00000000E+00
  0.00000000E+00  0.00000000E+00  0.00000000E+00
  0.00000000E+00  0.00000000E+00  0.00000000E+00
  0.00000000E+00  0.00000000E+00  0.00000000E+00
  0.00000000E+00  0.00000000E+00  0.00000000E+00
  0.00000000E+00  0.00000000E+00  0.00000000E+00
  0.00000000E+00  0.00000000E+00  0.00000000E+00
  0.00000000E+00  0.00000000E+00  0.00000000E+00
  0.00000000E+00  0.00000000E+00  0.00000000E+00
  0.00000000E+00  0.00000000E+00  0.00000000E+00
