La C  O  H                              
   1.00000000000000     
    29.0000000000000000    0.0000000000000000    0.0000000000000000
     0.0000000000000000   29.0000000000000000    0.0000000000000000
     0.0000000000000000    0.0000000000000000   29.0000000000000000
   La   C    O    H 
    68     1     2     1
Selective dynamics
Direct
  0.5135421572390693  0.5110853781092983  0.6951495976238939   T   T   T
  0.3467921202231806  0.6267025077524595  0.3969965298102105   T   T   T
  0.3676121771585967  0.5714141749307998  0.4744290776384870   T   T   T
  0.5847735850602547  0.4395563749397482  0.4024863989397502   F   F   F
  0.4413263949397503  0.4395563749397482  0.5459335890602546   F   F   F
  0.6584797150356942  0.5699869160348873  0.4744131732011276   T   T   T
  0.4529488752770565  0.5112102681431911  0.3285285635492718   T   T   T
  0.4244542824902980  0.3635372967264820  0.4741952985817265   T   T   T
  0.5730524584631946  0.5111155563248156  0.6198367090284559   T   T   T
  0.3968027261148452  0.4338937274856586  0.6394486051012676   T   T   T
  0.5135461831694568  0.6570928709088204  0.5335780324805650   T   T   T
  0.5912422171036822  0.3468791259322268  0.3582394941408975   T   T   T
  0.4244639801166785  0.6593013257442647  0.4739673511810198   T   T   T
  0.4352518236534340  0.6761281878242917  0.3589925552812762   T   T   T
  0.6610505478087216  0.5108661623290223  0.5633154236102282   T   T   T
  0.6309886410959655  0.5876064447263859  0.3099293887036617   T   T   T
  0.6779435487359471  0.3949443683707646  0.5519975081683767   T   T   T
  0.5130500200000014  0.4385212377386409  0.4742099939999989   F   F   F
  0.3675010744700464  0.4511602594773814  0.4742499853847576   T   T   T
  0.5130500200000014  0.5840387622613576  0.4742099939999989   F   F   F
  0.5130500200000014  0.5112799999999993  0.5469687262613618   F   F   F
  0.4358342809248965  0.6769796653898430  0.5896069026579794   T   T   T
  0.5858087222613619  0.5112799999999993  0.4742099939999989   F   F   F
  0.5130119750021099  0.3656379908291614  0.5340794881057243   T   T   T
  0.2924982019906827  0.5113518574807809  0.4735732289966520   T   T   T
  0.3660878105523643  0.5115618926791047  0.5624145474372736   T   T   T
  0.5128470322866835  0.5108941312030844  0.2532110588028623   T   T   T
  0.3965049854792984  0.4340451361549044  0.3087425925195911   T   T   T
  0.6293565080439594  0.4337992205233851  0.3088438480382399   T   T   T
  0.6611430099146525  0.5099194481427315  0.3855960631876749   T   T   T
  0.4413263949397503  0.4395563749397482  0.4024863989397502   F   F   F
  0.4413263949397503  0.5830036250602504  0.4024863989397502   F   F   F
  0.5847735850602547  0.5830036250602504  0.4024863989397502   F   F   F
  0.5135580279265499  0.6568276637120267  0.4146050524537622   T   T   T
  0.5125318101143890  0.7325519699821015  0.4739609804034595   T   T   T
  0.3481380030494524  0.6282087891772523  0.5515991037329611   T   T   T
  0.6585937928966810  0.4514282697775476  0.4744937642488059   T   T   T
  0.3473587678169391  0.3954651654731369  0.3964177904002169   T   T   T
  0.3966225642891222  0.5891859068722768  0.3097526236987223   T   T   T
  0.4352102635577045  0.3461991388208923  0.5904779317917381   T   T   T
  0.6288393967310136  0.4335861120969093  0.6399009963713466   T   T   T
  0.5847735850602547  0.5830036250602504  0.5459335890602546   F   F   F
  0.5129457763165085  0.4226882355099850  0.3265422597744856   T   T   T
  0.5130500200000014  0.5112799999999993  0.4014512617386430   F   F   F
  0.6789220590012771  0.6258103654503832  0.5518676024463263   T   T   T
  0.5133100710021483  0.5997601747697664  0.6212328200907438   T   T   T
  0.4413263949397503  0.5830036250602504  0.5459335890602546   F   F   F
  0.4531942340676339  0.5114095604846892  0.6199177028175169   T   T   T
  0.5729327723972423  0.5111910556880614  0.3284373491922113   T   T   T
  0.6789438846722147  0.3953562703601033  0.3971676833457992   T   T   T
  0.5847735850602547  0.4395563749397482  0.5459335890602546   F   F   F
  0.3971165198633365  0.5897089346853844  0.6387573694021516   T   T   T
  0.5134348226466777  0.2904222106246629  0.4736962173304795   T   T   T
  0.6292937868116345  0.5886425923674071  0.6395812747792072   T   T   T
  0.3482102668325869  0.3950210551176911  0.5520188765100343   T   T   T
  0.5133812662549303  0.5994341376808561  0.3274804364627970   T   T   T
  0.6852952577575659  0.6237845492779222  0.3975731973097077   T   T   T
  0.5913416800967839  0.6762547050982567  0.3561780695858163   T   T   T
  0.6015386377776272  0.3639349425548516  0.4741869670291698   T   T   T
  0.4402912577386431  0.5112799999999993  0.4742099939999989   F   F   F
  0.6025444384353389  0.6585421523903411  0.4738743588111722   T   T   T
  0.5916398953281573  0.6759460234255253  0.5899685071659493   T   T   T
  0.5130270169565009  0.3657010327439777  0.4142400152894237   T   T   T
  0.4352710414805880  0.3467488786401659  0.3581628162580567   T   T   T
  0.5904431035494289  0.3463557292452755  0.5908245544885806   T   T   T
  0.5129129472934896  0.4230031412629923  0.6216405588657714   T   T   T
  0.7341933760794911  0.5110835821437245  0.4750497272468907   T   T   T
  0.3658213414351587  0.5111658430270102  0.3860467338293333   T   T   T
  0.6726875070960026  0.7064412327554944  0.3763947899617483   T   T   T
  0.7148158413677952  0.7058833918547005  0.3881119777736505   T   T   T
  0.6551453761414173  0.7480878533262921  0.3587718594758381   T   T   T
  0.6809725273853015  0.7699957815504714  0.3563802824860741   T   T   T
 
  0.00000000E+00  0.00000000E+00  0.00000000E+00
  0.00000000E+00  0.00000000E+00  0.00000000E+00
  0.00000000E+00  0.00000000E+00  0.00000000E+00
  0.00000000E+00  0.00000000E+00  0.00000000E+00
  0.00000000E+00  0.00000000E+00  0.00000000E+00
  0.00000000E+00  0.00000000E+00  0.00000000E+00
  0.00000000E+00  0.00000000E+00  0.00000000E+00
  0.00000000E+00  0.00000000E+00  0.00000000E+00
  0.00000000E+00  0.00000000E+00  0.00000000E+00
  0.00000000E+00  0.00000000E+00  0.00000000E+00
  0.00000000E+00  0.00000000E+00  0.00000000E+00
  0.00000000E+00  0.00000000E+00  0.00000000E+00
  0.00000000E+00  0.00000000E+00  0.00000000E+00
  0.00000000E+00  0.00000000E+00  0.00000000E+00
  0.00000000E+00  0.00000000E+00  0.00000000E+00
  0.00000000E+00  0.00000000E+00  0.00000000E+00
  0.00000000E+00  0.00000000E+00  0.00000000E+00
  0.00000000E+00  0.00000000E+00  0.00000000E+00
  0.00000000E+00  0.00000000E+00  0.00000000E+00
  0.00000000E+00  0.00000000E+00  0.00000000E+00
  0.00000000E+00  0.00000000E+00  0.00000000E+00
  0.00000000E+00  0.00000000E+00  0.00000000E+00
  0.00000000E+00  0.00000000E+00  0.00000000E+00
  0.00000000E+00  0.00000000E+00  0.00000000E+00
  0.00000000E+00  0.00000000E+00  0.00000000E+00
  0.00000000E+00  0.00000000E+00  0.00000000E+00
  0.00000000E+00  0.00000000E+00  0.00000000E+00
  0.00000000E+00  0.00000000E+00  0.00000000E+00
  0.00000000E+00  0.00000000E+00  0.00000000E+00
  0.00000000E+00  0.00000000E+00  0.00000000E+00
  0.00000000E+00  0.00000000E+00  0.00000000E+00
  0.00000000E+00  0.00000000E+00  0.00000000E+00
  0.00000000E+00  0.00000000E+00  0.00000000E+00
  0.00000000E+00  0.00000000E+00  0.00000000E+00
  0.00000000E+00  0.00000000E+00  0.00000000E+00
  0.00000000E+00  0.00000000E+00  0.00000000E+00
  0.00000000E+00  0.00000000E+00  0.00000000E+00
  0.00000000E+00  0.00000000E+00  0.00000000E+00
  0.00000000E+00  0.00000000E+00  0.00000000E+00
  0.00000000E+00  0.00000000E+00  0.00000000E+00
  0.00000000E+00  0.00000000E+00  0.00000000E+00
  0.00000000E+00  0.00000000E+00  0.00000000E+00
  0.00000000E+00  0.00000000E+00  0.00000000E+00
  0.00000000E+00  0.00000000E+00  0.00000000E+00
  0.00000000E+00  0.00000000E+00  0.00000000E+00
  0.00000000E+00  0.00000000E+00  0.00000000E+00
  0.00000000E+00  0.00000000E+00  0.00000000E+00
  0.00000000E+00  0.00000000E+00  0.00000000E+00
  0.00000000E+00  0.00000000E+00  0.00000000E+00
  0.00000000E+00  0.00000000E+00  0.00000000E+00
  0.00000000E+00  0.00000000E+00  0.00000000E+00
  0.00000000E+00  0.00000000E+00  0.00000000E+00
  0.00000000E+00  0.00000000E+00  0.00000000E+00
  0.00000000E+00  0.00000000E+00  0.00000000E+00
  0.00000000E+00  0.00000000E+00  0.00000000E+00
  0.00000000E+00  0.00000000E+00  0.00000000E+00
  0.00000000E+00  0.00000000E+00  0.00000000E+00
  0.00000000E+00  0.00000000E+00  0.00000000E+00
  0.00000000E+00  0.00000000E+00  0.00000000E+00
  0.00000000E+00  0.00000000E+00  0.00000000E+00
  0.00000000E+00  0.00000000E+00  0.00000000E+00
  0.00000000E+00  0.00000000E+00  0.00000000E+00
  0.00000000E+00  0.00000000E+00  0.00000000E+00
  0.00000000E+00  0.00000000E+00  0.00000000E+00
  0.00000000E+00  0.00000000E+00  0.00000000E+00
  0.00000000E+00  0.00000000E+00  0.00000000E+00
  0.00000000E+00  0.00000000E+00  0.00000000E+00
  0.00000000E+00  0.00000000E+00  0.00000000E+00
  0.00000000E+00  0.00000000E+00  0.00000000E+00
  0.00000000E+00  0.00000000E+00  0.00000000E+00
  0.00000000E+00  0.00000000E+00  0.00000000E+00
  0.00000000E+00  0.00000000E+00  0.00000000E+00
