La C  O  H                              
   1.00000000000000     
    29.0000000000000000    0.0000000000000000    0.0000000000000000
     0.0000000000000000   29.0000000000000000    0.0000000000000000
     0.0000000000000000    0.0000000000000000   29.0000000000000000
   La   C    O    H 
    68     1     2     1
Selective dynamics
Direct
  0.5156162920363947  0.5119435109704935  0.6905382609044830   T   T   T
  0.3961002348162730  0.6776385391389638  0.3996337510556549   T   T   T
  0.3611044273268919  0.5928657269163873  0.4635303364000027   T   T   T
  0.5847735850602547  0.4395563749397482  0.4024863989397502   F   F   F
  0.4413263949397503  0.4395563749397482  0.5459335890602546   F   F   F
  0.6631162074956967  0.5944047200148094  0.4838846702081662   T   T   T
  0.4305336589084237  0.5147530714496773  0.3256846430141512   T   T   T
  0.4561859645691433  0.3647055231946779  0.4744697584447339   T   T   T
  0.5955444608619919  0.5133451312234949  0.6209629380302923   T   T   T
  0.3489918731529655  0.4337109002073315  0.5804623946518780   T   T   T
  0.5245504115880938  0.6559247522296079  0.5417883115236314   T   T   T
  0.5893946414831488  0.3879890719319253  0.3120157208264728   T   T   T
  0.4368027787584675  0.6588687316186506  0.4873173837087827   T   T   T
  0.4445390451591672  0.6336775161941940  0.3135976469772873   T   T   T
  0.6578378821397732  0.5089683520411129  0.5354002940459515   T   T   T
  0.6329566103581993  0.5845806878815270  0.3110008935280993   T   T   T
  0.6310974142719439  0.3489649128125223  0.5515806523811291   T   T   T
  0.5130500200000014  0.4385212377386409  0.4742099939999989   F   F   F
  0.3691786525467738  0.4239044087527903  0.4741000980049475   T   T   T
  0.5130500200000014  0.5840387622613576  0.4742099939999989   F   F   F
  0.5130500200000014  0.5112799999999993  0.5469687262613618   F   F   F
  0.4505430995719970  0.6750000032974105  0.6013597435134459   T   T   T
  0.5858087222613619  0.5112799999999993  0.4742099939999989   F   F   F
  0.5113843750937127  0.3626323588181810  0.5627997813884652   T   T   T
  0.2996669481917682  0.4943330152170927  0.4752795680179462   T   T   T
  0.3607981778587716  0.5277206194176706  0.5455457745680896   T   T   T
  0.5220318276649208  0.5105708551763533  0.2579220614571408   T   T   T
  0.3499038747252545  0.4296984879998821  0.3575377896131255   T   T   T
  0.6747799506880591  0.4303265402935341  0.3621202369463843   T   T   T
  0.6611274737459890  0.5222174953887921  0.4045401965302611   T   T   T
  0.4413263949397503  0.4395563749397482  0.4024863989397502   F   F   F
  0.4413263949397503  0.5830036250602504  0.4024863989397502   F   F   F
  0.5847735850602547  0.5830036250602504  0.4024863989397502   F   F   F
  0.5041733403052135  0.6561446327451357  0.4027825271676298   T   T   T
  0.5016283296883985  0.7289288216408309  0.4659909842938550   T   T   T
  0.3573213010717998  0.6436153455288433  0.5510996147592079   T   T   T
  0.6560813290731362  0.4240304596975524  0.4724676754617456   T   T   T
  0.3960422831352957  0.3428669334395927  0.4035503317078424   T   T   T
  0.3546969860669652  0.5910483520579632  0.3524311706887981   T   T   T
  0.4307707420543025  0.3898747852648242  0.6346836623054838   T   T   T
  0.6767977980454405  0.4372354788661867  0.5950712364879672   T   T   T
  0.5847735850602547  0.5830036250602504  0.5459335890602546   F   F   F
  0.5110637987349752  0.4474542655676948  0.3289801904167215   T   T   T
  0.5130500200000014  0.5112799999999993  0.4014512617386430   F   F   F
  0.6296515737875733  0.6743665044192195  0.5597866365746842   T   T   T
  0.4998288582120639  0.5781562242691349  0.6209529555843889   T   T   T
  0.4413263949397503  0.5830036250602504  0.5459335890602546   F   F   F
  0.4249031720971266  0.4998247494131215  0.6230671490103024   T   T   T
  0.5998648973140934  0.4953018347000036  0.3239193753268549   T   T   T
  0.6258477360755834  0.3427568677082782  0.4007782216275422   T   T   T
  0.5847735850602547  0.4395563749397482  0.5459335890602546   F   F   F
  0.3912686298410459  0.5904661905094246  0.6322946109141870   T   T   T
  0.5103746023072311  0.2860492716533961  0.4722771720494103   T   T   T
  0.6749627786888686  0.5835453931844242  0.5968634398469757   T   T   T
  0.3957277685135878  0.3433397103822936  0.5450703413987796   T   T   T
  0.5226135301583736  0.5769333438491079  0.3287911825351869   T   T   T
  0.6700643469232489  0.6368168941396012  0.3919374624919124   T   T   T
  0.5799005325186528  0.6700209711399848  0.3439640306335731   T   T   T
  0.5695359898420278  0.3632965626212259  0.4760373878094438   T   T   T
  0.4402912577386431  0.5112799999999993  0.4742099939999989   F   F   F
  0.5908727106386487  0.6633999916161051  0.4594306680426880   T   T   T
  0.5847639345775407  0.6193711162574518  0.6440558741443685   T   T   T
  0.5133598939586690  0.3619247032155376  0.3873590813699089   T   T   T
  0.4348051762468719  0.3882922620518452  0.3138567786962750   T   T   T
  0.5909810020333889  0.3950465367403812  0.6394925733874320   T   T   T
  0.5118408022168082  0.4484089314946701  0.6190282799981530   T   T   T
  0.7287107989858992  0.4982824330342450  0.4737809147996593   T   T   T
  0.3687435783247536  0.5090150821908141  0.4098927069335641   T   T   T
  0.5530997883947931  0.7007994350202006  0.6092139208368826   T   T   T
  0.5908246974615365  0.7019633012135984  0.6353079523884075   T   T   T
  0.5200668923268406  0.7356386578209893  0.6228509194682739   T   T   T
  0.5326036962381261  0.7507642904876806  0.6504860513620129   T   T   T
 
  0.00000000E+00  0.00000000E+00  0.00000000E+00
  0.00000000E+00  0.00000000E+00  0.00000000E+00
  0.00000000E+00  0.00000000E+00  0.00000000E+00
  0.00000000E+00  0.00000000E+00  0.00000000E+00
  0.00000000E+00  0.00000000E+00  0.00000000E+00
  0.00000000E+00  0.00000000E+00  0.00000000E+00
  0.00000000E+00  0.00000000E+00  0.00000000E+00
  0.00000000E+00  0.00000000E+00  0.00000000E+00
  0.00000000E+00  0.00000000E+00  0.00000000E+00
  0.00000000E+00  0.00000000E+00  0.00000000E+00
  0.00000000E+00  0.00000000E+00  0.00000000E+00
  0.00000000E+00  0.00000000E+00  0.00000000E+00
  0.00000000E+00  0.00000000E+00  0.00000000E+00
  0.00000000E+00  0.00000000E+00  0.00000000E+00
  0.00000000E+00  0.00000000E+00  0.00000000E+00
  0.00000000E+00  0.00000000E+00  0.00000000E+00
  0.00000000E+00  0.00000000E+00  0.00000000E+00
  0.00000000E+00  0.00000000E+00  0.00000000E+00
  0.00000000E+00  0.00000000E+00  0.00000000E+00
  0.00000000E+00  0.00000000E+00  0.00000000E+00
  0.00000000E+00  0.00000000E+00  0.00000000E+00
  0.00000000E+00  0.00000000E+00  0.00000000E+00
  0.00000000E+00  0.00000000E+00  0.00000000E+00
  0.00000000E+00  0.00000000E+00  0.00000000E+00
  0.00000000E+00  0.00000000E+00  0.00000000E+00
  0.00000000E+00  0.00000000E+00  0.00000000E+00
  0.00000000E+00  0.00000000E+00  0.00000000E+00
  0.00000000E+00  0.00000000E+00  0.00000000E+00
  0.00000000E+00  0.00000000E+00  0.00000000E+00
  0.00000000E+00  0.00000000E+00  0.00000000E+00
  0.00000000E+00  0.00000000E+00  0.00000000E+00
  0.00000000E+00  0.00000000E+00  0.00000000E+00
  0.00000000E+00  0.00000000E+00  0.00000000E+00
  0.00000000E+00  0.00000000E+00  0.00000000E+00
  0.00000000E+00  0.00000000E+00  0.00000000E+00
  0.00000000E+00  0.00000000E+00  0.00000000E+00
  0.00000000E+00  0.00000000E+00  0.00000000E+00
  0.00000000E+00  0.00000000E+00  0.00000000E+00
  0.00000000E+00  0.00000000E+00  0.00000000E+00
  0.00000000E+00  0.00000000E+00  0.00000000E+00
  0.00000000E+00  0.00000000E+00  0.00000000E+00
  0.00000000E+00  0.00000000E+00  0.00000000E+00
  0.00000000E+00  0.00000000E+00  0.00000000E+00
  0.00000000E+00  0.00000000E+00  0.00000000E+00
  0.00000000E+00  0.00000000E+00  0.00000000E+00
  0.00000000E+00  0.00000000E+00  0.00000000E+00
  0.00000000E+00  0.00000000E+00  0.00000000E+00
  0.00000000E+00  0.00000000E+00  0.00000000E+00
  0.00000000E+00  0.00000000E+00  0.00000000E+00
  0.00000000E+00  0.00000000E+00  0.00000000E+00
  0.00000000E+00  0.00000000E+00  0.00000000E+00
  0.00000000E+00  0.00000000E+00  0.00000000E+00
  0.00000000E+00  0.00000000E+00  0.00000000E+00
  0.00000000E+00  0.00000000E+00  0.00000000E+00
  0.00000000E+00  0.00000000E+00  0.00000000E+00
  0.00000000E+00  0.00000000E+00  0.00000000E+00
  0.00000000E+00  0.00000000E+00  0.00000000E+00
  0.00000000E+00  0.00000000E+00  0.00000000E+00
  0.00000000E+00  0.00000000E+00  0.00000000E+00
  0.00000000E+00  0.00000000E+00  0.00000000E+00
  0.00000000E+00  0.00000000E+00  0.00000000E+00
  0.00000000E+00  0.00000000E+00  0.00000000E+00
  0.00000000E+00  0.00000000E+00  0.00000000E+00
  0.00000000E+00  0.00000000E+00  0.00000000E+00
  0.00000000E+00  0.00000000E+00  0.00000000E+00
  0.00000000E+00  0.00000000E+00  0.00000000E+00
  0.00000000E+00  0.00000000E+00  0.00000000E+00
  0.00000000E+00  0.00000000E+00  0.00000000E+00
  0.00000000E+00  0.00000000E+00  0.00000000E+00
  0.00000000E+00  0.00000000E+00  0.00000000E+00
  0.00000000E+00  0.00000000E+00  0.00000000E+00
  0.00000000E+00  0.00000000E+00  0.00000000E+00
