La C  O  H                              
   1.00000000000000     
    29.0000000000000000    0.0000000000000000    0.0000000000000000
     0.0000000000000000   29.0000000000000000    0.0000000000000000
     0.0000000000000000    0.0000000000000000   29.0000000000000000
   La   C    O    H 
    68     1     2     1
Selective dynamics
Direct
  0.5123447037672557  0.5148825195207182  0.6943296706713575   T   T   T
  0.3415187414990442  0.6209941256672217  0.3967663631973617   T   T   T
  0.3657557344931396  0.5670982761700327  0.4745864094623399   T   T   T
  0.5847735850602547  0.4395563749397482  0.4024863989397502   F   F   F
  0.4413263949397503  0.4395563749397482  0.5459335890602546   F   F   F
  0.6603688045711804  0.5763994806612985  0.4673809566896691   T   T   T
  0.4491470688549732  0.5074467036345501  0.3320366375202609   T   T   T
  0.4231422086094029  0.3626226657120379  0.4743230174623129   T   T   T
  0.5720818769631490  0.5094366673015517  0.6201083276056625   T   T   T
  0.3922581115711404  0.4347368544524901  0.6371529897105440   T   T   T
  0.5109437928640960  0.6551755851150292  0.5366466588568961   T   T   T
  0.5916571647466692  0.3446846284470569  0.3629386929958759   T   T   T
  0.4235987932815345  0.6562699069589718  0.4719532939607641   T   T   T
  0.4366045612509661  0.6711872955216598  0.3528869237926455   T   T   T
  0.6590222426427880  0.5141584681276716  0.5609631509794133   T   T   T
  0.6627591036057553  0.5817532608701275  0.3331915543260877   T   T   T
  0.6841760159455690  0.3956062248296500  0.5493179217324499   T   T   T
  0.5130500200000014  0.4385212377386409  0.4742099939999989   F   F   F
  0.3687693601245249  0.4521248617789581  0.4742094434712664   T   T   T
  0.5130500200000014  0.5840387622613576  0.4742099939999989   F   F   F
  0.5130500200000014  0.5112799999999993  0.5469687262613618   F   F   F
  0.4354668985086876  0.6756312982419274  0.5934292821158216   T   T   T
  0.5858087222613619  0.5112799999999993  0.4742099939999989   F   F   F
  0.5130644372894487  0.3642970896291738  0.5333745196281072   T   T   T
  0.2898351848641491  0.5065952701228296  0.4769042033838663   T   T   T
  0.3634800428439942  0.5122944028902836  0.5633457778148507   T   T   T
  0.5067598018333457  0.5048250415620883  0.2579901698526879   T   T   T
  0.3938754346703679  0.4327816391429504  0.3081708762430014   T   T   T
  0.6308625522025548  0.4311102312625553  0.3135834254676896   T   T   T
  0.6629538667936092  0.5033103960159581  0.3908296135213486   T   T   T
  0.4413263949397503  0.4395563749397482  0.4024863989397502   F   F   F
  0.4413263949397503  0.5830036250602504  0.4024863989397502   F   F   F
  0.5847735850602547  0.5830036250602504  0.4024863989397502   F   F   F
  0.5201834188954106  0.6572055117337913  0.4078418779371659   T   T   T
  0.5057630205664329  0.7266133356992834  0.4766075058303169   T   T   T
  0.3502657125262950  0.6255517050407486  0.5524103275512682   T   T   T
  0.6552314344368415  0.4481719961354263  0.4761522951340572   T   T   T
  0.3438591507502364  0.3979378255176402  0.3984319515600807   T   T   T
  0.3931851962044573  0.5823078022701349  0.3068187575376026   T   T   T
  0.4296805095925005  0.3505238502404253  0.5858569868090291   T   T   T
  0.6328337832542391  0.4341693461361263  0.6347361804345375   T   T   T
  0.5847735850602547  0.5830036250602504  0.5459335890602546   F   F   F
  0.5158295486365039  0.4227322197534238  0.3289177015013044   T   T   T
  0.5130500200000014  0.5112799999999993  0.4014512617386430   F   F   F
  0.6734772712576143  0.6269835225764332  0.5542398491145114   T   T   T
  0.5128292561714241  0.5972776663394819  0.6224120683473199   T   T   T
  0.4413263949397503  0.5830036250602504  0.5459335890602546   F   F   F
  0.4518538714700537  0.5096620864633411  0.6192371340935524   T   T   T
  0.5782319105714777  0.5157289869144097  0.3284057058635164   T   T   T
  0.6802363979770498  0.3922423804960886  0.4010740214877855   T   T   T
  0.5847735850602547  0.4395563749397482  0.5459335890602546   F   F   F
  0.3986374806171240  0.5875711832917411  0.6422083561559377   T   T   T
  0.5119904979379902  0.2873400669049092  0.4722987391354110   T   T   T
  0.6257846683773806  0.5875231238304992  0.6420394720924183   T   T   T
  0.3395168295816162  0.3989901340503557  0.5475496980408069   T   T   T
  0.5044785907394368  0.5915341324777306  0.3259774397388259   T   T   T
  0.6493002639030868  0.6626673939194662  0.4011936337272398   T   T   T
  0.5817816775794319  0.6482747939875984  0.3199514271579995   T   T   T
  0.6006809334900890  0.3606018781067371  0.4743957897177922   T   T   T
  0.4402912577386431  0.5112799999999993  0.4742099939999989   F   F   F
  0.5971761540881401  0.6600513595771874  0.4832181038591483   T   T   T
  0.5863880513389216  0.6756301000035044  0.5955218161858208   T   T   T
  0.5121171160838400  0.3648737627227897  0.4162960667942985   T   T   T
  0.4334605943959318  0.3486342092385723  0.3594312618340632   T   T   T
  0.5950097471215529  0.3463996734935499  0.5855060732843135   T   T   T
  0.5127651817165968  0.4214071801004213  0.6208129789605406   T   T   T
  0.7303247023425348  0.5043525496391410  0.4826935227328586   T   T   T
  0.3608085328102421  0.5116666811689822  0.3856745660410524   T   T   T
  0.3748291150702728  0.7040079824198381  0.4029729488309807   T   T   T
  0.3457841295145669  0.6969684851152146  0.4364963411668307   T   T   T
  0.3810868911061029  0.7501691793271098  0.3897203254667368   T   T   T
  0.3606296179695411  0.7694137152895957  0.4087919902819888   T   T   T
 
  0.00000000E+00  0.00000000E+00  0.00000000E+00
  0.00000000E+00  0.00000000E+00  0.00000000E+00
  0.00000000E+00  0.00000000E+00  0.00000000E+00
  0.00000000E+00  0.00000000E+00  0.00000000E+00
  0.00000000E+00  0.00000000E+00  0.00000000E+00
  0.00000000E+00  0.00000000E+00  0.00000000E+00
  0.00000000E+00  0.00000000E+00  0.00000000E+00
  0.00000000E+00  0.00000000E+00  0.00000000E+00
  0.00000000E+00  0.00000000E+00  0.00000000E+00
  0.00000000E+00  0.00000000E+00  0.00000000E+00
  0.00000000E+00  0.00000000E+00  0.00000000E+00
  0.00000000E+00  0.00000000E+00  0.00000000E+00
  0.00000000E+00  0.00000000E+00  0.00000000E+00
  0.00000000E+00  0.00000000E+00  0.00000000E+00
  0.00000000E+00  0.00000000E+00  0.00000000E+00
  0.00000000E+00  0.00000000E+00  0.00000000E+00
  0.00000000E+00  0.00000000E+00  0.00000000E+00
  0.00000000E+00  0.00000000E+00  0.00000000E+00
  0.00000000E+00  0.00000000E+00  0.00000000E+00
  0.00000000E+00  0.00000000E+00  0.00000000E+00
  0.00000000E+00  0.00000000E+00  0.00000000E+00
  0.00000000E+00  0.00000000E+00  0.00000000E+00
  0.00000000E+00  0.00000000E+00  0.00000000E+00
  0.00000000E+00  0.00000000E+00  0.00000000E+00
  0.00000000E+00  0.00000000E+00  0.00000000E+00
  0.00000000E+00  0.00000000E+00  0.00000000E+00
  0.00000000E+00  0.00000000E+00  0.00000000E+00
  0.00000000E+00  0.00000000E+00  0.00000000E+00
  0.00000000E+00  0.00000000E+00  0.00000000E+00
  0.00000000E+00  0.00000000E+00  0.00000000E+00
  0.00000000E+00  0.00000000E+00  0.00000000E+00
  0.00000000E+00  0.00000000E+00  0.00000000E+00
  0.00000000E+00  0.00000000E+00  0.00000000E+00
  0.00000000E+00  0.00000000E+00  0.00000000E+00
  0.00000000E+00  0.00000000E+00  0.00000000E+00
  0.00000000E+00  0.00000000E+00  0.00000000E+00
  0.00000000E+00  0.00000000E+00  0.00000000E+00
  0.00000000E+00  0.00000000E+00  0.00000000E+00
  0.00000000E+00  0.00000000E+00  0.00000000E+00
  0.00000000E+00  0.00000000E+00  0.00000000E+00
  0.00000000E+00  0.00000000E+00  0.00000000E+00
  0.00000000E+00  0.00000000E+00  0.00000000E+00
  0.00000000E+00  0.00000000E+00  0.00000000E+00
  0.00000000E+00  0.00000000E+00  0.00000000E+00
  0.00000000E+00  0.00000000E+00  0.00000000E+00
  0.00000000E+00  0.00000000E+00  0.00000000E+00
  0.00000000E+00  0.00000000E+00  0.00000000E+00
  0.00000000E+00  0.00000000E+00  0.00000000E+00
  0.00000000E+00  0.00000000E+00  0.00000000E+00
  0.00000000E+00  0.00000000E+00  0.00000000E+00
  0.00000000E+00  0.00000000E+00  0.00000000E+00
  0.00000000E+00  0.00000000E+00  0.00000000E+00
  0.00000000E+00  0.00000000E+00  0.00000000E+00
  0.00000000E+00  0.00000000E+00  0.00000000E+00
  0.00000000E+00  0.00000000E+00  0.00000000E+00
  0.00000000E+00  0.00000000E+00  0.00000000E+00
  0.00000000E+00  0.00000000E+00  0.00000000E+00
  0.00000000E+00  0.00000000E+00  0.00000000E+00
  0.00000000E+00  0.00000000E+00  0.00000000E+00
  0.00000000E+00  0.00000000E+00  0.00000000E+00
  0.00000000E+00  0.00000000E+00  0.00000000E+00
  0.00000000E+00  0.00000000E+00  0.00000000E+00
  0.00000000E+00  0.00000000E+00  0.00000000E+00
  0.00000000E+00  0.00000000E+00  0.00000000E+00
  0.00000000E+00  0.00000000E+00  0.00000000E+00
  0.00000000E+00  0.00000000E+00  0.00000000E+00
  0.00000000E+00  0.00000000E+00  0.00000000E+00
  0.00000000E+00  0.00000000E+00  0.00000000E+00
  0.00000000E+00  0.00000000E+00  0.00000000E+00
  0.00000000E+00  0.00000000E+00  0.00000000E+00
  0.00000000E+00  0.00000000E+00  0.00000000E+00
  0.00000000E+00  0.00000000E+00  0.00000000E+00
