La C  O  H                              
   1.00000000000000     
    29.0000000000000000    0.0000000000000000    0.0000000000000000
     0.0000000000000000   29.0000000000000000    0.0000000000000000
     0.0000000000000000    0.0000000000000000   29.0000000000000000
   La   C    O    H 
    68     1     2     1
Selective dynamics
Direct
  0.5129892307807241  0.5145488845243623  0.6954209755467524   T   T   T
  0.3487662253062190  0.6270900379730960  0.3963126421456207   T   T   T
  0.3671784926820597  0.5712291334599719  0.4752214197872427   T   T   T
  0.5847735850602547  0.4395563749397482  0.4024863989397502   F   F   F
  0.4413263949397503  0.4395563749397482  0.5459335890602546   F   F   F
  0.6587790850982072  0.5710194545294863  0.4748621678864879   T   T   T
  0.4527128353279609  0.5107313813519839  0.3287852631164442   T   T   T
  0.4247261016412724  0.3636752042277782  0.4745669117789029   T   T   T
  0.5729422716019180  0.5102369699165125  0.6196395529572561   T   T   T
  0.3967171515820452  0.4335543777795551  0.6393642466505807   T   T   T
  0.5129895665717875  0.6550797726822204  0.5347330798454589   T   T   T
  0.5916604479343516  0.3465577180661500  0.3588736544243661   T   T   T
  0.4250670963177992  0.6581792221664330  0.4746011740993232   T   T   T
  0.4360881889984509  0.6757542255386944  0.3573123059509055   T   T   T
  0.6610374420998745  0.5111471382287435  0.5631711076155238   T   T   T
  0.6285026740474698  0.5887643739924537  0.3083478159494603   T   T   T
  0.6777906894191692  0.3937990799037400  0.5510440039192219   T   T   T
  0.5130500200000014  0.4385212377386409  0.4742099939999989   F   F   F
  0.3676684140954343  0.4514289376665788  0.4748799659712089   T   T   T
  0.5130500200000014  0.5840387622613576  0.4742099939999989   F   F   F
  0.5130500200000014  0.5112799999999993  0.5469687262613618   F   F   F
  0.4404559893578422  0.6760775158687123  0.5946732423840133   T   T   T
  0.5858087222613619  0.5112799999999993  0.4742099939999989   F   F   F
  0.5128604213934200  0.3658280394374221  0.5346837268965626   T   T   T
  0.2919353220286888  0.5101668024734232  0.4730098565870948   T   T   T
  0.3652021700947864  0.5114088796555439  0.5636034731586934   T   T   T
  0.5117922007529229  0.5155057220893540  0.2543833907389577   T   T   T
  0.3949788083853296  0.4341066088828398  0.3104446795144784   T   T   T
  0.6308319268672226  0.4332546941700314  0.3108691196863790   T   T   T
  0.6604168242204661  0.5112447127393653  0.3860017788523824   T   T   T
  0.4413263949397503  0.4395563749397482  0.4024863989397502   F   F   F
  0.4413263949397503  0.5830036250602504  0.4024863989397502   F   F   F
  0.5847735850602547  0.5830036250602504  0.4024863989397502   F   F   F
  0.5130080909115702  0.6568255293449660  0.4146413103957391   T   T   T
  0.5134299297892370  0.7348378081702699  0.4739125614493396   T   T   T
  0.3513879238829077  0.6287958280467348  0.5549300117974814   T   T   T
  0.6586373364995314  0.4512475435893281  0.4745702348506944   T   T   T
  0.3461611654087585  0.3957455083075652  0.3977092236723291   T   T   T
  0.3975725754006823  0.5884869961046871  0.3079725277245229   T   T   T
  0.4349825992663696  0.3461057418213790  0.5908152742075523   T   T   T
  0.6296174642292027  0.4324312906882570  0.6383248982581095   T   T   T
  0.5847735850602547  0.5830036250602504  0.5459335890602546   F   F   F
  0.5129614790649075  0.4228728449767797  0.3262978949009983   T   T   T
  0.5130500200000014  0.5112799999999993  0.4014512617386430   F   F   F
  0.6749926418730995  0.6287033867215994  0.5537454472977081   T   T   T
  0.5133790775599372  0.5984950084672189  0.6224551874264804   T   T   T
  0.4413263949397503  0.5830036250602504  0.5459335890602546   F   F   F
  0.4535161837759385  0.5104084932513988  0.6195976864438054   T   T   T
  0.5728869251485413  0.5107820883145089  0.3280809281535436   T   T   T
  0.6795323082671819  0.3946673780198433  0.3980755054965054   T   T   T
  0.5847735850602547  0.4395563749397482  0.5459335890602546   F   F   F
  0.4003028891739891  0.5883906327584166  0.6427676005423444   T   T   T
  0.5138888297124540  0.2905131331654660  0.4743246312130465   T   T   T
  0.6265757730074571  0.5885947473488337  0.6418865352827046   T   T   T
  0.3481605879814145  0.3947387483360112  0.5520473443111984   T   T   T
  0.5130481405811975  0.5997010895322474  0.3269565824310179   T   T   T
  0.6775286115706389  0.6271306672795264  0.3964941863567250   T   T   T
  0.5899584124355002  0.6759994060112023  0.3574775136870779   T   T   T
  0.6010173192038756  0.3637287469670634  0.4743835361541804   T   T   T
  0.4402912577386431  0.5112799999999993  0.4742099939999989   F   F   F
  0.6009190135906843  0.6581619672860587  0.4743436896902950   T   T   T
  0.5862838973568321  0.6764242094805890  0.5937479646897750   T   T   T
  0.5127769179148238  0.3657984252077456  0.4142198354494054   T   T   T
  0.4337504887906627  0.3472923384490001  0.3584873247074274   T   T   T
  0.5906739652020087  0.3449622966398523  0.5897500881535703   T   T   T
  0.5131197312726506  0.4222837599433751  0.6228473679228776   T   T   T
  0.7339357832610175  0.5106615035222276  0.4724067463340374   T   T   T
  0.3651980849587085  0.5115903339134666  0.3864001354411649   T   T   T
  0.5134685946658843  0.7404762138041603  0.5630215072248749   T   T   T
  0.5137150717771710  0.7805978298474116  0.5433916125761655   T   T   T
  0.5153314742739046  0.7434561058463316  0.6126982424055074   T   T   T
  0.5166988989774286  0.7766475226455136  0.6204325008632726   T   T   T
 
  0.00000000E+00  0.00000000E+00  0.00000000E+00
  0.00000000E+00  0.00000000E+00  0.00000000E+00
  0.00000000E+00  0.00000000E+00  0.00000000E+00
  0.00000000E+00  0.00000000E+00  0.00000000E+00
  0.00000000E+00  0.00000000E+00  0.00000000E+00
  0.00000000E+00  0.00000000E+00  0.00000000E+00
  0.00000000E+00  0.00000000E+00  0.00000000E+00
  0.00000000E+00  0.00000000E+00  0.00000000E+00
  0.00000000E+00  0.00000000E+00  0.00000000E+00
  0.00000000E+00  0.00000000E+00  0.00000000E+00
  0.00000000E+00  0.00000000E+00  0.00000000E+00
  0.00000000E+00  0.00000000E+00  0.00000000E+00
  0.00000000E+00  0.00000000E+00  0.00000000E+00
  0.00000000E+00  0.00000000E+00  0.00000000E+00
  0.00000000E+00  0.00000000E+00  0.00000000E+00
  0.00000000E+00  0.00000000E+00  0.00000000E+00
  0.00000000E+00  0.00000000E+00  0.00000000E+00
  0.00000000E+00  0.00000000E+00  0.00000000E+00
  0.00000000E+00  0.00000000E+00  0.00000000E+00
  0.00000000E+00  0.00000000E+00  0.00000000E+00
  0.00000000E+00  0.00000000E+00  0.00000000E+00
  0.00000000E+00  0.00000000E+00  0.00000000E+00
  0.00000000E+00  0.00000000E+00  0.00000000E+00
  0.00000000E+00  0.00000000E+00  0.00000000E+00
  0.00000000E+00  0.00000000E+00  0.00000000E+00
  0.00000000E+00  0.00000000E+00  0.00000000E+00
  0.00000000E+00  0.00000000E+00  0.00000000E+00
  0.00000000E+00  0.00000000E+00  0.00000000E+00
  0.00000000E+00  0.00000000E+00  0.00000000E+00
  0.00000000E+00  0.00000000E+00  0.00000000E+00
  0.00000000E+00  0.00000000E+00  0.00000000E+00
  0.00000000E+00  0.00000000E+00  0.00000000E+00
  0.00000000E+00  0.00000000E+00  0.00000000E+00
  0.00000000E+00  0.00000000E+00  0.00000000E+00
  0.00000000E+00  0.00000000E+00  0.00000000E+00
  0.00000000E+00  0.00000000E+00  0.00000000E+00
  0.00000000E+00  0.00000000E+00  0.00000000E+00
  0.00000000E+00  0.00000000E+00  0.00000000E+00
  0.00000000E+00  0.00000000E+00  0.00000000E+00
  0.00000000E+00  0.00000000E+00  0.00000000E+00
  0.00000000E+00  0.00000000E+00  0.00000000E+00
  0.00000000E+00  0.00000000E+00  0.00000000E+00
  0.00000000E+00  0.00000000E+00  0.00000000E+00
  0.00000000E+00  0.00000000E+00  0.00000000E+00
  0.00000000E+00  0.00000000E+00  0.00000000E+00
  0.00000000E+00  0.00000000E+00  0.00000000E+00
  0.00000000E+00  0.00000000E+00  0.00000000E+00
  0.00000000E+00  0.00000000E+00  0.00000000E+00
  0.00000000E+00  0.00000000E+00  0.00000000E+00
  0.00000000E+00  0.00000000E+00  0.00000000E+00
  0.00000000E+00  0.00000000E+00  0.00000000E+00
  0.00000000E+00  0.00000000E+00  0.00000000E+00
  0.00000000E+00  0.00000000E+00  0.00000000E+00
  0.00000000E+00  0.00000000E+00  0.00000000E+00
  0.00000000E+00  0.00000000E+00  0.00000000E+00
  0.00000000E+00  0.00000000E+00  0.00000000E+00
  0.00000000E+00  0.00000000E+00  0.00000000E+00
  0.00000000E+00  0.00000000E+00  0.00000000E+00
  0.00000000E+00  0.00000000E+00  0.00000000E+00
  0.00000000E+00  0.00000000E+00  0.00000000E+00
  0.00000000E+00  0.00000000E+00  0.00000000E+00
  0.00000000E+00  0.00000000E+00  0.00000000E+00
  0.00000000E+00  0.00000000E+00  0.00000000E+00
  0.00000000E+00  0.00000000E+00  0.00000000E+00
  0.00000000E+00  0.00000000E+00  0.00000000E+00
  0.00000000E+00  0.00000000E+00  0.00000000E+00
  0.00000000E+00  0.00000000E+00  0.00000000E+00
  0.00000000E+00  0.00000000E+00  0.00000000E+00
  0.00000000E+00  0.00000000E+00  0.00000000E+00
  0.00000000E+00  0.00000000E+00  0.00000000E+00
  0.00000000E+00  0.00000000E+00  0.00000000E+00
  0.00000000E+00  0.00000000E+00  0.00000000E+00
