La C  O  H                              
   1.00000000000000     
    29.0000000000000000    0.0000000000000000    0.0000000000000000
     0.0000000000000000   29.0000000000000000    0.0000000000000000
     0.0000000000000000    0.0000000000000000   29.0000000000000000
   La   C    O    H 
    68     1     2     1
Selective dynamics
Direct
  0.5097982101739618  0.5170492362865494  0.6950223133872068   T   T   T
  0.3468658081976151  0.6272770407503453  0.3973023933476083   T   T   T
  0.3674488464544257  0.5715002674154470  0.4749693313951268   T   T   T
  0.5847735850602547  0.4395563749397482  0.4024863989397502   F   F   F
  0.4413263949397503  0.4395563749397482  0.5459335890602546   F   F   F
  0.6594095507493888  0.5713950388518304  0.4746761652150616   T   T   T
  0.4527275390775732  0.5109791507409699  0.3285257623874483   T   T   T
  0.4268221800608228  0.3614061938595805  0.4749246529078760   T   T   T
  0.5729756736618146  0.5119654356873177  0.6205242150433966   T   T   T
  0.3973364943931169  0.4328100591494165  0.6394158771722573   T   T   T
  0.5126097095847142  0.6573898708174496  0.5341316718326308   T   T   T
  0.5924550755666274  0.3491007286569692  0.3577436594232812   T   T   T
  0.4247293405244937  0.6584332629876278  0.4737878456702453   T   T   T
  0.4339919666968647  0.6749144620725865  0.3570413165112664   T   T   T
  0.6602618605845839  0.5120826762939140  0.5624185637584205   T   T   T
  0.6308296207760675  0.5872205870941515  0.3094977041147319   T   T   T
  0.6775487347551644  0.3881287166943638  0.5499738234642892   T   T   T
  0.5130500200000014  0.4385212377386409  0.4742099939999989   F   F   F
  0.3681885857517930  0.4499284237896147  0.4753032863912465   T   T   T
  0.5130500200000014  0.5840387622613576  0.4742099939999989   F   F   F
  0.5130500200000014  0.5112799999999993  0.5469687262613618   F   F   F
  0.4358175539973471  0.6766297100343881  0.5905936647677261   T   T   T
  0.5858087222613619  0.5112799999999993  0.4742099939999989   F   F   F
  0.5139217414797478  0.3681168892750650  0.5325889942629001   T   T   T
  0.2933523645292584  0.5102004503212481  0.4714412553797942   T   T   T
  0.3646148097241623  0.5116075004900298  0.5623674148339670   T   T   T
  0.5130537774315418  0.5071644911950437  0.2541875173467472   T   T   T
  0.3964204563009062  0.4343749951810448  0.3084732400757934   T   T   T
  0.6302003053617310  0.4357375528644181  0.3086779811081961   T   T   T
  0.6604003515597846  0.5116645891909893  0.3860806424976400   T   T   T
  0.4413263949397503  0.4395563749397482  0.4024863989397502   F   F   F
  0.4413263949397503  0.5830036250602504  0.4024863989397502   F   F   F
  0.5847735850602547  0.5830036250602504  0.4024863989397502   F   F   F
  0.5127778441936117  0.6569440285866083  0.4130295981087747   T   T   T
  0.5148933155461730  0.7312439430299414  0.4737843275958348   T   T   T
  0.3486505860203638  0.6282981719594692  0.5524283531979997   T   T   T
  0.6584914999676366  0.4515171694391287  0.4756247442764472   T   T   T
  0.3471941986795803  0.3955641482657443  0.3974640665856604   T   T   T
  0.3951340570278147  0.5874928890182651  0.3100331188424463   T   T   T
  0.4421962020789751  0.3434184256245475  0.5941926374876849   T   T   T
  0.6308566738145371  0.4325548544389523  0.6356872898218422   T   T   T
  0.5847735850602547  0.5830036250602504  0.5459335890602546   F   F   F
  0.5132447664372174  0.4214335803361112  0.3291731433243731   T   T   T
  0.5130500200000014  0.5112799999999993  0.4014512617386430   F   F   F
  0.6766847969861592  0.6293369854801091  0.5515256138044620   T   T   T
  0.5130465669778326  0.5998593879380749  0.6211545018822523   T   T   T
  0.4413263949397503  0.5830036250602504  0.5459335890602546   F   F   F
  0.4522017089125939  0.5117126516375996  0.6190323614014714   T   T   T
  0.5729481666276474  0.5112957766838924  0.3284655121692044   T   T   T
  0.6800298713037813  0.3980377520960842  0.3969011066913655   T   T   T
  0.5847735850602547  0.4395563749397482  0.5459335890602546   F   F   F
  0.3977370061109051  0.5904334489868118  0.6398785516970444   T   T   T
  0.5232391102632364  0.2804899285340646  0.4953036130307134   T   T   T
  0.6285561951589016  0.5910142773936692  0.6389682657373377   T   T   T
  0.3512072675817052  0.3928063196793557  0.5533718890952178   T   T   T
  0.5129690080896813  0.5990494672888842  0.3263370288205750   T   T   T
  0.6791901689526780  0.6272062902981507  0.3973516612818279   T   T   T
  0.5921662364513648  0.6750392772166535  0.3577368519629056   T   T   T
  0.6008383208837952  0.3635051821067340  0.4723303193761925   T   T   T
  0.4402912577386431  0.5112799999999993  0.4742099939999989   F   F   F
  0.6011376904801869  0.6577660016778775  0.4742114727486388   T   T   T
  0.5892553657297083  0.6771013476348821  0.5906736693224649   T   T   T
  0.5131985425790306  0.3622247968888193  0.4164654897437344   T   T   T
  0.4340486463189566  0.3477383039581046  0.3582148165288461   T   T   T
  0.5810322377246608  0.3409388279253712  0.5972583337394021   T   T   T
  0.5130339271585462  0.4271714397628895  0.6211342216578368   T   T   T
  0.7336605715686315  0.5101496590524759  0.4678930971510419   T   T   T
  0.3660093035112350  0.5109849590495420  0.3869127919888826   T   T   T
  0.5937706873057076  0.2965329116012312  0.5253255304708998   T   T   T
  0.6348199149599356  0.3169434121102451  0.5365741474164106   T   T   T
  0.5094129305591653  0.3437017042752301  0.6486533115202635   T   T   T
  0.5057338866526300  0.3465632287011542  0.6819085568913675   T   T   T
 
  0.00000000E+00  0.00000000E+00  0.00000000E+00
  0.00000000E+00  0.00000000E+00  0.00000000E+00
  0.00000000E+00  0.00000000E+00  0.00000000E+00
  0.00000000E+00  0.00000000E+00  0.00000000E+00
  0.00000000E+00  0.00000000E+00  0.00000000E+00
  0.00000000E+00  0.00000000E+00  0.00000000E+00
  0.00000000E+00  0.00000000E+00  0.00000000E+00
  0.00000000E+00  0.00000000E+00  0.00000000E+00
  0.00000000E+00  0.00000000E+00  0.00000000E+00
  0.00000000E+00  0.00000000E+00  0.00000000E+00
  0.00000000E+00  0.00000000E+00  0.00000000E+00
  0.00000000E+00  0.00000000E+00  0.00000000E+00
  0.00000000E+00  0.00000000E+00  0.00000000E+00
  0.00000000E+00  0.00000000E+00  0.00000000E+00
  0.00000000E+00  0.00000000E+00  0.00000000E+00
  0.00000000E+00  0.00000000E+00  0.00000000E+00
  0.00000000E+00  0.00000000E+00  0.00000000E+00
  0.00000000E+00  0.00000000E+00  0.00000000E+00
  0.00000000E+00  0.00000000E+00  0.00000000E+00
  0.00000000E+00  0.00000000E+00  0.00000000E+00
  0.00000000E+00  0.00000000E+00  0.00000000E+00
  0.00000000E+00  0.00000000E+00  0.00000000E+00
  0.00000000E+00  0.00000000E+00  0.00000000E+00
  0.00000000E+00  0.00000000E+00  0.00000000E+00
  0.00000000E+00  0.00000000E+00  0.00000000E+00
  0.00000000E+00  0.00000000E+00  0.00000000E+00
  0.00000000E+00  0.00000000E+00  0.00000000E+00
  0.00000000E+00  0.00000000E+00  0.00000000E+00
  0.00000000E+00  0.00000000E+00  0.00000000E+00
  0.00000000E+00  0.00000000E+00  0.00000000E+00
  0.00000000E+00  0.00000000E+00  0.00000000E+00
  0.00000000E+00  0.00000000E+00  0.00000000E+00
  0.00000000E+00  0.00000000E+00  0.00000000E+00
  0.00000000E+00  0.00000000E+00  0.00000000E+00
  0.00000000E+00  0.00000000E+00  0.00000000E+00
  0.00000000E+00  0.00000000E+00  0.00000000E+00
  0.00000000E+00  0.00000000E+00  0.00000000E+00
  0.00000000E+00  0.00000000E+00  0.00000000E+00
  0.00000000E+00  0.00000000E+00  0.00000000E+00
  0.00000000E+00  0.00000000E+00  0.00000000E+00
  0.00000000E+00  0.00000000E+00  0.00000000E+00
  0.00000000E+00  0.00000000E+00  0.00000000E+00
  0.00000000E+00  0.00000000E+00  0.00000000E+00
  0.00000000E+00  0.00000000E+00  0.00000000E+00
  0.00000000E+00  0.00000000E+00  0.00000000E+00
  0.00000000E+00  0.00000000E+00  0.00000000E+00
  0.00000000E+00  0.00000000E+00  0.00000000E+00
  0.00000000E+00  0.00000000E+00  0.00000000E+00
  0.00000000E+00  0.00000000E+00  0.00000000E+00
  0.00000000E+00  0.00000000E+00  0.00000000E+00
  0.00000000E+00  0.00000000E+00  0.00000000E+00
  0.00000000E+00  0.00000000E+00  0.00000000E+00
  0.00000000E+00  0.00000000E+00  0.00000000E+00
  0.00000000E+00  0.00000000E+00  0.00000000E+00
  0.00000000E+00  0.00000000E+00  0.00000000E+00
  0.00000000E+00  0.00000000E+00  0.00000000E+00
  0.00000000E+00  0.00000000E+00  0.00000000E+00
  0.00000000E+00  0.00000000E+00  0.00000000E+00
  0.00000000E+00  0.00000000E+00  0.00000000E+00
  0.00000000E+00  0.00000000E+00  0.00000000E+00
  0.00000000E+00  0.00000000E+00  0.00000000E+00
  0.00000000E+00  0.00000000E+00  0.00000000E+00
  0.00000000E+00  0.00000000E+00  0.00000000E+00
  0.00000000E+00  0.00000000E+00  0.00000000E+00
  0.00000000E+00  0.00000000E+00  0.00000000E+00
  0.00000000E+00  0.00000000E+00  0.00000000E+00
  0.00000000E+00  0.00000000E+00  0.00000000E+00
  0.00000000E+00  0.00000000E+00  0.00000000E+00
  0.00000000E+00  0.00000000E+00  0.00000000E+00
  0.00000000E+00  0.00000000E+00  0.00000000E+00
  0.00000000E+00  0.00000000E+00  0.00000000E+00
  0.00000000E+00  0.00000000E+00  0.00000000E+00
