La C  O  H                              
   1.00000000000000     
    29.0000000000000000    0.0000000000000000    0.0000000000000000
     0.0000000000000000   29.0000000000000000    0.0000000000000000
     0.0000000000000000    0.0000000000000000   29.0000000000000000
   La   C    O    H 
    68     1     2     1
Selective dynamics
Direct
  0.5111452768503181  0.5129028611452161  0.6949834650211439   T   T   T
  0.3474021292610074  0.6260771041559243  0.3958987635164337   T   T   T
  0.3658340860534798  0.5696262007650537  0.4741295088552089   T   T   T
  0.5847735850602547  0.4395563749397482  0.4024863989397502   F   F   F
  0.4413263949397503  0.4395563749397482  0.5459335890602546   F   F   F
  0.6589062182678832  0.5712559085375365  0.4746905546088214   T   T   T
  0.4539182840392634  0.5113246847053594  0.3283014733393253   T   T   T
  0.4238055015956853  0.3638967130095587  0.4730003869191419   T   T   T
  0.5727407973915517  0.5111614212516848  0.6203189856049289   T   T   T
  0.3956994728544601  0.4342047617034454  0.6386070437678546   T   T   T
  0.5126675414529879  0.6570663219454254  0.5339868426296067   T   T   T
  0.5909867414568855  0.3462560240122021  0.3584337284156117   T   T   T
  0.4236928664895235  0.6584187963475872  0.4738788479608259   T   T   T
  0.4344281058692925  0.6751504196948217  0.3578878612201257   T   T   T
  0.6602625788824448  0.5108243993414906  0.5630595516849141   T   T   T
  0.6299885412147138  0.5882785542316273  0.3092009983966367   T   T   T
  0.6767137069200154  0.3929924191110596  0.5519807432012658   T   T   T
  0.5130500200000014  0.4385212377386409  0.4742099939999989   F   F   F
  0.3698636715978355  0.4518432272281768  0.4748483864115414   T   T   T
  0.5130500200000014  0.5840387622613576  0.4742099939999989   F   F   F
  0.5130500200000014  0.5112799999999993  0.5469687262613618   F   F   F
  0.4362509143161465  0.6764981516102071  0.5912666830293565   T   T   T
  0.5858087222613619  0.5112799999999993  0.4742099939999989   F   F   F
  0.5118732305451802  0.3654110717303959  0.5333049115323726   T   T   T
  0.2882651717727530  0.5020034141344998  0.4637984603808901   T   T   T
  0.3640212041057249  0.5115501874736774  0.5621302392913665   T   T   T
  0.5131744815793788  0.5102135174924183  0.2529532301994653   T   T   T
  0.3962458418708634  0.4353234675159273  0.3091533277074902   T   T   T
  0.6293992988004277  0.4334003753958294  0.3094910758260940   T   T   T
  0.6600121433127093  0.5108312446893207  0.3861689694946747   T   T   T
  0.4413263949397503  0.4395563749397482  0.4024863989397502   F   F   F
  0.4413263949397503  0.5830036250602504  0.4024863989397502   F   F   F
  0.5847735850602547  0.5830036250602504  0.4024863989397502   F   F   F
  0.5130783572094949  0.6571771751583283  0.4142585150842240   T   T   T
  0.5122000107025366  0.7317667287402285  0.4742949493837592   T   T   T
  0.3490133546409918  0.6279520754312901  0.5522487350985085   T   T   T
  0.6587310675449455  0.4505941194306728  0.4747331463746256   T   T   T
  0.3421534005209800  0.4026132536197782  0.3955512006232068   T   T   T
  0.3966661607654918  0.5876551702349821  0.3084008068951742   T   T   T
  0.4347535445982689  0.3466315680635392  0.5903750601184387   T   T   T
  0.6276815511092423  0.4320968196012602  0.6389361643120007   T   T   T
  0.5847735850602547  0.5830036250602504  0.5459335890602546   F   F   F
  0.5130782354612436  0.4223911426814493  0.3273044491221019   T   T   T
  0.5130500200000014  0.5112799999999993  0.4014512617386430   F   F   F
  0.6775298563500558  0.6275734245640653  0.5526759716301526   T   T   T
  0.5128587517486500  0.5992129947550263  0.6213314859509473   T   T   T
  0.4413263949397503  0.5830036250602504  0.5459335890602546   F   F   F
  0.4523148252122355  0.5111403050541689  0.6192421977310953   T   T   T
  0.5732833716881821  0.5111694245093746  0.3283998203424712   T   T   T
  0.6784027788246257  0.3949128230977251  0.3970454653015951   T   T   T
  0.5847735850602547  0.4395563749397482  0.5459335890602546   F   F   F
  0.3972672033533098  0.5892623878688978  0.6398964242612569   T   T   T
  0.5135522835029338  0.2892838982534218  0.4743281993984247   T   T   T
  0.6289839174105920  0.5890731055122113  0.6394527044719008   T   T   T
  0.3476487056971136  0.3922333345185406  0.5508540928952054   T   T   T
  0.5134161123765538  0.5995314355144011  0.3270795227539296   T   T   T
  0.6785789349385769  0.6272750228217095  0.3971684233312465   T   T   T
  0.5911874999797612  0.6760009036329191  0.3580122896418133   T   T   T
  0.6004242636440141  0.3639299553855618  0.4737617652662118   T   T   T
  0.4402912577386431  0.5112799999999993  0.4742099939999989   F   F   F
  0.6013072378606754  0.6588851966881970  0.4742375874700144   T   T   T
  0.5897192787277856  0.6765765747394842  0.5905022839533433   T   T   T
  0.5121593115444557  0.3653014553216097  0.4144648240433751   T   T   T
  0.4328647459485248  0.3478124842044543  0.3580866835944189   T   T   T
  0.5886722935913480  0.3445554856272995  0.5896941212415673   T   T   T
  0.5120450168854901  0.4228858245731922  0.6217257577858152   T   T   T
  0.7334676007006292  0.5108151925115070  0.4735036218846219   T   T   T
  0.3660093965991128  0.5123630692714125  0.3848303865687520   T   T   T
  0.2929559418781685  0.4085897450355743  0.4769721064690394   T   T   T
  0.2654427420035315  0.4222711659842998  0.4429854022914946   T   T   T
  0.2717287165309763  0.3726277900757838  0.5042057472794540   T   T   T
  0.2411982835007005  0.3667187087458513  0.4909237162031709   T   T   T
 
  0.00000000E+00  0.00000000E+00  0.00000000E+00
  0.00000000E+00  0.00000000E+00  0.00000000E+00
  0.00000000E+00  0.00000000E+00  0.00000000E+00
  0.00000000E+00  0.00000000E+00  0.00000000E+00
  0.00000000E+00  0.00000000E+00  0.00000000E+00
  0.00000000E+00  0.00000000E+00  0.00000000E+00
  0.00000000E+00  0.00000000E+00  0.00000000E+00
  0.00000000E+00  0.00000000E+00  0.00000000E+00
  0.00000000E+00  0.00000000E+00  0.00000000E+00
  0.00000000E+00  0.00000000E+00  0.00000000E+00
  0.00000000E+00  0.00000000E+00  0.00000000E+00
  0.00000000E+00  0.00000000E+00  0.00000000E+00
  0.00000000E+00  0.00000000E+00  0.00000000E+00
  0.00000000E+00  0.00000000E+00  0.00000000E+00
  0.00000000E+00  0.00000000E+00  0.00000000E+00
  0.00000000E+00  0.00000000E+00  0.00000000E+00
  0.00000000E+00  0.00000000E+00  0.00000000E+00
  0.00000000E+00  0.00000000E+00  0.00000000E+00
  0.00000000E+00  0.00000000E+00  0.00000000E+00
  0.00000000E+00  0.00000000E+00  0.00000000E+00
  0.00000000E+00  0.00000000E+00  0.00000000E+00
  0.00000000E+00  0.00000000E+00  0.00000000E+00
  0.00000000E+00  0.00000000E+00  0.00000000E+00
  0.00000000E+00  0.00000000E+00  0.00000000E+00
  0.00000000E+00  0.00000000E+00  0.00000000E+00
  0.00000000E+00  0.00000000E+00  0.00000000E+00
  0.00000000E+00  0.00000000E+00  0.00000000E+00
  0.00000000E+00  0.00000000E+00  0.00000000E+00
  0.00000000E+00  0.00000000E+00  0.00000000E+00
  0.00000000E+00  0.00000000E+00  0.00000000E+00
  0.00000000E+00  0.00000000E+00  0.00000000E+00
  0.00000000E+00  0.00000000E+00  0.00000000E+00
  0.00000000E+00  0.00000000E+00  0.00000000E+00
  0.00000000E+00  0.00000000E+00  0.00000000E+00
  0.00000000E+00  0.00000000E+00  0.00000000E+00
  0.00000000E+00  0.00000000E+00  0.00000000E+00
  0.00000000E+00  0.00000000E+00  0.00000000E+00
  0.00000000E+00  0.00000000E+00  0.00000000E+00
  0.00000000E+00  0.00000000E+00  0.00000000E+00
  0.00000000E+00  0.00000000E+00  0.00000000E+00
  0.00000000E+00  0.00000000E+00  0.00000000E+00
  0.00000000E+00  0.00000000E+00  0.00000000E+00
  0.00000000E+00  0.00000000E+00  0.00000000E+00
  0.00000000E+00  0.00000000E+00  0.00000000E+00
  0.00000000E+00  0.00000000E+00  0.00000000E+00
  0.00000000E+00  0.00000000E+00  0.00000000E+00
  0.00000000E+00  0.00000000E+00  0.00000000E+00
  0.00000000E+00  0.00000000E+00  0.00000000E+00
  0.00000000E+00  0.00000000E+00  0.00000000E+00
  0.00000000E+00  0.00000000E+00  0.00000000E+00
  0.00000000E+00  0.00000000E+00  0.00000000E+00
  0.00000000E+00  0.00000000E+00  0.00000000E+00
  0.00000000E+00  0.00000000E+00  0.00000000E+00
  0.00000000E+00  0.00000000E+00  0.00000000E+00
  0.00000000E+00  0.00000000E+00  0.00000000E+00
  0.00000000E+00  0.00000000E+00  0.00000000E+00
  0.00000000E+00  0.00000000E+00  0.00000000E+00
  0.00000000E+00  0.00000000E+00  0.00000000E+00
  0.00000000E+00  0.00000000E+00  0.00000000E+00
  0.00000000E+00  0.00000000E+00  0.00000000E+00
  0.00000000E+00  0.00000000E+00  0.00000000E+00
  0.00000000E+00  0.00000000E+00  0.00000000E+00
  0.00000000E+00  0.00000000E+00  0.00000000E+00
  0.00000000E+00  0.00000000E+00  0.00000000E+00
  0.00000000E+00  0.00000000E+00  0.00000000E+00
  0.00000000E+00  0.00000000E+00  0.00000000E+00
  0.00000000E+00  0.00000000E+00  0.00000000E+00
  0.00000000E+00  0.00000000E+00  0.00000000E+00
  0.00000000E+00  0.00000000E+00  0.00000000E+00
  0.00000000E+00  0.00000000E+00  0.00000000E+00
  0.00000000E+00  0.00000000E+00  0.00000000E+00
  0.00000000E+00  0.00000000E+00  0.00000000E+00
