Bi La Sn H                              
   1.00000000000000     
    29.0000000000000000    0.0000000000000000    0.0000000000000000
     0.2488180851000000   28.9989325590000000    0.0000000000000000
    -0.0631677343000000   -0.4515975666000000   28.9964147692999994
   Bi   La   Sn   H 
    22    23    23     1
Selective dynamics
Direct
  0.7597665122905778  0.4792254336717295  0.3990774834893343   T   T   T
  0.6459645556481278  0.6848364296806204  0.5528131221192789   T   T   T
  0.3651564180543138  0.4585673998966754  0.4273763710568268   T   T   T
  0.5491625286429827  0.7129314037984690  0.5854255483096745   T   T   T
  0.5915029568994470  0.5209714444905416  0.5841479689498996   F   F   F
  0.6397957099498761  0.6805419233709138  0.4458311088786823   T   T   T
  0.6968161687561879  0.5241259138164016  0.6541108985821414   T   T   T
  0.4857761664010259  0.7007728466348148  0.5007977337465661   T   T   T
  0.5004839460855024  0.5502791173970252  0.5477141156400123   F   F   F
  0.3249373170681869  0.4854903645748078  0.5726269823635500   T   T   T
  0.3814052671682832  0.6098934453120807  0.5340388887183826   T   T   T
  0.6667129484492236  0.4827404655721850  0.5105018184570156   F   F   F
  0.5763997220267569  0.4263140504383500  0.5448328182496311   F   F   F
  0.6708853063573049  0.3751469959129106  0.5066142154465063   T   T   T
  0.4657219657386435  0.3383173252004762  0.5005029733504910   T   T   T
  0.6484934028780529  0.5775373212088155  0.4602701624361103   F   F   F
  0.5599650106175976  0.4376740396265552  0.7494782172311915   T   T   T
  0.6058731426114761  0.3527229765571927  0.6703912228776260   T   T   T
  0.4957067039466188  0.2982139880751566  0.4105681386099498   T   T   T
  0.6591404336278746  0.6197749592594883  0.6659499208454728   T   T   T
  0.4954781920907603  0.4099524256558548  0.3087203354366765   T   T   T
  0.6246730519675388  0.3181746152785349  0.5742684800676309   T   T   T
  0.5382122308001910  0.6837476088039134  0.4054899108322552   T   T   T
  0.3918725718882454  0.4143262998516623  0.5282625098828346   T   T   T
  0.6285445716395708  0.5533839560642577  0.2831709807908064   T   T   T
  0.4710795381408686  0.4683805858348593  0.6919484789939959   T   T   T
  0.5683115009887700  0.5094300495444983  0.4784716241115703   F   F   F
  0.4203210565129183  0.5084107200613417  0.5018573595042781   F   F   F
  0.4541801984142338  0.3984559669445942  0.4067008424851700   T   T   T
  0.5675377248763884  0.3479737609118611  0.3555587791158873   T   T   T
  0.4099873988823295  0.5399153077900297  0.6087346376371109   T   T   T
  0.5999842758629914  0.4426859558838008  0.3046822580551940   T   T   T
  0.4561237442597401  0.6008336155526190  0.3619099548810998   T   T   T
  0.4217267982241333  0.4887924225013081  0.3371791504417060   T   T   T
  0.6613572297325550  0.4296672714774882  0.6046627236464478   T   T   T
  0.6727425833198151  0.5790875789092697  0.5640759350812894   T   T   T
  0.5262413501657487  0.5113111280382963  0.3270867536386829   T   T   T
  0.5678385986675887  0.3579270012381667  0.4694409996562493   T   T   T
  0.3145209503720857  0.5400738733826094  0.4881727053374591   T   T   T
  0.6607747957477734  0.4300479782835027  0.4151869450410349   T   T   T
  0.5660841929594156  0.6261437171197244  0.5094829013827464   F   F   F
  0.5963900007570020  0.5290601301462681  0.6892719816931986   T   T   T
  0.4691698092015030  0.6407344835703149  0.5889013206236003   T   T   T
  0.4633143632595049  0.6030373580081316  0.4638653587281089   T   T   T
  0.7168341830885706  0.5748608298893424  0.3838673059571500   T   T   T
  0.5499310510395361  0.5822218838566187  0.4076968008106903   F   F   F
  0.4794126430662260  0.5072205383607624  0.4190535757241776   F   F   F
  0.6957667651837275  0.4817967821456631  0.3243061101218593   T   T   T
  0.7532282061266501  0.4309667373779982  0.4881267562660310   T   T   T
  0.7482085071851825  0.5395552519818819  0.4856895672231634   T   T   T
  0.7488324643703325  0.4916340691723654  0.5726631012177225   T   T   T
  0.6499601902289757  0.4384019866870074  0.7090939708048951   T   T   T
  0.5765027737626628  0.7426191293256498  0.4940783724085447   T   T   T
  0.6192554540844384  0.5183157687966542  0.3801816896793397   F   F   F
  0.5047976180240611  0.5570739088175773  0.6493461567870399   T   T   T
  0.4922009500451665  0.4366758245867572  0.4933013002826740   F   F   F
  0.5608844484509063  0.4404139570509003  0.6454865549417619   F   F   F
  0.5761759087042141  0.6160844752821909  0.6137834746669444   T   T   T
  0.5460406115391783  0.6205111347340618  0.3124295265216209   T   T   T
  0.6280749036462459  0.6258746802504577  0.3610166956171378   T   T   T
  0.3787980246880655  0.5573640444034239  0.4110387279669542   T   T   T
  0.4723078164089713  0.4557257050327763  0.5877273803360978   F   F   F
  0.7265528063814243  0.6361083668227691  0.4855877743980989   T   T   T
  0.5059121291246023  0.3670175874275926  0.6868865856150743   T   T   T
  0.3803813059567939  0.4414531326372301  0.6395719040095311   T   T   T
  0.5544592502646992  0.4379899399457940  0.4037542370104745   F   F   F
  0.4363699356184041  0.3645461764579943  0.6128779458289301   T   T   T
  0.5300845760373074  0.3481191608801442  0.5811054099651548   T   T   T
  0.2995076150709204  0.4830481606729387  0.4320364357691040   T   T   T
 
  0.00000000E+00  0.00000000E+00  0.00000000E+00
  0.00000000E+00  0.00000000E+00  0.00000000E+00
  0.00000000E+00  0.00000000E+00  0.00000000E+00
  0.00000000E+00  0.00000000E+00  0.00000000E+00
  0.00000000E+00  0.00000000E+00  0.00000000E+00
  0.00000000E+00  0.00000000E+00  0.00000000E+00
  0.00000000E+00  0.00000000E+00  0.00000000E+00
  0.00000000E+00  0.00000000E+00  0.00000000E+00
  0.00000000E+00  0.00000000E+00  0.00000000E+00
  0.00000000E+00  0.00000000E+00  0.00000000E+00
  0.00000000E+00  0.00000000E+00  0.00000000E+00
  0.00000000E+00  0.00000000E+00  0.00000000E+00
  0.00000000E+00  0.00000000E+00  0.00000000E+00
  0.00000000E+00  0.00000000E+00  0.00000000E+00
  0.00000000E+00  0.00000000E+00  0.00000000E+00
  0.00000000E+00  0.00000000E+00  0.00000000E+00
  0.00000000E+00  0.00000000E+00  0.00000000E+00
  0.00000000E+00  0.00000000E+00  0.00000000E+00
  0.00000000E+00  0.00000000E+00  0.00000000E+00
  0.00000000E+00  0.00000000E+00  0.00000000E+00
  0.00000000E+00  0.00000000E+00  0.00000000E+00
  0.00000000E+00  0.00000000E+00  0.00000000E+00
  0.00000000E+00  0.00000000E+00  0.00000000E+00
  0.00000000E+00  0.00000000E+00  0.00000000E+00
  0.00000000E+00  0.00000000E+00  0.00000000E+00
  0.00000000E+00  0.00000000E+00  0.00000000E+00
  0.00000000E+00  0.00000000E+00  0.00000000E+00
  0.00000000E+00  0.00000000E+00  0.00000000E+00
  0.00000000E+00  0.00000000E+00  0.00000000E+00
  0.00000000E+00  0.00000000E+00  0.00000000E+00
  0.00000000E+00  0.00000000E+00  0.00000000E+00
  0.00000000E+00  0.00000000E+00  0.00000000E+00
  0.00000000E+00  0.00000000E+00  0.00000000E+00
  0.00000000E+00  0.00000000E+00  0.00000000E+00
  0.00000000E+00  0.00000000E+00  0.00000000E+00
  0.00000000E+00  0.00000000E+00  0.00000000E+00
  0.00000000E+00  0.00000000E+00  0.00000000E+00
  0.00000000E+00  0.00000000E+00  0.00000000E+00
  0.00000000E+00  0.00000000E+00  0.00000000E+00
  0.00000000E+00  0.00000000E+00  0.00000000E+00
  0.00000000E+00  0.00000000E+00  0.00000000E+00
  0.00000000E+00  0.00000000E+00  0.00000000E+00
  0.00000000E+00  0.00000000E+00  0.00000000E+00
  0.00000000E+00  0.00000000E+00  0.00000000E+00
  0.00000000E+00  0.00000000E+00  0.00000000E+00
  0.00000000E+00  0.00000000E+00  0.00000000E+00
  0.00000000E+00  0.00000000E+00  0.00000000E+00
  0.00000000E+00  0.00000000E+00  0.00000000E+00
  0.00000000E+00  0.00000000E+00  0.00000000E+00
  0.00000000E+00  0.00000000E+00  0.00000000E+00
  0.00000000E+00  0.00000000E+00  0.00000000E+00
  0.00000000E+00  0.00000000E+00  0.00000000E+00
  0.00000000E+00  0.00000000E+00  0.00000000E+00
  0.00000000E+00  0.00000000E+00  0.00000000E+00
  0.00000000E+00  0.00000000E+00  0.00000000E+00
  0.00000000E+00  0.00000000E+00  0.00000000E+00
  0.00000000E+00  0.00000000E+00  0.00000000E+00
  0.00000000E+00  0.00000000E+00  0.00000000E+00
  0.00000000E+00  0.00000000E+00  0.00000000E+00
  0.00000000E+00  0.00000000E+00  0.00000000E+00
  0.00000000E+00  0.00000000E+00  0.00000000E+00
  0.00000000E+00  0.00000000E+00  0.00000000E+00
  0.00000000E+00  0.00000000E+00  0.00000000E+00
  0.00000000E+00  0.00000000E+00  0.00000000E+00
  0.00000000E+00  0.00000000E+00  0.00000000E+00
  0.00000000E+00  0.00000000E+00  0.00000000E+00
  0.00000000E+00  0.00000000E+00  0.00000000E+00
  0.00000000E+00  0.00000000E+00  0.00000000E+00
  0.00000000E+00  0.00000000E+00  0.00000000E+00
