Bi La Sn H                              
   1.00000000000000     
    29.0000000000000000    0.0000000000000000    0.0000000000000000
     0.2488180851000000   28.9989325590000000    0.0000000000000000
    -0.0631677343000000   -0.4515975666000000   28.9964147692999994
   Bi   La   Sn   H 
    22    23    23     1
Selective dynamics
Direct
  0.7585202073670753  0.4797013945692560  0.4052867539264083   T   T   T
  0.6465146253448074  0.6841023980081158  0.5513551240220591   T   T   T
  0.3600488643321361  0.4588571482891675  0.4277361131751764   T   T   T
  0.5502165012869342  0.7132528819934397  0.5847607150595072   T   T   T
  0.5915029568994470  0.5209714444905416  0.5841479689498996   F   F   F
  0.6381768963254633  0.6802435178438571  0.4445436080554779   T   T   T
  0.6974185195596633  0.5236868296954502  0.6534285317761791   T   T   T
  0.4857801967987543  0.7009920357128048  0.5007022857919484   T   T   T
  0.5004839460855024  0.5502791173970252  0.5477141156400123   F   F   F
  0.3251461692710795  0.4870742216281050  0.5742046997817416   T   T   T
  0.3823746968098803  0.6110261667315119  0.5351408794448809   T   T   T
  0.6667129484492236  0.4827404655721850  0.5105018184570156   F   F   F
  0.5763997220267569  0.4263140504383500  0.5448328182496311   F   F   F
  0.6677965021591391  0.3747597665089314  0.5069779798653006   T   T   T
  0.4629380593267550  0.3386848467648715  0.4998081620366824   T   T   T
  0.6484934028780529  0.5775373212088155  0.4602701624361103   F   F   F
  0.5587071653802836  0.4386342972290743  0.7498209401536319   T   T   T
  0.6041467267918924  0.3516220479562832  0.6693830473011350   T   T   T
  0.4917120132256634  0.2991869497076457  0.4096519524098465   T   T   T
  0.6601166023325327  0.6195176735425496  0.6648113147058539   T   T   T
  0.4930707899804328  0.4103624810148861  0.3069828023369645   T   T   T
  0.6217644128946873  0.3168851696096230  0.5733277847549555   T   T   T
  0.5369051551437769  0.6837341799062989  0.4043529254630035   T   T   T
  0.3905262648173228  0.4156631431058380  0.5274914486614534   T   T   T
  0.6301925816893729  0.5519147381692591  0.2828937419892285   T   T   T
  0.4712230208140448  0.4704295035970694  0.6917987755838469   T   T   T
  0.5683115009887700  0.5094300495444983  0.4784716241115703   F   F   F
  0.4203210565129183  0.5084107200613417  0.5018573595042781   F   F   F
  0.4522436171902897  0.4009439677628063  0.4067106330747906   T   T   T
  0.5635179582578639  0.3481147458627424  0.3543345705937527   T   T   T
  0.4110377067248308  0.5408578887258929  0.6096519583858990   T   T   T
  0.6006297907881871  0.4418926572467065  0.3058162468115062   T   T   T
  0.4550795458879957  0.5998653119483917  0.3618977888997070   T   T   T
  0.4190294787836036  0.4871591891111380  0.3389794544995167   T   T   T
  0.6614893066312378  0.4290213883377481  0.6048602060302453   T   T   T
  0.6745453421388417  0.5779879915086630  0.5628382744963264   T   T   T
  0.5269176274820287  0.5096515817712505  0.3279404491247531   T   T   T
  0.5652814784834538  0.3572319213208814  0.4690728921179759   T   T   T
  0.3164228695147754  0.5426415910798488  0.4907353629654959   T   T   T
  0.6596157795302172  0.4289965315381419  0.4159571208335655   T   T   T
  0.5660841929594156  0.6261437171197244  0.5094829013827464   F   F   F
  0.5970123136108817  0.5289262927208470  0.6892140524040411   T   T   T
  0.4702145618631640  0.6411879370018759  0.5890888245277528   T   T   T
  0.4630811487557313  0.6034904156391523  0.4643999621422428   T   T   T
  0.7178976675214402  0.5746099483430174  0.3855806806235598   T   T   T
  0.5499310510395361  0.5822218838566187  0.4076968008106903   F   F   F
  0.4794126430662260  0.5072205383607624  0.4190535757241776   F   F   F
  0.6967764533172530  0.4816063592557275  0.3267740190651041   T   T   T
  0.7513817159408915  0.4279124220907340  0.4902711607353581   T   T   T
  0.7589215693799679  0.5423428837570710  0.4897728917783205   T   T   T
  0.7484572479307863  0.4893100666679516  0.5724355272974039   T   T   T
  0.6481269658371300  0.4370516674655607  0.7089996744222589   T   T   T
  0.5760936687325449  0.7430168373571748  0.4929419292269838   T   T   T
  0.6192554540844384  0.5183157687966542  0.3801816896793397   F   F   F
  0.5055890957016422  0.5587780697304724  0.6501189008273359   T   T   T
  0.4922009500451665  0.4366758245867572  0.4933013002826740   F   F   F
  0.5608844484509063  0.4404139570509003  0.6454865549417619   F   F   F
  0.5770490691581747  0.6163300795365548  0.6134417960778159   T   T   T
  0.5456848726711283  0.6171999655397951  0.3126151663447763   T   T   T
  0.6289518642739135  0.6246427674182499  0.3603176262316861   T   T   T
  0.3777123995965473  0.5564779097423699  0.4116741059514180   T   T   T
  0.4723078164089713  0.4557257050327763  0.5877273803360978   F   F   F
  0.7261731471271523  0.6356370696118180  0.4841696815202952   T   T   T
  0.5044929035865919  0.3684260729235828  0.6857235250351968   T   T   T
  0.3805497813953838  0.4423141338286517  0.6401933532367143   T   T   T
  0.5544592502646992  0.4379899399457940  0.4037542370104745   F   F   F
  0.4343599001367517  0.3646523398369854  0.6121997751343783   T   T   T
  0.5276472611492840  0.3495521596977120  0.5799267448894992   T   T   T
  0.8199596024591431  0.5467084168371704  0.4920586345171392   T   T   T
 
  0.00000000E+00  0.00000000E+00  0.00000000E+00
  0.00000000E+00  0.00000000E+00  0.00000000E+00
  0.00000000E+00  0.00000000E+00  0.00000000E+00
  0.00000000E+00  0.00000000E+00  0.00000000E+00
  0.00000000E+00  0.00000000E+00  0.00000000E+00
  0.00000000E+00  0.00000000E+00  0.00000000E+00
  0.00000000E+00  0.00000000E+00  0.00000000E+00
  0.00000000E+00  0.00000000E+00  0.00000000E+00
  0.00000000E+00  0.00000000E+00  0.00000000E+00
  0.00000000E+00  0.00000000E+00  0.00000000E+00
  0.00000000E+00  0.00000000E+00  0.00000000E+00
  0.00000000E+00  0.00000000E+00  0.00000000E+00
  0.00000000E+00  0.00000000E+00  0.00000000E+00
  0.00000000E+00  0.00000000E+00  0.00000000E+00
  0.00000000E+00  0.00000000E+00  0.00000000E+00
  0.00000000E+00  0.00000000E+00  0.00000000E+00
  0.00000000E+00  0.00000000E+00  0.00000000E+00
  0.00000000E+00  0.00000000E+00  0.00000000E+00
  0.00000000E+00  0.00000000E+00  0.00000000E+00
  0.00000000E+00  0.00000000E+00  0.00000000E+00
  0.00000000E+00  0.00000000E+00  0.00000000E+00
  0.00000000E+00  0.00000000E+00  0.00000000E+00
  0.00000000E+00  0.00000000E+00  0.00000000E+00
  0.00000000E+00  0.00000000E+00  0.00000000E+00
  0.00000000E+00  0.00000000E+00  0.00000000E+00
  0.00000000E+00  0.00000000E+00  0.00000000E+00
  0.00000000E+00  0.00000000E+00  0.00000000E+00
  0.00000000E+00  0.00000000E+00  0.00000000E+00
  0.00000000E+00  0.00000000E+00  0.00000000E+00
  0.00000000E+00  0.00000000E+00  0.00000000E+00
  0.00000000E+00  0.00000000E+00  0.00000000E+00
  0.00000000E+00  0.00000000E+00  0.00000000E+00
  0.00000000E+00  0.00000000E+00  0.00000000E+00
  0.00000000E+00  0.00000000E+00  0.00000000E+00
  0.00000000E+00  0.00000000E+00  0.00000000E+00
  0.00000000E+00  0.00000000E+00  0.00000000E+00
  0.00000000E+00  0.00000000E+00  0.00000000E+00
  0.00000000E+00  0.00000000E+00  0.00000000E+00
  0.00000000E+00  0.00000000E+00  0.00000000E+00
  0.00000000E+00  0.00000000E+00  0.00000000E+00
  0.00000000E+00  0.00000000E+00  0.00000000E+00
  0.00000000E+00  0.00000000E+00  0.00000000E+00
  0.00000000E+00  0.00000000E+00  0.00000000E+00
  0.00000000E+00  0.00000000E+00  0.00000000E+00
  0.00000000E+00  0.00000000E+00  0.00000000E+00
  0.00000000E+00  0.00000000E+00  0.00000000E+00
  0.00000000E+00  0.00000000E+00  0.00000000E+00
  0.00000000E+00  0.00000000E+00  0.00000000E+00
  0.00000000E+00  0.00000000E+00  0.00000000E+00
  0.00000000E+00  0.00000000E+00  0.00000000E+00
  0.00000000E+00  0.00000000E+00  0.00000000E+00
  0.00000000E+00  0.00000000E+00  0.00000000E+00
  0.00000000E+00  0.00000000E+00  0.00000000E+00
  0.00000000E+00  0.00000000E+00  0.00000000E+00
  0.00000000E+00  0.00000000E+00  0.00000000E+00
  0.00000000E+00  0.00000000E+00  0.00000000E+00
  0.00000000E+00  0.00000000E+00  0.00000000E+00
  0.00000000E+00  0.00000000E+00  0.00000000E+00
  0.00000000E+00  0.00000000E+00  0.00000000E+00
  0.00000000E+00  0.00000000E+00  0.00000000E+00
  0.00000000E+00  0.00000000E+00  0.00000000E+00
  0.00000000E+00  0.00000000E+00  0.00000000E+00
  0.00000000E+00  0.00000000E+00  0.00000000E+00
  0.00000000E+00  0.00000000E+00  0.00000000E+00
  0.00000000E+00  0.00000000E+00  0.00000000E+00
  0.00000000E+00  0.00000000E+00  0.00000000E+00
  0.00000000E+00  0.00000000E+00  0.00000000E+00
  0.00000000E+00  0.00000000E+00  0.00000000E+00
  0.00000000E+00  0.00000000E+00  0.00000000E+00
