Bi La Sn H                              
   1.00000000000000     
    29.0000000000000000    0.0000000000000000    0.0000000000000000
     0.2488180851000000   28.9989325590000000    0.0000000000000000
    -0.0631677343000000   -0.4515975666000000   28.9964147692999994
   Bi   La   Sn   H 
    22    23    23     1
Selective dynamics
Direct
  0.7594869880369556  0.4788091672307805  0.3983751785453013   T   T   T
  0.6466100122149621  0.6849041014423439  0.5510674406510310   T   T   T
  0.3608418082584305  0.4579146445058690  0.4280069741808256   T   T   T
  0.5498715924078899  0.7127392179396551  0.5835428887403740   T   T   T
  0.5915029568994470  0.5209714444905416  0.5841479689498996   F   F   F
  0.6396430434230835  0.6796612276687625  0.4450744223973044   T   T   T
  0.6951175960083604  0.5218803595132789  0.6545650700186694   T   T   T
  0.4863449887411690  0.7014487130740124  0.4990465788842965   T   T   T
  0.5004839460855024  0.5502791173970252  0.5477141156400123   F   F   F
  0.3234893147994576  0.4861161223478742  0.5748305690079587   T   T   T
  0.3812702307850173  0.6104930682648717  0.5343495998419029   T   T   T
  0.6667129484492236  0.4827404655721850  0.5105018184570156   F   F   F
  0.5763997220267569  0.4263140504383500  0.5448328182496311   F   F   F
  0.6675247179802538  0.3746392032475609  0.5079482910558197   T   T   T
  0.4615906091443566  0.3391175952813305  0.4992912874813458   T   T   T
  0.6484934028780529  0.5775373212088155  0.4602701624361103   F   F   F
  0.5555580103359251  0.4367962809319728  0.7500832184428857   T   T   T
  0.6117471048048392  0.3478260811890392  0.6602906808804694   T   T   T
  0.4914550376696244  0.2979592586858975  0.4105936851841022   T   T   T
  0.6587799224225160  0.6170181664910889  0.6668077319992648   T   T   T
  0.4895618376320358  0.4107724802848137  0.3039737240361653   T   T   T
  0.6156575307682470  0.3105207707406147  0.5639978313146693   T   T   T
  0.5384781577231750  0.6834666175442627  0.4041150760579960   T   T   T
  0.3899771108069850  0.4166500410314307  0.5278466845046592   T   T   T
  0.6265908480037694  0.5511330158344397  0.2820474337348567   T   T   T
  0.4706110982217182  0.4682731770837530  0.6907724251835792   T   T   T
  0.5683115009887700  0.5094300495444983  0.4784716241115703   F   F   F
  0.4203210565129183  0.5084107200613417  0.5018573595042781   F   F   F
  0.4526915469793051  0.4007696318738892  0.4059797552480471   T   T   T
  0.5591859305976492  0.3495735415443179  0.3525757059352480   T   T   T
  0.4099097788892818  0.5402805593120908  0.6089274614968675   T   T   T
  0.5991092908967967  0.4406504008036565  0.3047720159861934   T   T   T
  0.4546319614198001  0.6000048421951362  0.3638581180466645   T   T   T
  0.4180622115220234  0.4883312173462577  0.3391127043723125   T   T   T
  0.6626769323142208  0.4281883943846054  0.6052307673965549   T   T   T
  0.6729487506139868  0.5790507273283756  0.5639677397255911   T   T   T
  0.5253917989149737  0.5088142282248408  0.3283527281760824   T   T   T
  0.5649526170645828  0.3574933758360012  0.4680219570117791   T   T   T
  0.3149478680887874  0.5412980358679921  0.4910686467642446   T   T   T
  0.6607452831290817  0.4296462500441952  0.4155601433654840   T   T   T
  0.5660841929594156  0.6261437171197244  0.5094829013827464   F   F   F
  0.5945990792970520  0.5279311834170881  0.6899925729486381   T   T   T
  0.4694712541264996  0.6414542353212026  0.5879424171137673   T   T   T
  0.4630563961616295  0.6033124910131908  0.4639447794123434   T   T   T
  0.7160547960271664  0.5741722201951220  0.3829565124514585   T   T   T
  0.5499310510395361  0.5822218838566187  0.4076968008106903   F   F   F
  0.4794126430662260  0.5072205383607624  0.4190535757241776   F   F   F
  0.6945473298725279  0.4812595357299903  0.3237956073930926   T   T   T
  0.7515587534312458  0.4303294082952402  0.4876095203475743   T   T   T
  0.7478818749193673  0.5382552258816887  0.4847028932684724   T   T   T
  0.7487230253825031  0.4918735203027344  0.5724784534435149   T   T   T
  0.6448036364967332  0.4346659038869609  0.7101500307609875   T   T   T
  0.5767181680465298  0.7435763392972400  0.4924696959754807   T   T   T
  0.6192554540844384  0.5183157687966542  0.3801816896793397   F   F   F
  0.5038359571844345  0.5584894173145779  0.6502734597297594   T   T   T
  0.4922009500451665  0.4366758245867572  0.4933013002826740   F   F   F
  0.5608844484509063  0.4404139570509003  0.6454865549417619   F   F   F
  0.5759309702381471  0.6155438445369581  0.6140696228163537   T   T   T
  0.5431786918343102  0.6166659960656279  0.3118759814476596   T   T   T
  0.6265755682765058  0.6248033915835287  0.3596288529623518   T   T   T
  0.3765646560087363  0.5567872117026821  0.4128302758338916   T   T   T
  0.4723078164089713  0.4557257050327763  0.5877273803360978   F   F   F
  0.7269107396334997  0.6355355080992338  0.4842035665723164   T   T   T
  0.5086355974857875  0.3656175302925703  0.6804279686034312   T   T   T
  0.3792689327526034  0.4426310518036315  0.6408206564703760   T   T   T
  0.5544592502646992  0.4379899399457940  0.4037542370104745   F   F   F
  0.4340097737718517  0.3656263331596288  0.6125238147624423   T   T   T
  0.5261413495384580  0.3496240725994945  0.5772807640632170   T   T   T
  0.6790555894013667  0.3587586691374435  0.6387558108720668   T   T   T
 
  0.00000000E+00  0.00000000E+00  0.00000000E+00
  0.00000000E+00  0.00000000E+00  0.00000000E+00
  0.00000000E+00  0.00000000E+00  0.00000000E+00
  0.00000000E+00  0.00000000E+00  0.00000000E+00
  0.00000000E+00  0.00000000E+00  0.00000000E+00
  0.00000000E+00  0.00000000E+00  0.00000000E+00
  0.00000000E+00  0.00000000E+00  0.00000000E+00
  0.00000000E+00  0.00000000E+00  0.00000000E+00
  0.00000000E+00  0.00000000E+00  0.00000000E+00
  0.00000000E+00  0.00000000E+00  0.00000000E+00
  0.00000000E+00  0.00000000E+00  0.00000000E+00
  0.00000000E+00  0.00000000E+00  0.00000000E+00
  0.00000000E+00  0.00000000E+00  0.00000000E+00
  0.00000000E+00  0.00000000E+00  0.00000000E+00
  0.00000000E+00  0.00000000E+00  0.00000000E+00
  0.00000000E+00  0.00000000E+00  0.00000000E+00
  0.00000000E+00  0.00000000E+00  0.00000000E+00
  0.00000000E+00  0.00000000E+00  0.00000000E+00
  0.00000000E+00  0.00000000E+00  0.00000000E+00
  0.00000000E+00  0.00000000E+00  0.00000000E+00
  0.00000000E+00  0.00000000E+00  0.00000000E+00
  0.00000000E+00  0.00000000E+00  0.00000000E+00
  0.00000000E+00  0.00000000E+00  0.00000000E+00
  0.00000000E+00  0.00000000E+00  0.00000000E+00
  0.00000000E+00  0.00000000E+00  0.00000000E+00
  0.00000000E+00  0.00000000E+00  0.00000000E+00
  0.00000000E+00  0.00000000E+00  0.00000000E+00
  0.00000000E+00  0.00000000E+00  0.00000000E+00
  0.00000000E+00  0.00000000E+00  0.00000000E+00
  0.00000000E+00  0.00000000E+00  0.00000000E+00
  0.00000000E+00  0.00000000E+00  0.00000000E+00
  0.00000000E+00  0.00000000E+00  0.00000000E+00
  0.00000000E+00  0.00000000E+00  0.00000000E+00
  0.00000000E+00  0.00000000E+00  0.00000000E+00
  0.00000000E+00  0.00000000E+00  0.00000000E+00
  0.00000000E+00  0.00000000E+00  0.00000000E+00
  0.00000000E+00  0.00000000E+00  0.00000000E+00
  0.00000000E+00  0.00000000E+00  0.00000000E+00
  0.00000000E+00  0.00000000E+00  0.00000000E+00
  0.00000000E+00  0.00000000E+00  0.00000000E+00
  0.00000000E+00  0.00000000E+00  0.00000000E+00
  0.00000000E+00  0.00000000E+00  0.00000000E+00
  0.00000000E+00  0.00000000E+00  0.00000000E+00
  0.00000000E+00  0.00000000E+00  0.00000000E+00
  0.00000000E+00  0.00000000E+00  0.00000000E+00
  0.00000000E+00  0.00000000E+00  0.00000000E+00
  0.00000000E+00  0.00000000E+00  0.00000000E+00
  0.00000000E+00  0.00000000E+00  0.00000000E+00
  0.00000000E+00  0.00000000E+00  0.00000000E+00
  0.00000000E+00  0.00000000E+00  0.00000000E+00
  0.00000000E+00  0.00000000E+00  0.00000000E+00
  0.00000000E+00  0.00000000E+00  0.00000000E+00
  0.00000000E+00  0.00000000E+00  0.00000000E+00
  0.00000000E+00  0.00000000E+00  0.00000000E+00
  0.00000000E+00  0.00000000E+00  0.00000000E+00
  0.00000000E+00  0.00000000E+00  0.00000000E+00
  0.00000000E+00  0.00000000E+00  0.00000000E+00
  0.00000000E+00  0.00000000E+00  0.00000000E+00
  0.00000000E+00  0.00000000E+00  0.00000000E+00
  0.00000000E+00  0.00000000E+00  0.00000000E+00
  0.00000000E+00  0.00000000E+00  0.00000000E+00
  0.00000000E+00  0.00000000E+00  0.00000000E+00
  0.00000000E+00  0.00000000E+00  0.00000000E+00
  0.00000000E+00  0.00000000E+00  0.00000000E+00
  0.00000000E+00  0.00000000E+00  0.00000000E+00
  0.00000000E+00  0.00000000E+00  0.00000000E+00
  0.00000000E+00  0.00000000E+00  0.00000000E+00
  0.00000000E+00  0.00000000E+00  0.00000000E+00
  0.00000000E+00  0.00000000E+00  0.00000000E+00
