Bi La Sn H                              
   1.00000000000000     
    29.0000000000000000    0.0000000000000000    0.0000000000000000
     0.2488180851000000   28.9989325590000000    0.0000000000000000
    -0.0631677343000000   -0.4515975666000000   28.9964147692999994
   Bi   La   Sn   H 
    22    23    23     1
Selective dynamics
Direct
  0.7592885663906268  0.4792770838225798  0.3996543199548073   T   T   T
  0.6470501564530059  0.6851481419749058  0.5502740236959964   T   T   T
  0.3599454044187396  0.4579905833595901  0.4283926544762229   T   T   T
  0.5501964001716515  0.7132412661673948  0.5831461145907741   T   T   T
  0.5915029568994470  0.5209714444905416  0.5841479689498996   F   F   F
  0.6397962503938722  0.6798495313770491  0.4447713565755372   T   T   T
  0.6943638469854200  0.5200577571138755  0.6555144103642603   T   T   T
  0.4865683141458711  0.7013186104802448  0.4977358841083253   T   T   T
  0.5004839460855024  0.5502791173970252  0.5477141156400123   F   F   F
  0.3255307033610261  0.4848509894883604  0.5759066449908513   T   T   T
  0.3806925677194835  0.6099404995406635  0.5348220910171027   T   T   T
  0.6667129484492236  0.4827404655721850  0.5105018184570156   F   F   F
  0.5763997220267569  0.4263140504383500  0.5448328182496311   F   F   F
  0.6695387238223633  0.3739909561537127  0.5069211081128477   T   T   T
  0.4624484662395111  0.3379553089018474  0.4973358848766878   T   T   T
  0.6484934028780529  0.5775373212088155  0.4602701624361103   F   F   F
  0.5568440552152126  0.4300236169255338  0.7490682305321410   T   T   T
  0.5971884241287800  0.3505377800358867  0.6682269095055409   T   T   T
  0.4928522516707842  0.2998035855953765  0.4077435981371520   T   T   T
  0.6590401674264926  0.6159191828982784  0.6678074715230178   T   T   T
  0.4917022613800713  0.4103056486355496  0.3051709237011961   T   T   T
  0.6212477516002683  0.3160962126247834  0.5719047626015329   T   T   T
  0.5390720459566192  0.6834073013391005  0.4034705711916249   T   T   T
  0.3898426537293067  0.4149558306223066  0.5264438372689486   T   T   T
  0.6274849092310045  0.5517241205820315  0.2819814542249013   T   T   T
  0.4745210128613976  0.4782276221064754  0.6944432017031198   T   T   T
  0.5683115009887700  0.5094300495444983  0.4784716241115703   F   F   F
  0.4203210565129183  0.5084107200613417  0.5018573595042781   F   F   F
  0.4522844048082161  0.4011976043757566  0.4053850457263786   T   T   T
  0.5635178950367348  0.3492556040724463  0.3525264836178629   T   T   T
  0.4109969403530181  0.5398532954671134  0.6092413590810872   T   T   T
  0.5992431044257982  0.4420081126052312  0.3049775773421981   T   T   T
  0.4543838650845393  0.5997186045333580  0.3635869394733764   T   T   T
  0.4183881687849387  0.4872244397766272  0.3401840429892778   T   T   T
  0.6609337705979930  0.4267372704969217  0.6045020421638673   T   T   T
  0.6732638535633565  0.5787673692688442  0.5646595403056038   T   T   T
  0.5258203097402337  0.5092690958336685  0.3279595615078465   T   T   T
  0.5661821582979023  0.3569770208213587  0.4690357758036198   T   T   T
  0.3142939998260043  0.5403181381895475  0.4921757385866460   T   T   T
  0.6604802034893837  0.4296117943787668  0.4158069239046141   T   T   T
  0.5660841929594156  0.6261437171197244  0.5094829013827464   F   F   F
  0.5915154796606393  0.5287618613649833  0.6907943969760083   T   T   T
  0.4687635938223509  0.6426035631945165  0.5861274093351401   T   T   T
  0.4622119294600435  0.6030357265587575  0.4636440529549008   T   T   T
  0.7163625964762432  0.5746974061625451  0.3833600739749455   T   T   T
  0.5499310510395361  0.5822218838566187  0.4076968008106903   F   F   F
  0.4794126430662260  0.5072205383607624  0.4190535757241776   F   F   F
  0.6951357198408222  0.4816326991573105  0.3245788009443817   T   T   T
  0.7519867039917697  0.4303050640403453  0.4886206392204429   T   T   T
  0.7481252783545954  0.5386157954384672  0.4857960065026866   T   T   T
  0.7480203699284833  0.4911769917282603  0.5735748345923692   T   T   T
  0.6461768532090473  0.4367486872375320  0.7084611587431157   T   T   T
  0.5769385292599268  0.7436099744743018  0.4921287466255328   T   T   T
  0.6192554540844384  0.5183157687966542  0.3801816896793397   F   F   F
  0.5043857029070387  0.5635169309379241  0.6488601247149961   T   T   T
  0.4922009500451665  0.4366758245867572  0.4933013002826740   F   F   F
  0.5608844484509063  0.4404139570509003  0.6454865549417619   F   F   F
  0.5774631623949880  0.6168605707356006  0.6131078543931047   T   T   T
  0.5434476290779303  0.6167710506781604  0.3118635598929537   T   T   T
  0.6267306923877144  0.6245972414512476  0.3598600235269676   T   T   T
  0.3758889142658393  0.5569769546849291  0.4135450287412633   T   T   T
  0.4723078164089713  0.4557257050327763  0.5877273803360978   F   F   F
  0.7269862033338560  0.6355977400059801  0.4847033947810150   T   T   T
  0.4974297371557710  0.3735171182279365  0.6803316284513188   T   T   T
  0.3854543536467543  0.4399719307395253  0.6396350368294997   T   T   T
  0.5544592502646992  0.4379899399457940  0.4037542370104745   F   F   F
  0.4329539410908422  0.3595769256927279  0.6055722991337487   T   T   T
  0.5274343767452202  0.3486189164501710  0.5772363122357486   T   T   T
  0.5206235772273439  0.5320862711566109  0.7277807358330012   T   T   T
 
  0.00000000E+00  0.00000000E+00  0.00000000E+00
  0.00000000E+00  0.00000000E+00  0.00000000E+00
  0.00000000E+00  0.00000000E+00  0.00000000E+00
  0.00000000E+00  0.00000000E+00  0.00000000E+00
  0.00000000E+00  0.00000000E+00  0.00000000E+00
  0.00000000E+00  0.00000000E+00  0.00000000E+00
  0.00000000E+00  0.00000000E+00  0.00000000E+00
  0.00000000E+00  0.00000000E+00  0.00000000E+00
  0.00000000E+00  0.00000000E+00  0.00000000E+00
  0.00000000E+00  0.00000000E+00  0.00000000E+00
  0.00000000E+00  0.00000000E+00  0.00000000E+00
  0.00000000E+00  0.00000000E+00  0.00000000E+00
  0.00000000E+00  0.00000000E+00  0.00000000E+00
  0.00000000E+00  0.00000000E+00  0.00000000E+00
  0.00000000E+00  0.00000000E+00  0.00000000E+00
  0.00000000E+00  0.00000000E+00  0.00000000E+00
  0.00000000E+00  0.00000000E+00  0.00000000E+00
  0.00000000E+00  0.00000000E+00  0.00000000E+00
  0.00000000E+00  0.00000000E+00  0.00000000E+00
  0.00000000E+00  0.00000000E+00  0.00000000E+00
  0.00000000E+00  0.00000000E+00  0.00000000E+00
  0.00000000E+00  0.00000000E+00  0.00000000E+00
  0.00000000E+00  0.00000000E+00  0.00000000E+00
  0.00000000E+00  0.00000000E+00  0.00000000E+00
  0.00000000E+00  0.00000000E+00  0.00000000E+00
  0.00000000E+00  0.00000000E+00  0.00000000E+00
  0.00000000E+00  0.00000000E+00  0.00000000E+00
  0.00000000E+00  0.00000000E+00  0.00000000E+00
  0.00000000E+00  0.00000000E+00  0.00000000E+00
  0.00000000E+00  0.00000000E+00  0.00000000E+00
  0.00000000E+00  0.00000000E+00  0.00000000E+00
  0.00000000E+00  0.00000000E+00  0.00000000E+00
  0.00000000E+00  0.00000000E+00  0.00000000E+00
  0.00000000E+00  0.00000000E+00  0.00000000E+00
  0.00000000E+00  0.00000000E+00  0.00000000E+00
  0.00000000E+00  0.00000000E+00  0.00000000E+00
  0.00000000E+00  0.00000000E+00  0.00000000E+00
  0.00000000E+00  0.00000000E+00  0.00000000E+00
  0.00000000E+00  0.00000000E+00  0.00000000E+00
  0.00000000E+00  0.00000000E+00  0.00000000E+00
  0.00000000E+00  0.00000000E+00  0.00000000E+00
  0.00000000E+00  0.00000000E+00  0.00000000E+00
  0.00000000E+00  0.00000000E+00  0.00000000E+00
  0.00000000E+00  0.00000000E+00  0.00000000E+00
  0.00000000E+00  0.00000000E+00  0.00000000E+00
  0.00000000E+00  0.00000000E+00  0.00000000E+00
  0.00000000E+00  0.00000000E+00  0.00000000E+00
  0.00000000E+00  0.00000000E+00  0.00000000E+00
  0.00000000E+00  0.00000000E+00  0.00000000E+00
  0.00000000E+00  0.00000000E+00  0.00000000E+00
  0.00000000E+00  0.00000000E+00  0.00000000E+00
  0.00000000E+00  0.00000000E+00  0.00000000E+00
  0.00000000E+00  0.00000000E+00  0.00000000E+00
  0.00000000E+00  0.00000000E+00  0.00000000E+00
  0.00000000E+00  0.00000000E+00  0.00000000E+00
  0.00000000E+00  0.00000000E+00  0.00000000E+00
  0.00000000E+00  0.00000000E+00  0.00000000E+00
  0.00000000E+00  0.00000000E+00  0.00000000E+00
  0.00000000E+00  0.00000000E+00  0.00000000E+00
  0.00000000E+00  0.00000000E+00  0.00000000E+00
  0.00000000E+00  0.00000000E+00  0.00000000E+00
  0.00000000E+00  0.00000000E+00  0.00000000E+00
  0.00000000E+00  0.00000000E+00  0.00000000E+00
  0.00000000E+00  0.00000000E+00  0.00000000E+00
  0.00000000E+00  0.00000000E+00  0.00000000E+00
  0.00000000E+00  0.00000000E+00  0.00000000E+00
  0.00000000E+00  0.00000000E+00  0.00000000E+00
  0.00000000E+00  0.00000000E+00  0.00000000E+00
  0.00000000E+00  0.00000000E+00  0.00000000E+00
