Bi La Sn H                              
   1.00000000000000     
    29.0000000000000000    0.0000000000000000    0.0000000000000000
     0.2488180851000000   28.9989325590000000    0.0000000000000000
    -0.0631677343000000   -0.4515975666000000   28.9964147692999994
   Bi   La   Sn   H 
    22    23    23     1
Selective dynamics
Direct
  0.7590367004814437  0.4778689031320225  0.3981657101918489   T   T   T
  0.6472009038971943  0.6838964267868989  0.5514208448280605   T   T   T
  0.3583222121951599  0.4593970533249630  0.4294055736221788   T   T   T
  0.5519680656060038  0.7137337751166166  0.5842674812575699   T   T   T
  0.5915029568994470  0.5209714444905416  0.5841479689498996   F   F   F
  0.6404729012230385  0.6794848418879610  0.4450421997361756   T   T   T
  0.6962488980587208  0.5222694820419498  0.6547014701295037   T   T   T
  0.4870636057389977  0.7020510533327438  0.4995700001232024   T   T   T
  0.5004839460855024  0.5502791173970252  0.5477141156400123   F   F   F
  0.3237350579236603  0.4861496536261035  0.5748914911591195   T   T   T
  0.3853216086506981  0.6087709662456372  0.5362470613277813   T   T   T
  0.6667129484492236  0.4827404655721850  0.5105018184570156   F   F   F
  0.5763997220267569  0.4263140504383500  0.5448328182496311   F   F   F
  0.6683476429542100  0.3742782040675297  0.5073028927998616   T   T   T
  0.4629390524208846  0.3391865251966498  0.5004206192396580   T   T   T
  0.6484934028780529  0.5775373212088155  0.4602701624361103   F   F   F
  0.5598071011287670  0.4377070625475153  0.7494130543335608   T   T   T
  0.6054929658665049  0.3524975158051540  0.6689732975379347   T   T   T
  0.4910634078259943  0.3001913200926248  0.4101281761040541   T   T   T
  0.6606596290624120  0.6186845472300654  0.6659828455041010   T   T   T
  0.4909912208447685  0.4106010026521014  0.3077344013081474   T   T   T
  0.6216380500442092  0.3158010788638314  0.5729286697297141   T   T   T
  0.5384529067558517  0.6835191677265957  0.4041877842821556   T   T   T
  0.3906736874372258  0.4161076049816837  0.5290405614445530   T   T   T
  0.6284198595241861  0.5521618721698787  0.2825267217344288   T   T   T
  0.4714854153789591  0.4689369503390851  0.6922480850767775   T   T   T
  0.5683115009887700  0.5094300495444983  0.4784716241115703   F   F   F
  0.4203210565129183  0.5084107200613417  0.5018573595042781   F   F   F
  0.4508255018636456  0.4013972219414481  0.4071839039884828   T   T   T
  0.5628580177740833  0.3486100445827171  0.3543248022626043   T   T   T
  0.4099457418264519  0.5385598470845978  0.6101151666557281   T   T   T
  0.5976323492943572  0.4424496868872249  0.3043165880884344   T   T   T
  0.4550839857843716  0.6010152265062307  0.3638719089089059   T   T   T
  0.4170904730347341  0.4875897259595278  0.3413576587663137   T   T   T
  0.6612644705207985  0.4288842434893907  0.6046618303452528   T   T   T
  0.6738445087925469  0.5783513589320033  0.5638121804473165   T   T   T
  0.5258989291197793  0.5099194881252553  0.3280260659945617   T   T   T
  0.5654086729927845  0.3574216323403811  0.4691639593668527   T   T   T
  0.3134446903828891  0.5419224493530862  0.4916601090243886   T   T   T
  0.6597418207133758  0.4295771237756857  0.4157255492017348   T   T   T
  0.5660841929594156  0.6261437171197244  0.5094829013827464   F   F   F
  0.5958504510507979  0.5292934589379849  0.6892727533538741   T   T   T
  0.4719458757272522  0.6430665720990368  0.5887789577247470   T   T   T
  0.4647928158705893  0.6035009453825967  0.4637943705720617   T   T   T
  0.7159381252273016  0.5734961257772284  0.3825314376914095   T   T   T
  0.5499310510395361  0.5822218838566187  0.4076968008106903   F   F   F
  0.4794126430662260  0.5072205383607624  0.4190535757241776   F   F   F
  0.6943558297958614  0.4795128214549988  0.3240395265983992   T   T   T
  0.7515627582368526  0.4298139567466795  0.4878075807050425   T   T   T
  0.7482574783004535  0.5373598025121571  0.4845817099458979   T   T   T
  0.7488495216711949  0.4909077580067071  0.5727095212614935   T   T   T
  0.6498518020612623  0.4380709812023429  0.7093862631127523   T   T   T
  0.5777356854048548  0.7431288778961820  0.4921154872009200   T   T   T
  0.6192554540844384  0.5183157687966542  0.3801816896793397   F   F   F
  0.5042053103837638  0.5586973247863822  0.6496247528859602   T   T   T
  0.4922009500451665  0.4366758245867572  0.4933013002826740   F   F   F
  0.5608844484509063  0.4404139570509003  0.6454865549417619   F   F   F
  0.5777054334560643  0.6160915533682378  0.6138391551111712   T   T   T
  0.5438052262626394  0.6176933878136631  0.3116375600542348   T   T   T
  0.6264920599054740  0.6248674404091465  0.3602490977791886   T   T   T
  0.3772056314823847  0.5586071578180342  0.4144968850254268   T   T   T
  0.4723078164089713  0.4557257050327763  0.5877273803360978   F   F   F
  0.7279658551310352  0.6340795758169742  0.4839377141889999   T   T   T
  0.5057264532726232  0.3670425053773390  0.6868684006753030   T   T   T
  0.3797156575751129  0.4413418125995025  0.6413473896086680   T   T   T
  0.5544592502646992  0.4379899399457940  0.4037542370104745   F   F   F
  0.4358592913790035  0.3653000652894273  0.6132235634553030   T   T   T
  0.5284869350765741  0.3490117125029994  0.5803111083771973   T   T   T
  0.3267182956795915  0.6205579224371516  0.5046232306283528   T   T   T
 
  0.00000000E+00  0.00000000E+00  0.00000000E+00
  0.00000000E+00  0.00000000E+00  0.00000000E+00
  0.00000000E+00  0.00000000E+00  0.00000000E+00
  0.00000000E+00  0.00000000E+00  0.00000000E+00
  0.00000000E+00  0.00000000E+00  0.00000000E+00
  0.00000000E+00  0.00000000E+00  0.00000000E+00
  0.00000000E+00  0.00000000E+00  0.00000000E+00
  0.00000000E+00  0.00000000E+00  0.00000000E+00
  0.00000000E+00  0.00000000E+00  0.00000000E+00
  0.00000000E+00  0.00000000E+00  0.00000000E+00
  0.00000000E+00  0.00000000E+00  0.00000000E+00
  0.00000000E+00  0.00000000E+00  0.00000000E+00
  0.00000000E+00  0.00000000E+00  0.00000000E+00
  0.00000000E+00  0.00000000E+00  0.00000000E+00
  0.00000000E+00  0.00000000E+00  0.00000000E+00
  0.00000000E+00  0.00000000E+00  0.00000000E+00
  0.00000000E+00  0.00000000E+00  0.00000000E+00
  0.00000000E+00  0.00000000E+00  0.00000000E+00
  0.00000000E+00  0.00000000E+00  0.00000000E+00
  0.00000000E+00  0.00000000E+00  0.00000000E+00
  0.00000000E+00  0.00000000E+00  0.00000000E+00
  0.00000000E+00  0.00000000E+00  0.00000000E+00
  0.00000000E+00  0.00000000E+00  0.00000000E+00
  0.00000000E+00  0.00000000E+00  0.00000000E+00
  0.00000000E+00  0.00000000E+00  0.00000000E+00
  0.00000000E+00  0.00000000E+00  0.00000000E+00
  0.00000000E+00  0.00000000E+00  0.00000000E+00
  0.00000000E+00  0.00000000E+00  0.00000000E+00
  0.00000000E+00  0.00000000E+00  0.00000000E+00
  0.00000000E+00  0.00000000E+00  0.00000000E+00
  0.00000000E+00  0.00000000E+00  0.00000000E+00
  0.00000000E+00  0.00000000E+00  0.00000000E+00
  0.00000000E+00  0.00000000E+00  0.00000000E+00
  0.00000000E+00  0.00000000E+00  0.00000000E+00
  0.00000000E+00  0.00000000E+00  0.00000000E+00
  0.00000000E+00  0.00000000E+00  0.00000000E+00
  0.00000000E+00  0.00000000E+00  0.00000000E+00
  0.00000000E+00  0.00000000E+00  0.00000000E+00
  0.00000000E+00  0.00000000E+00  0.00000000E+00
  0.00000000E+00  0.00000000E+00  0.00000000E+00
  0.00000000E+00  0.00000000E+00  0.00000000E+00
  0.00000000E+00  0.00000000E+00  0.00000000E+00
  0.00000000E+00  0.00000000E+00  0.00000000E+00
  0.00000000E+00  0.00000000E+00  0.00000000E+00
  0.00000000E+00  0.00000000E+00  0.00000000E+00
  0.00000000E+00  0.00000000E+00  0.00000000E+00
  0.00000000E+00  0.00000000E+00  0.00000000E+00
  0.00000000E+00  0.00000000E+00  0.00000000E+00
  0.00000000E+00  0.00000000E+00  0.00000000E+00
  0.00000000E+00  0.00000000E+00  0.00000000E+00
  0.00000000E+00  0.00000000E+00  0.00000000E+00
  0.00000000E+00  0.00000000E+00  0.00000000E+00
  0.00000000E+00  0.00000000E+00  0.00000000E+00
  0.00000000E+00  0.00000000E+00  0.00000000E+00
  0.00000000E+00  0.00000000E+00  0.00000000E+00
  0.00000000E+00  0.00000000E+00  0.00000000E+00
  0.00000000E+00  0.00000000E+00  0.00000000E+00
  0.00000000E+00  0.00000000E+00  0.00000000E+00
  0.00000000E+00  0.00000000E+00  0.00000000E+00
  0.00000000E+00  0.00000000E+00  0.00000000E+00
  0.00000000E+00  0.00000000E+00  0.00000000E+00
  0.00000000E+00  0.00000000E+00  0.00000000E+00
  0.00000000E+00  0.00000000E+00  0.00000000E+00
  0.00000000E+00  0.00000000E+00  0.00000000E+00
  0.00000000E+00  0.00000000E+00  0.00000000E+00
  0.00000000E+00  0.00000000E+00  0.00000000E+00
  0.00000000E+00  0.00000000E+00  0.00000000E+00
  0.00000000E+00  0.00000000E+00  0.00000000E+00
  0.00000000E+00  0.00000000E+00  0.00000000E+00
