Bi La Sn H                              
   1.00000000000000     
    29.0000000000000000    0.0000000000000000    0.0000000000000000
     0.2488180851000000   28.9989325590000000    0.0000000000000000
    -0.0631677343000000   -0.4515975666000000   28.9964147692999994
   Bi   La   Sn   H 
    22    23    23     1
Selective dynamics
Direct
  0.7588297312639443  0.4797305934642281  0.3994258374641454   T   T   T
  0.6460196141577240  0.6857449734915140  0.5524387609563098   T   T   T
  0.3597103251756639  0.4581849331635117  0.4289192091063593   T   T   T
  0.5488106379572310  0.7136281906802787  0.5843792723336624   T   T   T
  0.5915029568994470  0.5209714444905416  0.5841479689498996   F   F   F
  0.6409060703207706  0.6838887105235966  0.4449983245925407   T   T   T
  0.6974029503313182  0.5240387873273875  0.6537237226934164   T   T   T
  0.4855015217685109  0.7008190832328222  0.5000551038226757   T   T   T
  0.5004839460855024  0.5502791173970252  0.5477141156400123   F   F   F
  0.3258495921574790  0.4863213288760203  0.5756752117281455   T   T   T
  0.3819211666318105  0.6097859310809653  0.5355341043754525   T   T   T
  0.6667129484492236  0.4827404655721850  0.5105018184570156   F   F   F
  0.5763997220267569  0.4263140504383500  0.5448328182496311   F   F   F
  0.6699081842943949  0.3756666356340866  0.5057295826094003   T   T   T
  0.4638184849979129  0.3389145600934292  0.4999661119865408   T   T   T
  0.6484934028780529  0.5775373212088155  0.4602701624361103   F   F   F
  0.5597781384206977  0.4369716667755518  0.7496376609935309   T   T   T
  0.6033508997375456  0.3528764542416710  0.6714258497302773   T   T   T
  0.4928092905672243  0.2993140303173787  0.4101819321257464   T   T   T
  0.6597717545411880  0.6196164212599081  0.6658176932427848   T   T   T
  0.4916885736188201  0.4101877416677259  0.3064375831890113   T   T   T
  0.6237216644925889  0.3203111330542729  0.5746770001018491   T   T   T
  0.5373745423838332  0.6835612605027724  0.4046934458666849   T   T   T
  0.3904408023764238  0.4149931694483220  0.5281024492874857   T   T   T
  0.6283797785063935  0.5533768908059640  0.2829226329481854   T   T   T
  0.4720934784066284  0.4721974178266074  0.6925086603563743   T   T   T
  0.5683115009887700  0.5094300495444983  0.4784716241115703   F   F   F
  0.4203210565129183  0.5084107200613417  0.5018573595042781   F   F   F
  0.4522908265334278  0.4008581155722338  0.4067283755912768   T   T   T
  0.5632866936064553  0.3491365983901423  0.3538824887088663   T   T   T
  0.4116060052724480  0.5403616353045172  0.6105533967964111   T   T   T
  0.5988496483859124  0.4426872250263728  0.3039688747573991   T   T   T
  0.4546608138537764  0.5999167827049381  0.3633080979118430   T   T   T
  0.4181105487968006  0.4867399149724407  0.3401561809359076   T   T   T
  0.6610544382925324  0.4299506995972202  0.6051086803313094   T   T   T
  0.6725376598497714  0.5793293620478945  0.5639451447527508   T   T   T
  0.5262793359540648  0.5094900285708935  0.3280052484451426   T   T   T
  0.5663781984045221  0.3577607111587314  0.4690737757581747   T   T   T
  0.3153680047923226  0.5410086042176681  0.4917906950230632   T   T   T
  0.6602250354213443  0.4298235189992338  0.4147792424561237   T   T   T
  0.5660841929594156  0.6261437171197244  0.5094829013827464   F   F   F
  0.5970395577656216  0.5288897924803283  0.6893471671174637   T   T   T
  0.4694980555009495  0.6412609282734731  0.5884967339290431   T   T   T
  0.4628050950873424  0.6029792437725645  0.4640456715840212   T   T   T
  0.7157711124282102  0.5747604447598724  0.3832907143743768   T   T   T
  0.5499310510395361  0.5822218838566187  0.4076968008106903   F   F   F
  0.4794126430662260  0.5072205383607624  0.4190535757241776   F   F   F
  0.6951341776415911  0.4812746534002003  0.3239024840361039   T   T   T
  0.7530224482506812  0.4307073794943655  0.4876969269698815   T   T   T
  0.7486853269865485  0.5405417414930358  0.4856566488774741   T   T   T
  0.7490587656062057  0.4911833297280325  0.5718823703243235   T   T   T
  0.6499320418994781  0.4379811778980590  0.7093227585469339   T   T   T
  0.5747635721389914  0.7455025708839099  0.4937191016659045   T   T   T
  0.6192554540844384  0.5183157687966542  0.3801816896793397   F   F   F
  0.5059795240734115  0.5600179793093565  0.6502860951805426   T   T   T
  0.4922009500451665  0.4366758245867572  0.4933013002826740   F   F   F
  0.5608844484509063  0.4404139570509003  0.6454865549417619   F   F   F
  0.5769065495411850  0.6168026542080980  0.6134922162213097   T   T   T
  0.5436179972949053  0.6177935407555276  0.3120925043133985   T   T   T
  0.6262658477286230  0.6257469160230704  0.3620175964309523   T   T   T
  0.3765699734482838  0.5566575831220147  0.4127485994695868   T   T   T
  0.4723078164089713  0.4557257050327763  0.5877273803360978   F   F   F
  0.7248653114627635  0.6371861837288153  0.4859067354352202   T   T   T
  0.5031158685890718  0.3698474317261095  0.6863560545209139   T   T   T
  0.3817479255023953  0.4415109780673921  0.6413358409546548   T   T   T
  0.5544592502646992  0.4379899399457940  0.4037542370104745   F   F   F
  0.4347215844671094  0.3639546523590552  0.6114734060458265   T   T   T
  0.5283346019952085  0.3494780529428240  0.5804632453772628   T   T   T
  0.6577518197637433  0.7457952758065206  0.4388037957500062   T   T   T
 
  0.00000000E+00  0.00000000E+00  0.00000000E+00
  0.00000000E+00  0.00000000E+00  0.00000000E+00
  0.00000000E+00  0.00000000E+00  0.00000000E+00
  0.00000000E+00  0.00000000E+00  0.00000000E+00
  0.00000000E+00  0.00000000E+00  0.00000000E+00
  0.00000000E+00  0.00000000E+00  0.00000000E+00
  0.00000000E+00  0.00000000E+00  0.00000000E+00
  0.00000000E+00  0.00000000E+00  0.00000000E+00
  0.00000000E+00  0.00000000E+00  0.00000000E+00
  0.00000000E+00  0.00000000E+00  0.00000000E+00
  0.00000000E+00  0.00000000E+00  0.00000000E+00
  0.00000000E+00  0.00000000E+00  0.00000000E+00
  0.00000000E+00  0.00000000E+00  0.00000000E+00
  0.00000000E+00  0.00000000E+00  0.00000000E+00
  0.00000000E+00  0.00000000E+00  0.00000000E+00
  0.00000000E+00  0.00000000E+00  0.00000000E+00
  0.00000000E+00  0.00000000E+00  0.00000000E+00
  0.00000000E+00  0.00000000E+00  0.00000000E+00
  0.00000000E+00  0.00000000E+00  0.00000000E+00
  0.00000000E+00  0.00000000E+00  0.00000000E+00
  0.00000000E+00  0.00000000E+00  0.00000000E+00
  0.00000000E+00  0.00000000E+00  0.00000000E+00
  0.00000000E+00  0.00000000E+00  0.00000000E+00
  0.00000000E+00  0.00000000E+00  0.00000000E+00
  0.00000000E+00  0.00000000E+00  0.00000000E+00
  0.00000000E+00  0.00000000E+00  0.00000000E+00
  0.00000000E+00  0.00000000E+00  0.00000000E+00
  0.00000000E+00  0.00000000E+00  0.00000000E+00
  0.00000000E+00  0.00000000E+00  0.00000000E+00
  0.00000000E+00  0.00000000E+00  0.00000000E+00
  0.00000000E+00  0.00000000E+00  0.00000000E+00
  0.00000000E+00  0.00000000E+00  0.00000000E+00
  0.00000000E+00  0.00000000E+00  0.00000000E+00
  0.00000000E+00  0.00000000E+00  0.00000000E+00
  0.00000000E+00  0.00000000E+00  0.00000000E+00
  0.00000000E+00  0.00000000E+00  0.00000000E+00
  0.00000000E+00  0.00000000E+00  0.00000000E+00
  0.00000000E+00  0.00000000E+00  0.00000000E+00
  0.00000000E+00  0.00000000E+00  0.00000000E+00
  0.00000000E+00  0.00000000E+00  0.00000000E+00
  0.00000000E+00  0.00000000E+00  0.00000000E+00
  0.00000000E+00  0.00000000E+00  0.00000000E+00
  0.00000000E+00  0.00000000E+00  0.00000000E+00
  0.00000000E+00  0.00000000E+00  0.00000000E+00
  0.00000000E+00  0.00000000E+00  0.00000000E+00
  0.00000000E+00  0.00000000E+00  0.00000000E+00
  0.00000000E+00  0.00000000E+00  0.00000000E+00
  0.00000000E+00  0.00000000E+00  0.00000000E+00
  0.00000000E+00  0.00000000E+00  0.00000000E+00
  0.00000000E+00  0.00000000E+00  0.00000000E+00
  0.00000000E+00  0.00000000E+00  0.00000000E+00
  0.00000000E+00  0.00000000E+00  0.00000000E+00
  0.00000000E+00  0.00000000E+00  0.00000000E+00
  0.00000000E+00  0.00000000E+00  0.00000000E+00
  0.00000000E+00  0.00000000E+00  0.00000000E+00
  0.00000000E+00  0.00000000E+00  0.00000000E+00
  0.00000000E+00  0.00000000E+00  0.00000000E+00
  0.00000000E+00  0.00000000E+00  0.00000000E+00
  0.00000000E+00  0.00000000E+00  0.00000000E+00
  0.00000000E+00  0.00000000E+00  0.00000000E+00
  0.00000000E+00  0.00000000E+00  0.00000000E+00
  0.00000000E+00  0.00000000E+00  0.00000000E+00
  0.00000000E+00  0.00000000E+00  0.00000000E+00
  0.00000000E+00  0.00000000E+00  0.00000000E+00
  0.00000000E+00  0.00000000E+00  0.00000000E+00
  0.00000000E+00  0.00000000E+00  0.00000000E+00
  0.00000000E+00  0.00000000E+00  0.00000000E+00
  0.00000000E+00  0.00000000E+00  0.00000000E+00
  0.00000000E+00  0.00000000E+00  0.00000000E+00
