Bi La Sn H                              
   1.00000000000000     
    29.0000000000000000    0.0000000000000000    0.0000000000000000
     0.2488180851000000   28.9989325590000000    0.0000000000000000
    -0.0631677343000000   -0.4515975666000000   28.9964147692999994
   Bi   La   Sn   H 
    22    23    23     1
Selective dynamics
Direct
  0.7591879670935713  0.4779186477124582  0.3986369259290517   T   T   T
  0.6478109360273244  0.6848333783215061  0.5496054915168431   T   T   T
  0.3595529998535023  0.4582537274987966  0.4291658832035418   T   T   T
  0.5513839405715407  0.7139151634179417  0.5831632838312153   T   T   T
  0.5915029568994470  0.5209714444905416  0.5841479689498996   F   F   F
  0.6391983507024094  0.6790947896183633  0.4437891204790393   T   T   T
  0.6960982063453166  0.5204405180166896  0.6532378642240758   T   T   T
  0.4866671592047163  0.7015882903231592  0.4988462642993624   T   T   T
  0.5004839460855024  0.5502791173970252  0.5477141156400123   F   F   F
  0.3265006131060107  0.4850252867477388  0.5754091925073421   T   T   T
  0.3825787041966758  0.6110783733212297  0.5359257522560443   T   T   T
  0.6667129484492236  0.4827404655721850  0.5105018184570156   F   F   F
  0.5763997220267569  0.4263140504383500  0.5448328182496311   F   F   F
  0.6684146446120296  0.3736241789921153  0.5054249150752383   T   T   T
  0.4626428401839874  0.3374160870858952  0.4992403607180720   T   T   T
  0.6484934028780529  0.5775373212088155  0.4602701624361103   F   F   F
  0.5582510656509320  0.4348359190316407  0.7497409514183723   T   T   T
  0.6002603632899086  0.3494537048792807  0.6688612274171222   T   T   T
  0.4924947298180933  0.2986107269722137  0.4092979203363698   T   T   T
  0.6610144492200122  0.6163788037251249  0.6678097715875997   T   T   T
  0.4920904847544905  0.4096055869121015  0.3070820378316302   T   T   T
  0.6229204809950325  0.3159158601689849  0.5728103641103460   T   T   T
  0.5382620023310742  0.6834765779223277  0.4033210172705568   T   T   T
  0.3904178993480407  0.4141382236894786  0.5267550729059741   T   T   T
  0.6283871660188025  0.5510840804266880  0.2817300724671682   T   T   T
  0.4718754193693561  0.4762577934792384  0.6929554066046082   T   T   T
  0.5683115009887700  0.5094300495444983  0.4784716241115703   F   F   F
  0.4203210565129183  0.5084107200613417  0.5018573595042781   F   F   F
  0.4520392145321985  0.4003668613154148  0.4071148455037800   T   T   T
  0.5635665663497600  0.3483256068723611  0.3543207405449713   T   T   T
  0.4115486180557644  0.5398987224780243  0.6111006193127624   T   T   T
  0.5985833119725893  0.4417782812331872  0.3042168384870923   T   T   T
  0.4548899182389956  0.5991569384375880  0.3626548140081863   T   T   T
  0.4180115496733743  0.4861012473293342  0.3410966657852397   T   T   T
  0.6611095071176581  0.4261327172242335  0.6037683030994628   T   T   T
  0.6741465974684379  0.5789952812772462  0.5640015227276582   T   T   T
  0.5263691503959206  0.5092756107191045  0.3278753988366446   T   T   T
  0.5652715847654914  0.3569867732027077  0.4694339023399597   T   T   T
  0.3162523982224834  0.5422050519570860  0.4925647647276455   T   T   T
  0.6598957632459629  0.4299455278006714  0.4154401765058099   T   T   T
  0.5660841929594156  0.6261437171197244  0.5094829013827464   F   F   F
  0.5966016481811823  0.5273455299246679  0.6902018854068774   T   T   T
  0.4710066789390543  0.6425100008303413  0.5875339974764908   T   T   T
  0.4625272424742858  0.6036736198545914  0.4637019035417138   T   T   T
  0.7160438183240129  0.5732762892791858  0.3827275785727496   T   T   T
  0.5499310510395361  0.5822218838566187  0.4076968008106903   F   F   F
  0.4794126430662260  0.5072205383607624  0.4190535757241776   F   F   F
  0.6948866860504446  0.4798001587443907  0.3239191582884083   T   T   T
  0.7518151436431465  0.4285353782704510  0.4873196508541476   T   T   T
  0.7483160378522038  0.5375444883766455  0.4850762208396783   T   T   T
  0.7492953699027429  0.4896535925440710  0.5717930863961059   T   T   T
  0.6478508946958268  0.4342607269293434  0.7081820568656852   T   T   T
  0.5774207735898589  0.7433075530418398  0.4917883324772913   T   T   T
  0.6192554540844384  0.5183157687966542  0.3801816896793397   F   F   F
  0.5082813267825552  0.5609385816221975  0.6475970634570353   T   T   T
  0.4922009500451665  0.4366758245867572  0.4933013002826740   F   F   F
  0.5608844484509063  0.4404139570509003  0.6454865549417619   F   F   F
  0.5798086046374910  0.6177874338612855  0.6131210039969164   T   T   T
  0.5439948445413429  0.6166920193328498  0.3114525990003655   T   T   T
  0.6270726482312962  0.6242754516772100  0.3587956688067596   T   T   T
  0.3763946991312760  0.5570976819708876  0.4126565902620539   T   T   T
  0.4723078164089713  0.4557257050327763  0.5877273803360978   F   F   F
  0.7272463506225308  0.6347250189992620  0.4831981012502963   T   T   T
  0.5011068062430192  0.3719911806316600  0.6834818319142616   T   T   T
  0.3835358560589642  0.4390175568253788  0.6400933478765949   T   T   T
  0.5544592502646992  0.4379899399457940  0.4037542370104745   F   F   F
  0.4357174264726168  0.3615169764868438  0.6073973088781190   T   T   T
  0.5290399721294073  0.3482766072210925  0.5783053477095988   T   T   T
  0.4221912639934348  0.5384814653054092  0.6878102289522756   T   T   T
 
  0.00000000E+00  0.00000000E+00  0.00000000E+00
  0.00000000E+00  0.00000000E+00  0.00000000E+00
  0.00000000E+00  0.00000000E+00  0.00000000E+00
  0.00000000E+00  0.00000000E+00  0.00000000E+00
  0.00000000E+00  0.00000000E+00  0.00000000E+00
  0.00000000E+00  0.00000000E+00  0.00000000E+00
  0.00000000E+00  0.00000000E+00  0.00000000E+00
  0.00000000E+00  0.00000000E+00  0.00000000E+00
  0.00000000E+00  0.00000000E+00  0.00000000E+00
  0.00000000E+00  0.00000000E+00  0.00000000E+00
  0.00000000E+00  0.00000000E+00  0.00000000E+00
  0.00000000E+00  0.00000000E+00  0.00000000E+00
  0.00000000E+00  0.00000000E+00  0.00000000E+00
  0.00000000E+00  0.00000000E+00  0.00000000E+00
  0.00000000E+00  0.00000000E+00  0.00000000E+00
  0.00000000E+00  0.00000000E+00  0.00000000E+00
  0.00000000E+00  0.00000000E+00  0.00000000E+00
  0.00000000E+00  0.00000000E+00  0.00000000E+00
  0.00000000E+00  0.00000000E+00  0.00000000E+00
  0.00000000E+00  0.00000000E+00  0.00000000E+00
  0.00000000E+00  0.00000000E+00  0.00000000E+00
  0.00000000E+00  0.00000000E+00  0.00000000E+00
  0.00000000E+00  0.00000000E+00  0.00000000E+00
  0.00000000E+00  0.00000000E+00  0.00000000E+00
  0.00000000E+00  0.00000000E+00  0.00000000E+00
  0.00000000E+00  0.00000000E+00  0.00000000E+00
  0.00000000E+00  0.00000000E+00  0.00000000E+00
  0.00000000E+00  0.00000000E+00  0.00000000E+00
  0.00000000E+00  0.00000000E+00  0.00000000E+00
  0.00000000E+00  0.00000000E+00  0.00000000E+00
  0.00000000E+00  0.00000000E+00  0.00000000E+00
  0.00000000E+00  0.00000000E+00  0.00000000E+00
  0.00000000E+00  0.00000000E+00  0.00000000E+00
  0.00000000E+00  0.00000000E+00  0.00000000E+00
  0.00000000E+00  0.00000000E+00  0.00000000E+00
  0.00000000E+00  0.00000000E+00  0.00000000E+00
  0.00000000E+00  0.00000000E+00  0.00000000E+00
  0.00000000E+00  0.00000000E+00  0.00000000E+00
  0.00000000E+00  0.00000000E+00  0.00000000E+00
  0.00000000E+00  0.00000000E+00  0.00000000E+00
  0.00000000E+00  0.00000000E+00  0.00000000E+00
  0.00000000E+00  0.00000000E+00  0.00000000E+00
  0.00000000E+00  0.00000000E+00  0.00000000E+00
  0.00000000E+00  0.00000000E+00  0.00000000E+00
  0.00000000E+00  0.00000000E+00  0.00000000E+00
  0.00000000E+00  0.00000000E+00  0.00000000E+00
  0.00000000E+00  0.00000000E+00  0.00000000E+00
  0.00000000E+00  0.00000000E+00  0.00000000E+00
  0.00000000E+00  0.00000000E+00  0.00000000E+00
  0.00000000E+00  0.00000000E+00  0.00000000E+00
  0.00000000E+00  0.00000000E+00  0.00000000E+00
  0.00000000E+00  0.00000000E+00  0.00000000E+00
  0.00000000E+00  0.00000000E+00  0.00000000E+00
  0.00000000E+00  0.00000000E+00  0.00000000E+00
  0.00000000E+00  0.00000000E+00  0.00000000E+00
  0.00000000E+00  0.00000000E+00  0.00000000E+00
  0.00000000E+00  0.00000000E+00  0.00000000E+00
  0.00000000E+00  0.00000000E+00  0.00000000E+00
  0.00000000E+00  0.00000000E+00  0.00000000E+00
  0.00000000E+00  0.00000000E+00  0.00000000E+00
  0.00000000E+00  0.00000000E+00  0.00000000E+00
  0.00000000E+00  0.00000000E+00  0.00000000E+00
  0.00000000E+00  0.00000000E+00  0.00000000E+00
  0.00000000E+00  0.00000000E+00  0.00000000E+00
  0.00000000E+00  0.00000000E+00  0.00000000E+00
  0.00000000E+00  0.00000000E+00  0.00000000E+00
  0.00000000E+00  0.00000000E+00  0.00000000E+00
  0.00000000E+00  0.00000000E+00  0.00000000E+00
  0.00000000E+00  0.00000000E+00  0.00000000E+00
