Bi La Sn H                              
   1.00000000000000     
    29.0000000000000000    0.0000000000000000    0.0000000000000000
     0.2488180851000000   28.9989325590000000    0.0000000000000000
    -0.0631677343000000   -0.4515975666000000   28.9964147692999994
   Bi   La   Sn   H 
    22    23    23     1
Selective dynamics
Direct
  0.7596491162218277  0.4759528769231576  0.3991594986547966   T   T   T
  0.6465632011578047  0.6843181192323422  0.5526338151849346   T   T   T
  0.3597054765128808  0.4591617371594658  0.4284595993767387   T   T   T
  0.5506624853598533  0.7131398260258399  0.5846637749465544   T   T   T
  0.5915029568994470  0.5209714444905416  0.5841479689498996   F   F   F
  0.6402839464886846  0.6804729856124010  0.4461681689623295   T   T   T
  0.6979054931515980  0.5239567117990943  0.6552835581219593   T   T   T
  0.4866465464382318  0.7013605240827960  0.4997446148244238   T   T   T
  0.5004839460855024  0.5502791173970252  0.5477141156400123   F   F   F
  0.3250323619319897  0.4863978233913422  0.5750684752925976   T   T   T
  0.3823886354707922  0.6106809483715215  0.5353751538851808   T   T   T
  0.6667129484492236  0.4827404655721850  0.5105018184570156   F   F   F
  0.5763997220267569  0.4263140504383500  0.5448328182496311   F   F   F
  0.6688533071284726  0.3755795567495762  0.5112785009238714   T   T   T
  0.4635622057120535  0.3390341132191877  0.4991197161863618   T   T   T
  0.6484934028780529  0.5775373212088155  0.4602701624361103   F   F   F
  0.5588416456390204  0.4385423897104517  0.7496193310221312   T   T   T
  0.6046143052047723  0.3525917506003511  0.6692192184912024   T   T   T
  0.4928579898319450  0.3004962726255197  0.4088540945255506   T   T   T
  0.6606416453778721  0.6193155349480568  0.6657154250201187   T   T   T
  0.4923060846407353  0.4107780622266168  0.3072506610085525   T   T   T
  0.6206051467484478  0.3152395604907812  0.5737411217135291   T   T   T
  0.5394333358609057  0.6836723828280098  0.4048067329144014   T   T   T
  0.3904380825931033  0.4157634686232031  0.5273774453039746   T   T   T
  0.6297119132869665  0.5520043506594365  0.2827875905874976   T   T   T
  0.4717402551531276  0.4707658228926245  0.6923688056412872   T   T   T
  0.5683115009887700  0.5094300495444983  0.4784716241115703   F   F   F
  0.4203210565129183  0.5084107200613417  0.5018573595042781   F   F   F
  0.4518634868467796  0.4014449918254331  0.4061996027078544   T   T   T
  0.5657209844969013  0.3482245302243128  0.3533885288940149   T   T   T
  0.4110347331736571  0.5402643584515420  0.6096919466715722   T   T   T
  0.5976952178651482  0.4432359371505707  0.3045441344454247   T   T   T
  0.4555281659363795  0.6006841623476971  0.3630702465996468   T   T   T
  0.4182822612963781  0.4877391456017481  0.3401508842792302   T   T   T
  0.6611329595662659  0.4304761682451454  0.6064107473057214   T   T   T
  0.6736538515927041  0.5781758181254278  0.5640697858209731   T   T   T
  0.5261398047041568  0.5104613166435901  0.3278782716019201   T   T   T
  0.5673447294399698  0.3573463791986127  0.4688521726078557   T   T   T
  0.3158200190413553  0.5420984680210945  0.4915190059786009   T   T   T
  0.6593854149187294  0.4269661262837310  0.4162333039966861   T   T   T
  0.5660841929594156  0.6261437171197244  0.5094829013827464   F   F   F
  0.5969069870041637  0.5288751476918373  0.6893520709206217   T   T   T
  0.4704107986699058  0.6414216671588984  0.5884818925374472   T   T   T
  0.4632354053607963  0.6036395971986543  0.4639460582010270   T   T   T
  0.7170657082038794  0.5720716224772219  0.3835844009666854   T   T   T
  0.5499310510395361  0.5822218838566187  0.4076968008106903   F   F   F
  0.4794126430662260  0.5072205383607624  0.4190535757241776   F   F   F
  0.6946882298096758  0.4786735390824917  0.3253875264637665   T   T   T
  0.7519747825674947  0.4291491660536787  0.4888258132312785   T   T   T
  0.7485285424720899  0.5374119469198037  0.4851117837260771   T   T   T
  0.7492050906475510  0.4909156241392795  0.5727351607373465   T   T   T
  0.6490067572856072  0.4374827599157433  0.7109206874574123   T   T   T
  0.5770638435903074  0.7434957611334303  0.4932571372472651   T   T   T
  0.6192554540844384  0.5183157687966542  0.3801816896793397   F   F   F
  0.5055958009673713  0.5588070758688028  0.6499324642307065   T   T   T
  0.4922009500451665  0.4366758245867572  0.4933013002826740   F   F   F
  0.5608844484509063  0.4404139570509003  0.6454865549417619   F   F   F
  0.5773682317959596  0.6162310609264181  0.6136782763658092   T   T   T
  0.5462022785673298  0.6179033222974862  0.3128251171840585   T   T   T
  0.6289316806065736  0.6246421878345688  0.3613418950387706   T   T   T
  0.3774454477179703  0.5582627097576074  0.4130808105380326   T   T   T
  0.4723078164089713  0.4557257050327763  0.5877273803360978   F   F   F
  0.7274162885524212  0.6346010058302136  0.4845655703897052   T   T   T
  0.5038050274790388  0.3684624052111101  0.6836845819959576   T   T   T
  0.3815166312195601  0.4414040148980871  0.6406439033908585   T   T   T
  0.5544592502646992  0.4379899399457940  0.4037542370104745   F   F   F
  0.4331457541088383  0.3634432061144531  0.6103153975830546   T   T   T
  0.5274539229576028  0.3497284161619510  0.5797757924123143   T   T   T
  0.6221782715784864  0.3556052745689445  0.4087131496265851   T   T   T
 
  0.00000000E+00  0.00000000E+00  0.00000000E+00
  0.00000000E+00  0.00000000E+00  0.00000000E+00
  0.00000000E+00  0.00000000E+00  0.00000000E+00
  0.00000000E+00  0.00000000E+00  0.00000000E+00
  0.00000000E+00  0.00000000E+00  0.00000000E+00
  0.00000000E+00  0.00000000E+00  0.00000000E+00
  0.00000000E+00  0.00000000E+00  0.00000000E+00
  0.00000000E+00  0.00000000E+00  0.00000000E+00
  0.00000000E+00  0.00000000E+00  0.00000000E+00
  0.00000000E+00  0.00000000E+00  0.00000000E+00
  0.00000000E+00  0.00000000E+00  0.00000000E+00
  0.00000000E+00  0.00000000E+00  0.00000000E+00
  0.00000000E+00  0.00000000E+00  0.00000000E+00
  0.00000000E+00  0.00000000E+00  0.00000000E+00
  0.00000000E+00  0.00000000E+00  0.00000000E+00
  0.00000000E+00  0.00000000E+00  0.00000000E+00
  0.00000000E+00  0.00000000E+00  0.00000000E+00
  0.00000000E+00  0.00000000E+00  0.00000000E+00
  0.00000000E+00  0.00000000E+00  0.00000000E+00
  0.00000000E+00  0.00000000E+00  0.00000000E+00
  0.00000000E+00  0.00000000E+00  0.00000000E+00
  0.00000000E+00  0.00000000E+00  0.00000000E+00
  0.00000000E+00  0.00000000E+00  0.00000000E+00
  0.00000000E+00  0.00000000E+00  0.00000000E+00
  0.00000000E+00  0.00000000E+00  0.00000000E+00
  0.00000000E+00  0.00000000E+00  0.00000000E+00
  0.00000000E+00  0.00000000E+00  0.00000000E+00
  0.00000000E+00  0.00000000E+00  0.00000000E+00
  0.00000000E+00  0.00000000E+00  0.00000000E+00
  0.00000000E+00  0.00000000E+00  0.00000000E+00
  0.00000000E+00  0.00000000E+00  0.00000000E+00
  0.00000000E+00  0.00000000E+00  0.00000000E+00
  0.00000000E+00  0.00000000E+00  0.00000000E+00
  0.00000000E+00  0.00000000E+00  0.00000000E+00
  0.00000000E+00  0.00000000E+00  0.00000000E+00
  0.00000000E+00  0.00000000E+00  0.00000000E+00
  0.00000000E+00  0.00000000E+00  0.00000000E+00
  0.00000000E+00  0.00000000E+00  0.00000000E+00
  0.00000000E+00  0.00000000E+00  0.00000000E+00
  0.00000000E+00  0.00000000E+00  0.00000000E+00
  0.00000000E+00  0.00000000E+00  0.00000000E+00
  0.00000000E+00  0.00000000E+00  0.00000000E+00
  0.00000000E+00  0.00000000E+00  0.00000000E+00
  0.00000000E+00  0.00000000E+00  0.00000000E+00
  0.00000000E+00  0.00000000E+00  0.00000000E+00
  0.00000000E+00  0.00000000E+00  0.00000000E+00
  0.00000000E+00  0.00000000E+00  0.00000000E+00
  0.00000000E+00  0.00000000E+00  0.00000000E+00
  0.00000000E+00  0.00000000E+00  0.00000000E+00
  0.00000000E+00  0.00000000E+00  0.00000000E+00
  0.00000000E+00  0.00000000E+00  0.00000000E+00
  0.00000000E+00  0.00000000E+00  0.00000000E+00
  0.00000000E+00  0.00000000E+00  0.00000000E+00
  0.00000000E+00  0.00000000E+00  0.00000000E+00
  0.00000000E+00  0.00000000E+00  0.00000000E+00
  0.00000000E+00  0.00000000E+00  0.00000000E+00
  0.00000000E+00  0.00000000E+00  0.00000000E+00
  0.00000000E+00  0.00000000E+00  0.00000000E+00
  0.00000000E+00  0.00000000E+00  0.00000000E+00
  0.00000000E+00  0.00000000E+00  0.00000000E+00
  0.00000000E+00  0.00000000E+00  0.00000000E+00
  0.00000000E+00  0.00000000E+00  0.00000000E+00
  0.00000000E+00  0.00000000E+00  0.00000000E+00
  0.00000000E+00  0.00000000E+00  0.00000000E+00
  0.00000000E+00  0.00000000E+00  0.00000000E+00
  0.00000000E+00  0.00000000E+00  0.00000000E+00
  0.00000000E+00  0.00000000E+00  0.00000000E+00
  0.00000000E+00  0.00000000E+00  0.00000000E+00
  0.00000000E+00  0.00000000E+00  0.00000000E+00
