Bi La Sn H                              
   1.00000000000000     
    29.0000000000000000    0.0000000000000000    0.0000000000000000
     0.2488180851000000   28.9989325590000000    0.0000000000000000
    -0.0631677343000000   -0.4515975666000000   28.9964147692999994
   Bi   La   Sn   H 
    22    23    23     1
Selective dynamics
Direct
  0.7596600048055928  0.4786002729680544  0.3995434471541610   T   T   T
  0.6468333305566877  0.6842680185883383  0.5524715341153079   T   T   T
  0.3600445730745596  0.4583164200298639  0.4279034623903196   T   T   T
  0.5502290352499586  0.7130016632783364  0.5847215575692977   T   T   T
  0.5915029568994470  0.5209714444905416  0.5841479689498996   F   F   F
  0.6401170983324267  0.6802728667898187  0.4459175869539682   T   T   T
  0.6993649742032416  0.5241876327225585  0.6550187898678639   T   T   T
  0.4862705706235565  0.7007979097904055  0.4997291361537446   T   T   T
  0.5004839460855024  0.5502791173970252  0.5477141156400123   F   F   F
  0.3254239203595941  0.4866127156685395  0.5754164654683209   T   T   T
  0.3818451602062314  0.6101357164654148  0.5354803202044293   T   T   T
  0.6667129484492236  0.4827404655721850  0.5105018184570156   F   F   F
  0.5763997220267569  0.4263140504383500  0.5448328182496311   F   F   F
  0.6683920515402572  0.3740345104991969  0.5077627842186805   T   T   T
  0.4631768598941828  0.3395870612081608  0.5005131981887023   T   T   T
  0.6484934028780529  0.5775373212088155  0.4602701624361103   F   F   F
  0.5624775154862036  0.4382360405182561  0.7489245486690947   T   T   T
  0.6068665509090546  0.3548954562288130  0.6702021227214531   T   T   T
  0.4919879701158494  0.2988985675689539  0.4107899814793505   T   T   T
  0.6603446678871732  0.6197789282549893  0.6655980673246511   T   T   T
  0.4914519031408385  0.4101378478674857  0.3059678804103392   T   T   T
  0.6213122455991777  0.3164112313513810  0.5739045529506701   T   T   T
  0.5389739778567484  0.6835811281572515  0.4046304261688030   T   T   T
  0.3898550975221859  0.4161113735635969  0.5274416989475756   T   T   T
  0.6287970957441423  0.5521833396177040  0.2827233382993238   T   T   T
  0.4734649940859611  0.4701794483751360  0.6930799272551613   T   T   T
  0.5683115009887700  0.5094300495444983  0.4784716241115703   F   F   F
  0.4203210565129183  0.5084107200613417  0.5018573595042781   F   F   F
  0.4525601891781926  0.4007185747691369  0.4064640614983691   T   T   T
  0.5621864479885812  0.3485505184148482  0.3539873921910204   T   T   T
  0.4117005635672704  0.5402538330548560  0.6102732889506854   T   T   T
  0.5989458629392858  0.4420844547031729  0.3046381399409250   T   T   T
  0.4549037053255885  0.6001645211564876  0.3635352691410664   T   T   T
  0.4183633958609432  0.4872997193392047  0.3395317805701461   T   T   T
  0.6608882184729509  0.4301275955355158  0.6052257430879916   T   T   T
  0.6734918439016079  0.5781450213463896  0.5642261530777415   T   T   T
  0.5262109450635977  0.5092526228513147  0.3279784789513410   T   T   T
  0.5659439545810040  0.3572501236305559  0.4692046936082239   T   T   T
  0.3152854104878153  0.5414790521049967  0.4915594392265325   T   T   T
  0.6601744318678452  0.4294447239923089  0.4162986984484712   T   T   T
  0.5660841929594156  0.6261437171197244  0.5094829013827464   F   F   F
  0.5985095902560456  0.5287542147418467  0.6887942517051602   T   T   T
  0.4699111816694738  0.6409751386920555  0.5886018625419156   T   T   T
  0.4624020072550185  0.6032489284734600  0.4637933868085395   T   T   T
  0.7163536355349215  0.5741267257782806  0.3833926825150322   T   T   T
  0.5499310510395361  0.5822218838566187  0.4076968008106903   F   F   F
  0.4794126430662260  0.5072205383607624  0.4190535757241776   F   F   F
  0.6950477099805213  0.4804620551109965  0.3250255929495797   T   T   T
  0.7514294784769456  0.4290805807650233  0.4882141481850553   T   T   T
  0.7483839620687968  0.5382280151111954  0.4855413042324886   T   T   T
  0.7496069961972373  0.4903072177829325  0.5722726158472288   T   T   T
  0.6544535692631376  0.4388222588448253  0.7098833431900033   T   T   T
  0.5767633214636203  0.7430379955090756  0.4934633507339959   T   T   T
  0.6192554540844384  0.5183157687966542  0.3801816896793397   F   F   F
  0.5061979227188108  0.5588284922308001  0.6502954223439820   T   T   T
  0.4922009500451665  0.4366758245867572  0.4933013002826740   F   F   F
  0.5608844484509063  0.4404139570509003  0.6454865549417619   F   F   F
  0.5773731911219031  0.6162675550348874  0.6134467824841258   T   T   T
  0.5441674136178716  0.6166657896534047  0.3123027725423634   T   T   T
  0.6270277429182178  0.6252421241467937  0.3608005822348789   T   T   T
  0.3769425807217250  0.5565828507815317  0.4126368944754940   T   T   T
  0.4723078164089713  0.4557257050327763  0.5877273803360978   F   F   F
  0.7270952007619530  0.6351277627962727  0.4850699655448569   T   T   T
  0.5044905642868589  0.3682369645511109  0.6826574033596134   T   T   T
  0.3826735837243801  0.4419110098721626  0.6405856054020602   T   T   T
  0.5544592502646992  0.4379899399457940  0.4037542370104745   F   F   F
  0.4324549932542899  0.3629885047527818  0.6097349654341363   T   T   T
  0.5278609945650873  0.3498542909562229  0.5808175499001349   T   T   T
  0.6886306143973885  0.4304823720510403  0.7594469568333366   T   T   T
 
  0.00000000E+00  0.00000000E+00  0.00000000E+00
  0.00000000E+00  0.00000000E+00  0.00000000E+00
  0.00000000E+00  0.00000000E+00  0.00000000E+00
  0.00000000E+00  0.00000000E+00  0.00000000E+00
  0.00000000E+00  0.00000000E+00  0.00000000E+00
  0.00000000E+00  0.00000000E+00  0.00000000E+00
  0.00000000E+00  0.00000000E+00  0.00000000E+00
  0.00000000E+00  0.00000000E+00  0.00000000E+00
  0.00000000E+00  0.00000000E+00  0.00000000E+00
  0.00000000E+00  0.00000000E+00  0.00000000E+00
  0.00000000E+00  0.00000000E+00  0.00000000E+00
  0.00000000E+00  0.00000000E+00  0.00000000E+00
  0.00000000E+00  0.00000000E+00  0.00000000E+00
  0.00000000E+00  0.00000000E+00  0.00000000E+00
  0.00000000E+00  0.00000000E+00  0.00000000E+00
  0.00000000E+00  0.00000000E+00  0.00000000E+00
  0.00000000E+00  0.00000000E+00  0.00000000E+00
  0.00000000E+00  0.00000000E+00  0.00000000E+00
  0.00000000E+00  0.00000000E+00  0.00000000E+00
  0.00000000E+00  0.00000000E+00  0.00000000E+00
  0.00000000E+00  0.00000000E+00  0.00000000E+00
  0.00000000E+00  0.00000000E+00  0.00000000E+00
  0.00000000E+00  0.00000000E+00  0.00000000E+00
  0.00000000E+00  0.00000000E+00  0.00000000E+00
  0.00000000E+00  0.00000000E+00  0.00000000E+00
  0.00000000E+00  0.00000000E+00  0.00000000E+00
  0.00000000E+00  0.00000000E+00  0.00000000E+00
  0.00000000E+00  0.00000000E+00  0.00000000E+00
  0.00000000E+00  0.00000000E+00  0.00000000E+00
  0.00000000E+00  0.00000000E+00  0.00000000E+00
  0.00000000E+00  0.00000000E+00  0.00000000E+00
  0.00000000E+00  0.00000000E+00  0.00000000E+00
  0.00000000E+00  0.00000000E+00  0.00000000E+00
  0.00000000E+00  0.00000000E+00  0.00000000E+00
  0.00000000E+00  0.00000000E+00  0.00000000E+00
  0.00000000E+00  0.00000000E+00  0.00000000E+00
  0.00000000E+00  0.00000000E+00  0.00000000E+00
  0.00000000E+00  0.00000000E+00  0.00000000E+00
  0.00000000E+00  0.00000000E+00  0.00000000E+00
  0.00000000E+00  0.00000000E+00  0.00000000E+00
  0.00000000E+00  0.00000000E+00  0.00000000E+00
  0.00000000E+00  0.00000000E+00  0.00000000E+00
  0.00000000E+00  0.00000000E+00  0.00000000E+00
  0.00000000E+00  0.00000000E+00  0.00000000E+00
  0.00000000E+00  0.00000000E+00  0.00000000E+00
  0.00000000E+00  0.00000000E+00  0.00000000E+00
  0.00000000E+00  0.00000000E+00  0.00000000E+00
  0.00000000E+00  0.00000000E+00  0.00000000E+00
  0.00000000E+00  0.00000000E+00  0.00000000E+00
  0.00000000E+00  0.00000000E+00  0.00000000E+00
  0.00000000E+00  0.00000000E+00  0.00000000E+00
  0.00000000E+00  0.00000000E+00  0.00000000E+00
  0.00000000E+00  0.00000000E+00  0.00000000E+00
  0.00000000E+00  0.00000000E+00  0.00000000E+00
  0.00000000E+00  0.00000000E+00  0.00000000E+00
  0.00000000E+00  0.00000000E+00  0.00000000E+00
  0.00000000E+00  0.00000000E+00  0.00000000E+00
  0.00000000E+00  0.00000000E+00  0.00000000E+00
  0.00000000E+00  0.00000000E+00  0.00000000E+00
  0.00000000E+00  0.00000000E+00  0.00000000E+00
  0.00000000E+00  0.00000000E+00  0.00000000E+00
  0.00000000E+00  0.00000000E+00  0.00000000E+00
  0.00000000E+00  0.00000000E+00  0.00000000E+00
  0.00000000E+00  0.00000000E+00  0.00000000E+00
  0.00000000E+00  0.00000000E+00  0.00000000E+00
  0.00000000E+00  0.00000000E+00  0.00000000E+00
  0.00000000E+00  0.00000000E+00  0.00000000E+00
  0.00000000E+00  0.00000000E+00  0.00000000E+00
  0.00000000E+00  0.00000000E+00  0.00000000E+00
