Bi La Sn H                              
   1.00000000000000     
    29.0000000000000000    0.0000000000000000    0.0000000000000000
     0.2488180851000000   28.9989325590000000    0.0000000000000000
    -0.0631677343000000   -0.4515975666000000   28.9964147692999994
   Bi   La   Sn   H 
    22    23    23     1
Selective dynamics
Direct
  0.7601330750927479  0.4756489096683401  0.3987312162777428   T   T   T
  0.6468122978183988  0.6841349124703714  0.5535788829865192   T   T   T
  0.3615747032278356  0.4577940863216845  0.4280216710593011   T   T   T
  0.5499260677335909  0.7131602937445937  0.5841780201811991   T   T   T
  0.5915029568994470  0.5209714444905416  0.5841479689498996   F   F   F
  0.6411382371634660  0.6808644193569783  0.4471543073365847   T   T   T
  0.6954276171050563  0.5223860029424811  0.6541311240602872   T   T   T
  0.4863883664310975  0.7014672784057718  0.4985782162228430   T   T   T
  0.5004839460855024  0.5502791173970252  0.5477141156400123   F   F   F
  0.3250084898174028  0.4861782563377388  0.5748674825485569   T   T   T
  0.3814346854526291  0.6101660421284124  0.5352225895561276   T   T   T
  0.6667129484492236  0.4827404655721850  0.5105018184570156   F   F   F
  0.5763997220267569  0.4263140504383500  0.5448328182496311   F   F   F
  0.6681105852688405  0.3736634147638606  0.5064474865814642   T   T   T
  0.4626246818968414  0.3392444548325720  0.4993634201949154   T   T   T
  0.6484934028780529  0.5775373212088155  0.4602701624361103   F   F   F
  0.5585510466110915  0.4366480154389998  0.7491510483670980   T   T   T
  0.6030204111040196  0.3526280279131067  0.6712541775382496   T   T   T
  0.4923257700372815  0.2985150156937719  0.4097763725750019   T   T   T
  0.6596393035159236  0.6187470479494028  0.6657440152849423   T   T   T
  0.4887925582576143  0.4126121662002229  0.3033932680183763   T   T   T
  0.6217489437502461  0.3178177667181032  0.5747082835644233   T   T   T
  0.5408412121262629  0.6841151871804672  0.4050551021690707   T   T   T
  0.3900931995352321  0.4155597771488643  0.5274064865145758   T   T   T
  0.6302330329725065  0.5523227068948779  0.2832941304557604   T   T   T
  0.4714121400667540  0.4719441909269673  0.6921693807930055   T   T   T
  0.5683115009887700  0.5094300495444983  0.4784716241115703   F   F   F
  0.4203210565129183  0.5084107200613417  0.5018573595042781   F   F   F
  0.4535618340362297  0.4009573046728632  0.4060879174259878   T   T   T
  0.5594003799185779  0.3505210227020784  0.3513801080820335   T   T   T
  0.4108737974644905  0.5397983153405005  0.6097060217892839   T   T   T
  0.5979020238435204  0.4427345644590296  0.3039147129123824   T   T   T
  0.4554654730343967  0.6002600097006798  0.3630960316853047   T   T   T
  0.4160603275499360  0.4879468894476440  0.3380268764716937   T   T   T
  0.6610468993017994  0.4280106407837940  0.6043751443095267   T   T   T
  0.6729449674765203  0.5785708190845131  0.5638155646835810   T   T   T
  0.5271352702311948  0.5099619811921137  0.3281448381908272   T   T   T
  0.5654608037020314  0.3573277080768942  0.4687501751909580   T   T   T
  0.3157560263288146  0.5411065848059684  0.4908747830377640   T   T   T
  0.6600802866491275  0.4295088302199603  0.4156003805121460   T   T   T
  0.5660841929594156  0.6261437171197244  0.5094829013827464   F   F   F
  0.5952934753870321  0.5290613209790868  0.6895443403387846   T   T   T
  0.4694819558177548  0.6417268613276621  0.5876366788254829   T   T   T
  0.4628455021896573  0.6028819992349200  0.4641113305846279   T   T   T
  0.7166064245053928  0.5712186789560365  0.3833506401716074   T   T   T
  0.5499310510395361  0.5822218838566187  0.4076968008106903   F   F   F
  0.4794126430662260  0.5072205383607624  0.4190535757241776   F   F   F
  0.6949226895048987  0.4783757378785403  0.3240388392999993   T   T   T
  0.7512431012656917  0.4284507530719091  0.4885018001578829   T   T   T
  0.7487059319007637  0.5367108444116273  0.4847783976590064   T   T   T
  0.7486154384905196  0.4900621257224902  0.5725072541631711   T   T   T
  0.6491667656303663  0.4377676022187815  0.7092448017770961   T   T   T
  0.5774384893706307  0.7435957159058820  0.4938423574225828   T   T   T
  0.6192554540844384  0.5183157687966542  0.3801816896793397   F   F   F
  0.5043457862497436  0.5604135983301639  0.6502392311639013   T   T   T
  0.4922009500451665  0.4366758245867572  0.4933013002826740   F   F   F
  0.5608844484509063  0.4404139570509003  0.6454865549417619   F   F   F
  0.5765969497603886  0.6162361183289976  0.6134798929297088   T   T   T
  0.5458176950426730  0.6177082714087518  0.3132999634586096   T   T   T
  0.6286953693485052  0.6251289171450130  0.3618596855504870   T   T   T
  0.3771246303320708  0.5570672959832400  0.4125228463369182   T   T   T
  0.4723078164089713  0.4557257050327763  0.5877273803360978   F   F   F
  0.7275622477155651  0.6337373813981164  0.4847273825766384   T   T   T
  0.5024562721261637  0.3696528043469088  0.6835751070321856   T   T   T
  0.3814492828346290  0.4406347839824994  0.6401624161501496   T   T   T
  0.5544592502646992  0.4379899399457940  0.4037542370104745   F   F   F
  0.4329859225658788  0.3621344754183032  0.6097220535737596   T   T   T
  0.5273304965715297  0.3497631182476590  0.5792284528819538   T   T   T
  0.4552731215330453  0.5475008206026946  0.3042819537754717   T   T   T
 
  0.00000000E+00  0.00000000E+00  0.00000000E+00
  0.00000000E+00  0.00000000E+00  0.00000000E+00
  0.00000000E+00  0.00000000E+00  0.00000000E+00
  0.00000000E+00  0.00000000E+00  0.00000000E+00
  0.00000000E+00  0.00000000E+00  0.00000000E+00
  0.00000000E+00  0.00000000E+00  0.00000000E+00
  0.00000000E+00  0.00000000E+00  0.00000000E+00
  0.00000000E+00  0.00000000E+00  0.00000000E+00
  0.00000000E+00  0.00000000E+00  0.00000000E+00
  0.00000000E+00  0.00000000E+00  0.00000000E+00
  0.00000000E+00  0.00000000E+00  0.00000000E+00
  0.00000000E+00  0.00000000E+00  0.00000000E+00
  0.00000000E+00  0.00000000E+00  0.00000000E+00
  0.00000000E+00  0.00000000E+00  0.00000000E+00
  0.00000000E+00  0.00000000E+00  0.00000000E+00
  0.00000000E+00  0.00000000E+00  0.00000000E+00
  0.00000000E+00  0.00000000E+00  0.00000000E+00
  0.00000000E+00  0.00000000E+00  0.00000000E+00
  0.00000000E+00  0.00000000E+00  0.00000000E+00
  0.00000000E+00  0.00000000E+00  0.00000000E+00
  0.00000000E+00  0.00000000E+00  0.00000000E+00
  0.00000000E+00  0.00000000E+00  0.00000000E+00
  0.00000000E+00  0.00000000E+00  0.00000000E+00
  0.00000000E+00  0.00000000E+00  0.00000000E+00
  0.00000000E+00  0.00000000E+00  0.00000000E+00
  0.00000000E+00  0.00000000E+00  0.00000000E+00
  0.00000000E+00  0.00000000E+00  0.00000000E+00
  0.00000000E+00  0.00000000E+00  0.00000000E+00
  0.00000000E+00  0.00000000E+00  0.00000000E+00
  0.00000000E+00  0.00000000E+00  0.00000000E+00
  0.00000000E+00  0.00000000E+00  0.00000000E+00
  0.00000000E+00  0.00000000E+00  0.00000000E+00
  0.00000000E+00  0.00000000E+00  0.00000000E+00
  0.00000000E+00  0.00000000E+00  0.00000000E+00
  0.00000000E+00  0.00000000E+00  0.00000000E+00
  0.00000000E+00  0.00000000E+00  0.00000000E+00
  0.00000000E+00  0.00000000E+00  0.00000000E+00
  0.00000000E+00  0.00000000E+00  0.00000000E+00
  0.00000000E+00  0.00000000E+00  0.00000000E+00
  0.00000000E+00  0.00000000E+00  0.00000000E+00
  0.00000000E+00  0.00000000E+00  0.00000000E+00
  0.00000000E+00  0.00000000E+00  0.00000000E+00
  0.00000000E+00  0.00000000E+00  0.00000000E+00
  0.00000000E+00  0.00000000E+00  0.00000000E+00
  0.00000000E+00  0.00000000E+00  0.00000000E+00
  0.00000000E+00  0.00000000E+00  0.00000000E+00
  0.00000000E+00  0.00000000E+00  0.00000000E+00
  0.00000000E+00  0.00000000E+00  0.00000000E+00
  0.00000000E+00  0.00000000E+00  0.00000000E+00
  0.00000000E+00  0.00000000E+00  0.00000000E+00
  0.00000000E+00  0.00000000E+00  0.00000000E+00
  0.00000000E+00  0.00000000E+00  0.00000000E+00
  0.00000000E+00  0.00000000E+00  0.00000000E+00
  0.00000000E+00  0.00000000E+00  0.00000000E+00
  0.00000000E+00  0.00000000E+00  0.00000000E+00
  0.00000000E+00  0.00000000E+00  0.00000000E+00
  0.00000000E+00  0.00000000E+00  0.00000000E+00
  0.00000000E+00  0.00000000E+00  0.00000000E+00
  0.00000000E+00  0.00000000E+00  0.00000000E+00
  0.00000000E+00  0.00000000E+00  0.00000000E+00
  0.00000000E+00  0.00000000E+00  0.00000000E+00
  0.00000000E+00  0.00000000E+00  0.00000000E+00
  0.00000000E+00  0.00000000E+00  0.00000000E+00
  0.00000000E+00  0.00000000E+00  0.00000000E+00
  0.00000000E+00  0.00000000E+00  0.00000000E+00
  0.00000000E+00  0.00000000E+00  0.00000000E+00
  0.00000000E+00  0.00000000E+00  0.00000000E+00
  0.00000000E+00  0.00000000E+00  0.00000000E+00
  0.00000000E+00  0.00000000E+00  0.00000000E+00
