Bi La Sn H                              
   1.00000000000000     
    29.0000000000000000    0.0000000000000000    0.0000000000000000
     0.2488180851000000   28.9989325590000000    0.0000000000000000
    -0.0631677343000000   -0.4515975666000000   28.9964147692999994
   Bi   La   Sn   H 
    22    23    23     1
Selective dynamics
Direct
  0.7591875218983369  0.4785081984375444  0.3999248158245309   T   T   T
  0.6471557259794656  0.6845385922468330  0.5513273634572734   T   T   T
  0.3597984007975349  0.4566695499183130  0.4287321483355286   T   T   T
  0.5501764950199457  0.7132966095994419  0.5838036266544256   T   T   T
  0.5915029568994470  0.5209714444905416  0.5841479689498996   F   F   F
  0.6402072171259233  0.6801661657049791  0.4453007676894729   T   T   T
  0.6955300114994343  0.5221204440106276  0.6540887869945679   T   T   T
  0.4867062660649440  0.7017426604497884  0.4988468506726342   T   T   T
  0.5004839460855024  0.5502791173970252  0.5477141156400123   F   F   F
  0.3254977851172550  0.4832417679271715  0.5780198226150359   T   T   T
  0.3813447152218071  0.6099075800867712  0.5355894669603011   T   T   T
  0.6667129484492236  0.4827404655721850  0.5105018184570156   F   F   F
  0.5763997220267569  0.4263140504383500  0.5448328182496311   F   F   F
  0.6689776680131605  0.3739731159875693  0.5062304479429514   T   T   T
  0.4629547650349100  0.3382182363247790  0.4994707911160378   T   T   T
  0.6484934028780529  0.5775373212088155  0.4602701624361103   F   F   F
  0.5591196430681573  0.4360070069732536  0.7497473412616827   T   T   T
  0.6008334532467844  0.3510884977204352  0.6692623549406750   T   T   T
  0.4926454819945662  0.2985458389306996  0.4101638240980833   T   T   T
  0.6596362722892338  0.6186367055637710  0.6659608685997243   T   T   T
  0.4932039304060785  0.4085311261567266  0.3063882603714735   T   T   T
  0.6223311718941956  0.3167627129615770  0.5733666034530134   T   T   T
  0.5390078970226313  0.6832826447568178  0.4039997733773143   T   T   T
  0.3908382550631764  0.4147166575164928  0.5283043485165136   T   T   T
  0.6290346633591714  0.5518064756133925  0.2821673369103780   T   T   T
  0.4729828802634137  0.4740338725420809  0.6925750677235706   T   T   T
  0.5683115009887700  0.5094300495444983  0.4784716241115703   F   F   F
  0.4203210565129183  0.5084107200613417  0.5018573595042781   F   F   F
  0.4525949045430214  0.4003380663232268  0.4065680060978719   T   T   T
  0.5645445628952716  0.3479737919849590  0.3551875553106338   T   T   T
  0.4113498905234683  0.5398992208083224  0.6100066247460283   T   T   T
  0.5998575299084647  0.4410391538198041  0.3052320133202157   T   T   T
  0.4554896997750967  0.5985202625064978  0.3623191144380826   T   T   T
  0.4192478089168386  0.4840467532770610  0.3400224953787361   T   T   T
  0.6615296992702292  0.4275278192635604  0.6040102637308420   T   T   T
  0.6731460169746316  0.5786576542241080  0.5638966512182026   T   T   T
  0.5265757549631815  0.5085784934904362  0.3274960131647509   T   T   T
  0.5659624326967548  0.3573547533009845  0.4692269240368592   T   T   T
  0.3152642648273207  0.5387462537236700  0.4943531894148677   T   T   T
  0.6602104615899380  0.4293864722133514  0.4154669457864230   T   T   T
  0.5660841929594156  0.6261437171197244  0.5094829013827464   F   F   F
  0.5956304040507182  0.5288386866043040  0.6896203508021412   T   T   T
  0.4695354691349330  0.6419401776276270  0.5875448469249553   T   T   T
  0.4625130659775296  0.6038413313887786  0.4640764295567522   T   T   T
  0.7166671329657107  0.5738687011830307  0.3836008351371169   T   T   T
  0.5499310510395361  0.5822218838566187  0.4076968008106903   F   F   F
  0.4794126430662260  0.5072205383607624  0.4190535757241776   F   F   F
  0.6955814820153853  0.4809278325761631  0.3244693795916522   T   T   T
  0.7519207028753815  0.4293568007353981  0.4886910835602396   T   T   T
  0.7484807452149473  0.5386915620575984  0.4861046494255494   T   T   T
  0.7485040524038464  0.4902596678985276  0.5729490015973451   T   T   T
  0.6481788325737848  0.4366857951867094  0.7076745687860106   T   T   T
  0.5773982236346892  0.7434918226660586  0.4926776976255313   T   T   T
  0.6192554540844384  0.5183157687966542  0.3801816896793397   F   F   F
  0.5050325035139016  0.5620483513624260  0.6504302207129538   T   T   T
  0.4922009500451665  0.4366758245867572  0.4933013002826740   F   F   F
  0.5608844484509063  0.4404139570509003  0.6454865549417619   F   F   F
  0.5771285471125182  0.6165903475943117  0.6133505032568640   T   T   T
  0.5448883887021622  0.6161727572802683  0.3120973375196949   T   T   T
  0.6273636252822430  0.6247579139282901  0.3606690661955645   T   T   T
  0.3779919543999107  0.5552174240936834  0.4131614506367012   T   T   T
  0.4723078164089713  0.4557257050327763  0.5877273803360978   F   F   F
  0.7271033142950662  0.6353463355211016  0.4849657252197274   T   T   T
  0.5016693767483286  0.3708028270071466  0.6854940911472238   T   T   T
  0.3833802550395002  0.4404778119146736  0.6424322478925331   T   T   T
  0.5544592502646992  0.4379899399457940  0.4037542370104745   F   F   F
  0.4350031939997682  0.3621126238409639  0.6101905313261637   T   T   T
  0.5282819445141204  0.3489504983295629  0.5790819417636538   T   T   T
  0.3144632025020710  0.5640686410734341  0.4192376350594713   T   T   T
 
  0.00000000E+00  0.00000000E+00  0.00000000E+00
  0.00000000E+00  0.00000000E+00  0.00000000E+00
  0.00000000E+00  0.00000000E+00  0.00000000E+00
  0.00000000E+00  0.00000000E+00  0.00000000E+00
  0.00000000E+00  0.00000000E+00  0.00000000E+00
  0.00000000E+00  0.00000000E+00  0.00000000E+00
  0.00000000E+00  0.00000000E+00  0.00000000E+00
  0.00000000E+00  0.00000000E+00  0.00000000E+00
  0.00000000E+00  0.00000000E+00  0.00000000E+00
  0.00000000E+00  0.00000000E+00  0.00000000E+00
  0.00000000E+00  0.00000000E+00  0.00000000E+00
  0.00000000E+00  0.00000000E+00  0.00000000E+00
  0.00000000E+00  0.00000000E+00  0.00000000E+00
  0.00000000E+00  0.00000000E+00  0.00000000E+00
  0.00000000E+00  0.00000000E+00  0.00000000E+00
  0.00000000E+00  0.00000000E+00  0.00000000E+00
  0.00000000E+00  0.00000000E+00  0.00000000E+00
  0.00000000E+00  0.00000000E+00  0.00000000E+00
  0.00000000E+00  0.00000000E+00  0.00000000E+00
  0.00000000E+00  0.00000000E+00  0.00000000E+00
  0.00000000E+00  0.00000000E+00  0.00000000E+00
  0.00000000E+00  0.00000000E+00  0.00000000E+00
  0.00000000E+00  0.00000000E+00  0.00000000E+00
  0.00000000E+00  0.00000000E+00  0.00000000E+00
  0.00000000E+00  0.00000000E+00  0.00000000E+00
  0.00000000E+00  0.00000000E+00  0.00000000E+00
  0.00000000E+00  0.00000000E+00  0.00000000E+00
  0.00000000E+00  0.00000000E+00  0.00000000E+00
  0.00000000E+00  0.00000000E+00  0.00000000E+00
  0.00000000E+00  0.00000000E+00  0.00000000E+00
  0.00000000E+00  0.00000000E+00  0.00000000E+00
  0.00000000E+00  0.00000000E+00  0.00000000E+00
  0.00000000E+00  0.00000000E+00  0.00000000E+00
  0.00000000E+00  0.00000000E+00  0.00000000E+00
  0.00000000E+00  0.00000000E+00  0.00000000E+00
  0.00000000E+00  0.00000000E+00  0.00000000E+00
  0.00000000E+00  0.00000000E+00  0.00000000E+00
  0.00000000E+00  0.00000000E+00  0.00000000E+00
  0.00000000E+00  0.00000000E+00  0.00000000E+00
  0.00000000E+00  0.00000000E+00  0.00000000E+00
  0.00000000E+00  0.00000000E+00  0.00000000E+00
  0.00000000E+00  0.00000000E+00  0.00000000E+00
  0.00000000E+00  0.00000000E+00  0.00000000E+00
  0.00000000E+00  0.00000000E+00  0.00000000E+00
  0.00000000E+00  0.00000000E+00  0.00000000E+00
  0.00000000E+00  0.00000000E+00  0.00000000E+00
  0.00000000E+00  0.00000000E+00  0.00000000E+00
  0.00000000E+00  0.00000000E+00  0.00000000E+00
  0.00000000E+00  0.00000000E+00  0.00000000E+00
  0.00000000E+00  0.00000000E+00  0.00000000E+00
  0.00000000E+00  0.00000000E+00  0.00000000E+00
  0.00000000E+00  0.00000000E+00  0.00000000E+00
  0.00000000E+00  0.00000000E+00  0.00000000E+00
  0.00000000E+00  0.00000000E+00  0.00000000E+00
  0.00000000E+00  0.00000000E+00  0.00000000E+00
  0.00000000E+00  0.00000000E+00  0.00000000E+00
  0.00000000E+00  0.00000000E+00  0.00000000E+00
  0.00000000E+00  0.00000000E+00  0.00000000E+00
  0.00000000E+00  0.00000000E+00  0.00000000E+00
  0.00000000E+00  0.00000000E+00  0.00000000E+00
  0.00000000E+00  0.00000000E+00  0.00000000E+00
  0.00000000E+00  0.00000000E+00  0.00000000E+00
  0.00000000E+00  0.00000000E+00  0.00000000E+00
  0.00000000E+00  0.00000000E+00  0.00000000E+00
  0.00000000E+00  0.00000000E+00  0.00000000E+00
  0.00000000E+00  0.00000000E+00  0.00000000E+00
  0.00000000E+00  0.00000000E+00  0.00000000E+00
  0.00000000E+00  0.00000000E+00  0.00000000E+00
  0.00000000E+00  0.00000000E+00  0.00000000E+00
