Bi La Sn H                              
   1.00000000000000     
    29.0000000000000000    0.0000000000000000    0.0000000000000000
     0.2488180851000000   28.9989325590000000    0.0000000000000000
    -0.0631677343000000   -0.4515975666000000   28.9964147692999994
   Bi   La   Sn   H 
    22    23    23     1
Selective dynamics
Direct
  0.7594291022664267  0.4789736231846375  0.3993176679669583   T   T   T
  0.6478271330766794  0.6845268725290258  0.5504126134694233   T   T   T
  0.3620137697803963  0.4584237036295571  0.4263593273120631   T   T   T
  0.5509263522002379  0.7133105894491925  0.5840088928101812   T   T   T
  0.5915029568994470  0.5209714444905416  0.5841479689498996   F   F   F
  0.6397923816425413  0.6792124713756011  0.4444199233374895   T   T   T
  0.6956253261723612  0.5219315382312396  0.6541611978883818   T   T   T
  0.4870658336027788  0.7018079065944438  0.4991050346502025   T   T   T
  0.5004839460855024  0.5502791173970252  0.5477141156400123   F   F   F
  0.3258999245280924  0.4853763621600261  0.5759554434433541   T   T   T
  0.3822157900225024  0.6095791640703730  0.5360360239892916   T   T   T
  0.6667129484492236  0.4827404655721850  0.5105018184570156   F   F   F
  0.5763997220267569  0.4263140504383500  0.5448328182496311   F   F   F
  0.6683302789654653  0.3745419489473792  0.5071827850106970   T   T   T
  0.4622909630135495  0.3378025412646619  0.4969265444621848   T   T   T
  0.6484934028780529  0.5775373212088155  0.4602701624361103   F   F   F
  0.5565422687101058  0.4363792994882973  0.7495195334719489   T   T   T
  0.5985752384052238  0.3506740254447541  0.6696610141445409   T   T   T
  0.4925606854059760  0.2991986438548818  0.4068619867700990   T   T   T
  0.6602440908056146  0.6177504455295855  0.6668949108269890   T   T   T
  0.4929452843338719  0.4095972879205049  0.3060771246743435   T   T   T
  0.6228756687174614  0.3167661808182541  0.5747704896681245   T   T   T
  0.5390184073939892  0.6837573328524594  0.4040372162653325   T   T   T
  0.3901978438146201  0.4157813888424758  0.5251244795185839   T   T   T
  0.6278760806441849  0.5519265204736767  0.2807282103374270   T   T   T
  0.4721581921890238  0.4753700524603957  0.6925275683996298   T   T   T
  0.5683115009887700  0.5094300495444983  0.4784716241115703   F   F   F
  0.4203210565129183  0.5084107200613417  0.5018573595042781   F   F   F
  0.4532707708084726  0.4010186812986443  0.4052680774886485   T   T   T
  0.5650263883302378  0.3489771269150359  0.3543046902754868   T   T   T
  0.4117276860069664  0.5392358045985409  0.6105170914676215   T   T   T
  0.6007966961676754  0.4370856840472706  0.3060740098946498   T   T   T
  0.4552179679105329  0.6003766435807580  0.3634077711340969   T   T   T
  0.4198192501496519  0.4879876753600028  0.3377614886956308   T   T   T
  0.6609719137924811  0.4273488277858830  0.6049155390754165   T   T   T
  0.6733209411763563  0.5787944111471293  0.5639189102909041   T   T   T
  0.5257681944821976  0.5093830357736419  0.3279279783165559   T   T   T
  0.5656838922054795  0.3567839526739147  0.4690768474602011   T   T   T
  0.3167541630208894  0.5401117140894440  0.4914012844046775   T   T   T
  0.6607085208565263  0.4293675503616550  0.4149518204856247   T   T   T
  0.5660841929594156  0.6261437171197244  0.5094829013827464   F   F   F
  0.5957886309655177  0.5279606381105628  0.6897103924191518   T   T   T
  0.4701553502237705  0.6422928460751155  0.5878197752252319   T   T   T
  0.4631926189852048  0.6035487161903885  0.4644173253694105   T   T   T
  0.7165420314382632  0.5743242481218043  0.3838049191998896   T   T   T
  0.5499310510395361  0.5822218838566187  0.4076968008106903   F   F   F
  0.4794126430662260  0.5072205383607624  0.4190535757241776   F   F   F
  0.6950180615729451  0.4822666304489351  0.3242521296319906   T   T   T
  0.7517264307834426  0.4290810436163647  0.4874726857022303   T   T   T
  0.7485524922760889  0.5384746107789131  0.4859480431250232   T   T   T
  0.7483807200603921  0.4897718028307275  0.5724352080164916   T   T   T
  0.6465349816530233  0.4345187098254956  0.7092773635386344   T   T   T
  0.5780426767477163  0.7431692936001686  0.4929455434071716   T   T   T
  0.6192554540844384  0.5183157687966542  0.3801816896793397   F   F   F
  0.5057152995459344  0.5622177358034938  0.6501656965581345   T   T   T
  0.4922009500451665  0.4366758245867572  0.4933013002826740   F   F   F
  0.5608844484509063  0.4404139570509003  0.6454865549417619   F   F   F
  0.5779905021399021  0.6167717942682307  0.6133660606083822   T   T   T
  0.5437029409541406  0.6169252234607664  0.3116800539886118   T   T   T
  0.6269192313125102  0.6246852891200819  0.3591408619211064   T   T   T
  0.3773448555440608  0.5567298258641608  0.4120950120919989   T   T   T
  0.4723078164089713  0.4557257050327763  0.5877273803360978   F   F   F
  0.7271164656309256  0.6353030680715883  0.4844778155523734   T   T   T
  0.4980606277882312  0.3722979465810628  0.6791891165680901   T   T   T
  0.3840391825505520  0.4380876357161976  0.6389634345385099   T   T   T
  0.5544592502646992  0.4379899399457940  0.4037542370104745   F   F   F
  0.4324138697499780  0.3590028682900572  0.6038037347416273   T   T   T
  0.5280417833230596  0.3482352824257972  0.5768336897908092   T   T   T
  0.5753701080886535  0.4975427934567665  0.2623656624273557   T   T   T
 
  0.00000000E+00  0.00000000E+00  0.00000000E+00
  0.00000000E+00  0.00000000E+00  0.00000000E+00
  0.00000000E+00  0.00000000E+00  0.00000000E+00
  0.00000000E+00  0.00000000E+00  0.00000000E+00
  0.00000000E+00  0.00000000E+00  0.00000000E+00
  0.00000000E+00  0.00000000E+00  0.00000000E+00
  0.00000000E+00  0.00000000E+00  0.00000000E+00
  0.00000000E+00  0.00000000E+00  0.00000000E+00
  0.00000000E+00  0.00000000E+00  0.00000000E+00
  0.00000000E+00  0.00000000E+00  0.00000000E+00
  0.00000000E+00  0.00000000E+00  0.00000000E+00
  0.00000000E+00  0.00000000E+00  0.00000000E+00
  0.00000000E+00  0.00000000E+00  0.00000000E+00
  0.00000000E+00  0.00000000E+00  0.00000000E+00
  0.00000000E+00  0.00000000E+00  0.00000000E+00
  0.00000000E+00  0.00000000E+00  0.00000000E+00
  0.00000000E+00  0.00000000E+00  0.00000000E+00
  0.00000000E+00  0.00000000E+00  0.00000000E+00
  0.00000000E+00  0.00000000E+00  0.00000000E+00
  0.00000000E+00  0.00000000E+00  0.00000000E+00
  0.00000000E+00  0.00000000E+00  0.00000000E+00
  0.00000000E+00  0.00000000E+00  0.00000000E+00
  0.00000000E+00  0.00000000E+00  0.00000000E+00
  0.00000000E+00  0.00000000E+00  0.00000000E+00
  0.00000000E+00  0.00000000E+00  0.00000000E+00
  0.00000000E+00  0.00000000E+00  0.00000000E+00
  0.00000000E+00  0.00000000E+00  0.00000000E+00
  0.00000000E+00  0.00000000E+00  0.00000000E+00
  0.00000000E+00  0.00000000E+00  0.00000000E+00
  0.00000000E+00  0.00000000E+00  0.00000000E+00
  0.00000000E+00  0.00000000E+00  0.00000000E+00
  0.00000000E+00  0.00000000E+00  0.00000000E+00
  0.00000000E+00  0.00000000E+00  0.00000000E+00
  0.00000000E+00  0.00000000E+00  0.00000000E+00
  0.00000000E+00  0.00000000E+00  0.00000000E+00
  0.00000000E+00  0.00000000E+00  0.00000000E+00
  0.00000000E+00  0.00000000E+00  0.00000000E+00
  0.00000000E+00  0.00000000E+00  0.00000000E+00
  0.00000000E+00  0.00000000E+00  0.00000000E+00
  0.00000000E+00  0.00000000E+00  0.00000000E+00
  0.00000000E+00  0.00000000E+00  0.00000000E+00
  0.00000000E+00  0.00000000E+00  0.00000000E+00
  0.00000000E+00  0.00000000E+00  0.00000000E+00
  0.00000000E+00  0.00000000E+00  0.00000000E+00
  0.00000000E+00  0.00000000E+00  0.00000000E+00
  0.00000000E+00  0.00000000E+00  0.00000000E+00
  0.00000000E+00  0.00000000E+00  0.00000000E+00
  0.00000000E+00  0.00000000E+00  0.00000000E+00
  0.00000000E+00  0.00000000E+00  0.00000000E+00
  0.00000000E+00  0.00000000E+00  0.00000000E+00
  0.00000000E+00  0.00000000E+00  0.00000000E+00
  0.00000000E+00  0.00000000E+00  0.00000000E+00
  0.00000000E+00  0.00000000E+00  0.00000000E+00
  0.00000000E+00  0.00000000E+00  0.00000000E+00
  0.00000000E+00  0.00000000E+00  0.00000000E+00
  0.00000000E+00  0.00000000E+00  0.00000000E+00
  0.00000000E+00  0.00000000E+00  0.00000000E+00
  0.00000000E+00  0.00000000E+00  0.00000000E+00
  0.00000000E+00  0.00000000E+00  0.00000000E+00
  0.00000000E+00  0.00000000E+00  0.00000000E+00
  0.00000000E+00  0.00000000E+00  0.00000000E+00
  0.00000000E+00  0.00000000E+00  0.00000000E+00
  0.00000000E+00  0.00000000E+00  0.00000000E+00
  0.00000000E+00  0.00000000E+00  0.00000000E+00
  0.00000000E+00  0.00000000E+00  0.00000000E+00
  0.00000000E+00  0.00000000E+00  0.00000000E+00
  0.00000000E+00  0.00000000E+00  0.00000000E+00
  0.00000000E+00  0.00000000E+00  0.00000000E+00
  0.00000000E+00  0.00000000E+00  0.00000000E+00
