Bi La Sn H                              
   1.00000000000000     
    29.0000000000000000    0.0000000000000000    0.0000000000000000
     0.2488180851000000   28.9989325590000000    0.0000000000000000
    -0.0631677343000000   -0.4515975666000000   28.9964147692999994
   Bi   La   Sn   H 
    22    23    23     1
Selective dynamics
Direct
  0.7600303146309341  0.4770439748047932  0.3989519601821847   T   T   T
  0.6476711722706261  0.6837845613057131  0.5509746217438594   T   T   T
  0.3600892753067018  0.4587217858133342  0.4280231432134480   T   T   T
  0.5515218441590133  0.7135418080273641  0.5845450955084901   T   T   T
  0.5915029568994470  0.5209714444905416  0.5841479689498996   F   F   F
  0.6397772678578401  0.6798154811117938  0.4449795957694315   T   T   T
  0.6995164627748496  0.5211158612067780  0.6531245227182304   T   T   T
  0.4867728987486306  0.7007864496927340  0.5010477285433342   T   T   T
  0.5004839460855024  0.5502791173970252  0.5477141156400123   F   F   F
  0.3271768817107802  0.4873923401865916  0.5762318344501242   T   T   T
  0.3837034961641288  0.6109249629028105  0.5360172469504189   T   T   T
  0.6667129484492236  0.4827404655721850  0.5105018184570156   F   F   F
  0.5763997220267569  0.4263140504383500  0.5448328182496311   F   F   F
  0.6678988018363048  0.3741266494573855  0.5070181646338989   T   T   T
  0.4624831532110017  0.3385910998028810  0.4996047846244818   T   T   T
  0.6484934028780529  0.5775373212088155  0.4602701624361103   F   F   F
  0.5587457975004531  0.4381768044498006  0.7497645299757898   T   T   T
  0.6020532538865109  0.3500915876434773  0.6685916447976480   T   T   T
  0.4915140636219088  0.2986424062317892  0.4097881893522780   T   T   T
  0.6630244618477977  0.6167378908041292  0.6663594653078976   T   T   T
  0.4912435604139472  0.4101623693897976  0.3054375199381242   T   T   T
  0.6218914306737424  0.3158143312942089  0.5732186995856154   T   T   T
  0.5384609909302928  0.6836188099256011  0.4046604089015523   T   T   T
  0.3901302343993872  0.4155206375417846  0.5270410531587042   T   T   T
  0.6284281514068866  0.5511669753848877  0.2827996503354456   T   T   T
  0.4725063082654786  0.4714791234374296  0.6931092672022084   T   T   T
  0.5683115009887700  0.5094300495444983  0.4784716241115703   F   F   F
  0.4203210565129183  0.5084107200613417  0.5018573595042781   F   F   F
  0.4522730860083813  0.4008959408868155  0.4061595457122097   T   T   T
  0.5613940153774393  0.3487988902698526  0.3537534387956654   T   T   T
  0.4119872668718068  0.5431820653914818  0.6122664556533554   T   T   T
  0.5996934897486036  0.4399528607651852  0.3052747160368375   T   T   T
  0.4550192188099376  0.5999532402234075  0.3630511980035068   T   T   T
  0.4185525688460154  0.4874059586220331  0.3396395432042738   T   T   T
  0.6607555960822005  0.4283169249148330  0.6047575592560326   T   T   T
  0.6746667987695818  0.5780503022686621  0.5636373879545290   T   T   T
  0.5260676499558844  0.5091552383215606  0.3280342888824534   T   T   T
  0.5652784019479453  0.3572492934587086  0.4688491315020591   T   T   T
  0.3171119630662578  0.5425605972766534  0.4925158620199885   T   T   T
  0.6601969577046199  0.4291248333919399  0.4156275629343644   T   T   T
  0.5660841929594156  0.6261437171197244  0.5094829013827464   F   F   F
  0.5998291011721986  0.5267898081236460  0.6896010614419853   T   T   T
  0.4712477241188158  0.6409177180370776  0.5917205235649858   T   T   T
  0.4630166149996698  0.6033222315972060  0.4642031376583264   T   T   T
  0.7164213283456433  0.5726719118874265  0.3832467563676299   T   T   T
  0.5499310510395361  0.5822218838566187  0.4076968008106903   F   F   F
  0.4794126430662260  0.5072205383607624  0.4190535757241776   F   F   F
  0.6951111139397507  0.4797453936392309  0.3245141344737650   T   T   T
  0.7516665829462864  0.4277041946446952  0.4872448103079753   T   T   T
  0.7489713364331532  0.5370366178024761  0.4847777918607450   T   T   T
  0.7501968336023148  0.4887572547485502  0.5710173471174910   T   T   T
  0.6486475393478537  0.4327350641651856  0.7096651045003206   T   T   T
  0.5774286970525251  0.7433197256705746  0.4930995382306835   T   T   T
  0.6192554540844384  0.5183157687966542  0.3801816896793397   F   F   F
  0.5099988372988139  0.5560964376972131  0.6482779440198150   T   T   T
  0.4922009500451665  0.4366758245867572  0.4933013002826740   F   F   F
  0.5608844484509063  0.4404139570509003  0.6454865549417619   F   F   F
  0.5797213883465033  0.6169283547411112  0.6138260570240051   T   T   T
  0.5445239111953193  0.6168777886660347  0.3124840907303139   T   T   T
  0.6278910233449742  0.6250364832221954  0.3599110234470176   T   T   T
  0.3768452410651714  0.5568609692684517  0.4124089109686918   T   T   T
  0.4723078164089713  0.4557257050327763  0.5877273803360978   F   F   F
  0.7274934547889520  0.6341509770527707  0.4837707470907713   T   T   T
  0.5025365817789544  0.3693362605371742  0.6834622034911976   T   T   T
  0.3836226868226991  0.4410580736479902  0.6403447025141961   T   T   T
  0.5544592502646992  0.4379899399457940  0.4037542370104745   F   F   F
  0.4336367470026977  0.3618945977944337  0.6087101761125736   T   T   T
  0.5279343317524328  0.3491363515381833  0.5790560715953188   T   T   T
  0.4276683493527322  0.6115597907411339  0.6491841903923071   T   T   T
 
  0.00000000E+00  0.00000000E+00  0.00000000E+00
  0.00000000E+00  0.00000000E+00  0.00000000E+00
  0.00000000E+00  0.00000000E+00  0.00000000E+00
  0.00000000E+00  0.00000000E+00  0.00000000E+00
  0.00000000E+00  0.00000000E+00  0.00000000E+00
  0.00000000E+00  0.00000000E+00  0.00000000E+00
  0.00000000E+00  0.00000000E+00  0.00000000E+00
  0.00000000E+00  0.00000000E+00  0.00000000E+00
  0.00000000E+00  0.00000000E+00  0.00000000E+00
  0.00000000E+00  0.00000000E+00  0.00000000E+00
  0.00000000E+00  0.00000000E+00  0.00000000E+00
  0.00000000E+00  0.00000000E+00  0.00000000E+00
  0.00000000E+00  0.00000000E+00  0.00000000E+00
  0.00000000E+00  0.00000000E+00  0.00000000E+00
  0.00000000E+00  0.00000000E+00  0.00000000E+00
  0.00000000E+00  0.00000000E+00  0.00000000E+00
  0.00000000E+00  0.00000000E+00  0.00000000E+00
  0.00000000E+00  0.00000000E+00  0.00000000E+00
  0.00000000E+00  0.00000000E+00  0.00000000E+00
  0.00000000E+00  0.00000000E+00  0.00000000E+00
  0.00000000E+00  0.00000000E+00  0.00000000E+00
  0.00000000E+00  0.00000000E+00  0.00000000E+00
  0.00000000E+00  0.00000000E+00  0.00000000E+00
  0.00000000E+00  0.00000000E+00  0.00000000E+00
  0.00000000E+00  0.00000000E+00  0.00000000E+00
  0.00000000E+00  0.00000000E+00  0.00000000E+00
  0.00000000E+00  0.00000000E+00  0.00000000E+00
  0.00000000E+00  0.00000000E+00  0.00000000E+00
  0.00000000E+00  0.00000000E+00  0.00000000E+00
  0.00000000E+00  0.00000000E+00  0.00000000E+00
  0.00000000E+00  0.00000000E+00  0.00000000E+00
  0.00000000E+00  0.00000000E+00  0.00000000E+00
  0.00000000E+00  0.00000000E+00  0.00000000E+00
  0.00000000E+00  0.00000000E+00  0.00000000E+00
  0.00000000E+00  0.00000000E+00  0.00000000E+00
  0.00000000E+00  0.00000000E+00  0.00000000E+00
  0.00000000E+00  0.00000000E+00  0.00000000E+00
  0.00000000E+00  0.00000000E+00  0.00000000E+00
  0.00000000E+00  0.00000000E+00  0.00000000E+00
  0.00000000E+00  0.00000000E+00  0.00000000E+00
  0.00000000E+00  0.00000000E+00  0.00000000E+00
  0.00000000E+00  0.00000000E+00  0.00000000E+00
  0.00000000E+00  0.00000000E+00  0.00000000E+00
  0.00000000E+00  0.00000000E+00  0.00000000E+00
  0.00000000E+00  0.00000000E+00  0.00000000E+00
  0.00000000E+00  0.00000000E+00  0.00000000E+00
  0.00000000E+00  0.00000000E+00  0.00000000E+00
  0.00000000E+00  0.00000000E+00  0.00000000E+00
  0.00000000E+00  0.00000000E+00  0.00000000E+00
  0.00000000E+00  0.00000000E+00  0.00000000E+00
  0.00000000E+00  0.00000000E+00  0.00000000E+00
  0.00000000E+00  0.00000000E+00  0.00000000E+00
  0.00000000E+00  0.00000000E+00  0.00000000E+00
  0.00000000E+00  0.00000000E+00  0.00000000E+00
  0.00000000E+00  0.00000000E+00  0.00000000E+00
  0.00000000E+00  0.00000000E+00  0.00000000E+00
  0.00000000E+00  0.00000000E+00  0.00000000E+00
  0.00000000E+00  0.00000000E+00  0.00000000E+00
  0.00000000E+00  0.00000000E+00  0.00000000E+00
  0.00000000E+00  0.00000000E+00  0.00000000E+00
  0.00000000E+00  0.00000000E+00  0.00000000E+00
  0.00000000E+00  0.00000000E+00  0.00000000E+00
  0.00000000E+00  0.00000000E+00  0.00000000E+00
  0.00000000E+00  0.00000000E+00  0.00000000E+00
  0.00000000E+00  0.00000000E+00  0.00000000E+00
  0.00000000E+00  0.00000000E+00  0.00000000E+00
  0.00000000E+00  0.00000000E+00  0.00000000E+00
  0.00000000E+00  0.00000000E+00  0.00000000E+00
  0.00000000E+00  0.00000000E+00  0.00000000E+00
