Bi La Sn H                              
   1.00000000000000     
    29.0000000000000000    0.0000000000000000    0.0000000000000000
     0.2488180851000000   28.9989325590000000    0.0000000000000000
    -0.0631677343000000   -0.4515975666000000   28.9964147692999994
   Bi   La   Sn   H 
    22    23    23     1
Selective dynamics
Direct
  0.7585275101008343  0.4778840267473753  0.4006727819584637   T   T   T
  0.6484094888929272  0.6850545753011877  0.5492305436746278   T   T   T
  0.3597653955549472  0.4571172529088096  0.4290024094841573   T   T   T
  0.5524377841916086  0.7139628624453842  0.5828466924624053   T   T   T
  0.5915029568994470  0.5209714444905416  0.5841479689498996   F   F   F
  0.6400903546344869  0.6792597641910695  0.4442870102223725   T   T   T
  0.6948706322042079  0.5190055514042284  0.6535380999085381   T   T   T
  0.4875780818609344  0.7014165181737588  0.4976039347991395   T   T   T
  0.5004839460855024  0.5502791173970252  0.5477141156400123   F   F   F
  0.3294718722057459  0.4802788054135643  0.5802891252400676   T   T   T
  0.3831574130343988  0.6078269932166118  0.5391925537168282   T   T   T
  0.6667129484492236  0.4827404655721850  0.5105018184570156   F   F   F
  0.5763997220267569  0.4263140504383500  0.5448328182496311   F   F   F
  0.6662623112524835  0.3718620737188873  0.5080811112975404   T   T   T
  0.4570854632687198  0.3338641358429573  0.4903738090260483   T   T   T
  0.6484934028780529  0.5775373212088155  0.4602701624361103   F   F   F
  0.5523774310847827  0.4321200113825631  0.7476865244130084   T   T   T
  0.5916353910988683  0.3501455210118914  0.6658959403253154   T   T   T
  0.4920400885225459  0.2994188372567887  0.4021915353161791   T   T   T
  0.6616059590652492  0.6148539938376696  0.6678335578467535   T   T   T
  0.4894370341316110  0.4120862642466491  0.3022790337798090   T   T   T
  0.6079055268628356  0.3179547745387845  0.5692793919601766   T   T   T
  0.5394424932506322  0.6834876755007305  0.4031666898018198   T   T   T
  0.3923952396051995  0.4133977731521417  0.5268071699786090   T   T   T
  0.6272230860704674  0.5506547325245537  0.2821685238694209   T   T   T
  0.4736639406099067  0.4804808582791951  0.6928882219722264   T   T   T
  0.5683115009887700  0.5094300495444983  0.4784716241115703   F   F   F
  0.4203210565129183  0.5084107200613417  0.5018573595042781   F   F   F
  0.4525860087175362  0.4021439460200730  0.4038959230465880   T   T   T
  0.5612329773704033  0.3516171058050647  0.3493035119878712   T   T   T
  0.4129690275455010  0.5366546921354766  0.6129689122180285   T   T   T
  0.5988108443346142  0.4421285260670446  0.3044969718171509   T   T   T
  0.4537097634386392  0.5997192843824508  0.3649121838056434   T   T   T
  0.4169515851970703  0.4879448869223536  0.3407194447239802   T   T   T
  0.6595707286196836  0.4253810372996188  0.6051756459077624   T   T   T
  0.6743467162873796  0.5788242962055512  0.5639731908099510   T   T   T
  0.5251164896754184  0.5092927980953595  0.3282136911313962   T   T   T
  0.5624352397554380  0.3564027850025880  0.4686635784803052   T   T   T
  0.3167472119890916  0.5371376062439124  0.4967610200044740   T   T   T
  0.6592130831122128  0.4284711443939452  0.4165623812288370   T   T   T
  0.5660841929594156  0.6261437171197244  0.5094829013827464   F   F   F
  0.5956135149404079  0.5263504733500283  0.6904874817935254   T   T   T
  0.4712556148161136  0.6435011673608226  0.5873382687351261   T   T   T
  0.4619687494358986  0.6033215439346371  0.4642487805283622   T   T   T
  0.7161251692728575  0.5738246041735207  0.3831524094387311   T   T   T
  0.5499310510395361  0.5822218838566187  0.4076968008106903   F   F   F
  0.4794126430662260  0.5072205383607624  0.4190535757241776   F   F   F
  0.6946456341223505  0.4801352190072252  0.3251474326919922   T   T   T
  0.7499663792821093  0.4274476656047015  0.4884107007815826   T   T   T
  0.7488776949031379  0.5376362638280261  0.4856913817838902   T   T   T
  0.7487306726543382  0.4892516916170193  0.5722219421305857   T   T   T
  0.6439260390269387  0.4311886397139442  0.7101066618370667   T   T   T
  0.5779511164224078  0.7436798729969355  0.4914669049098300   T   T   T
  0.6192554540844384  0.5183157687966542  0.3801816896793397   F   F   F
  0.5078698720147646  0.5650596512870812  0.6490874928080658   T   T   T
  0.4922009500451665  0.4366758245867572  0.4933013002826740   F   F   F
  0.5608844484509063  0.4404139570509003  0.6454865549417619   F   F   F
  0.5803838271288920  0.6177553944606035  0.6129436919327189   T   T   T
  0.5427365594110964  0.6161485142400249  0.3118947287780212   T   T   T
  0.6266466444665243  0.6243642290073249  0.3591536639574133   T   T   T
  0.3746647220949285  0.5568947073004539  0.4153070817988334   T   T   T
  0.4723078164089713  0.4557257050327763  0.5877273803360978   F   F   F
  0.7283041524514957  0.6344556577600597  0.4831555224507028   T   T   T
  0.4887225357850268  0.3770556814939079  0.6702962590033409   T   T   T
  0.3919827137589924  0.4298605188343692  0.6412541555417350   T   T   T
  0.5544592502646992  0.4379899399457940  0.4037542370104745   F   F   F
  0.4132295697739962  0.3423873247005427  0.5974628586114004   T   T   T
  0.5109279442708869  0.3567502530387546  0.5728935858817370   T   T   T
  0.4112406326326154  0.2968551695631853  0.6366075353511855   T   T   T
 
  0.00000000E+00  0.00000000E+00  0.00000000E+00
  0.00000000E+00  0.00000000E+00  0.00000000E+00
  0.00000000E+00  0.00000000E+00  0.00000000E+00
  0.00000000E+00  0.00000000E+00  0.00000000E+00
  0.00000000E+00  0.00000000E+00  0.00000000E+00
  0.00000000E+00  0.00000000E+00  0.00000000E+00
  0.00000000E+00  0.00000000E+00  0.00000000E+00
  0.00000000E+00  0.00000000E+00  0.00000000E+00
  0.00000000E+00  0.00000000E+00  0.00000000E+00
  0.00000000E+00  0.00000000E+00  0.00000000E+00
  0.00000000E+00  0.00000000E+00  0.00000000E+00
  0.00000000E+00  0.00000000E+00  0.00000000E+00
  0.00000000E+00  0.00000000E+00  0.00000000E+00
  0.00000000E+00  0.00000000E+00  0.00000000E+00
  0.00000000E+00  0.00000000E+00  0.00000000E+00
  0.00000000E+00  0.00000000E+00  0.00000000E+00
  0.00000000E+00  0.00000000E+00  0.00000000E+00
  0.00000000E+00  0.00000000E+00  0.00000000E+00
  0.00000000E+00  0.00000000E+00  0.00000000E+00
  0.00000000E+00  0.00000000E+00  0.00000000E+00
  0.00000000E+00  0.00000000E+00  0.00000000E+00
  0.00000000E+00  0.00000000E+00  0.00000000E+00
  0.00000000E+00  0.00000000E+00  0.00000000E+00
  0.00000000E+00  0.00000000E+00  0.00000000E+00
  0.00000000E+00  0.00000000E+00  0.00000000E+00
  0.00000000E+00  0.00000000E+00  0.00000000E+00
  0.00000000E+00  0.00000000E+00  0.00000000E+00
  0.00000000E+00  0.00000000E+00  0.00000000E+00
  0.00000000E+00  0.00000000E+00  0.00000000E+00
  0.00000000E+00  0.00000000E+00  0.00000000E+00
  0.00000000E+00  0.00000000E+00  0.00000000E+00
  0.00000000E+00  0.00000000E+00  0.00000000E+00
  0.00000000E+00  0.00000000E+00  0.00000000E+00
  0.00000000E+00  0.00000000E+00  0.00000000E+00
  0.00000000E+00  0.00000000E+00  0.00000000E+00
  0.00000000E+00  0.00000000E+00  0.00000000E+00
  0.00000000E+00  0.00000000E+00  0.00000000E+00
  0.00000000E+00  0.00000000E+00  0.00000000E+00
  0.00000000E+00  0.00000000E+00  0.00000000E+00
  0.00000000E+00  0.00000000E+00  0.00000000E+00
  0.00000000E+00  0.00000000E+00  0.00000000E+00
  0.00000000E+00  0.00000000E+00  0.00000000E+00
  0.00000000E+00  0.00000000E+00  0.00000000E+00
  0.00000000E+00  0.00000000E+00  0.00000000E+00
  0.00000000E+00  0.00000000E+00  0.00000000E+00
  0.00000000E+00  0.00000000E+00  0.00000000E+00
  0.00000000E+00  0.00000000E+00  0.00000000E+00
  0.00000000E+00  0.00000000E+00  0.00000000E+00
  0.00000000E+00  0.00000000E+00  0.00000000E+00
  0.00000000E+00  0.00000000E+00  0.00000000E+00
  0.00000000E+00  0.00000000E+00  0.00000000E+00
  0.00000000E+00  0.00000000E+00  0.00000000E+00
  0.00000000E+00  0.00000000E+00  0.00000000E+00
  0.00000000E+00  0.00000000E+00  0.00000000E+00
  0.00000000E+00  0.00000000E+00  0.00000000E+00
  0.00000000E+00  0.00000000E+00  0.00000000E+00
  0.00000000E+00  0.00000000E+00  0.00000000E+00
  0.00000000E+00  0.00000000E+00  0.00000000E+00
  0.00000000E+00  0.00000000E+00  0.00000000E+00
  0.00000000E+00  0.00000000E+00  0.00000000E+00
  0.00000000E+00  0.00000000E+00  0.00000000E+00
  0.00000000E+00  0.00000000E+00  0.00000000E+00
  0.00000000E+00  0.00000000E+00  0.00000000E+00
  0.00000000E+00  0.00000000E+00  0.00000000E+00
  0.00000000E+00  0.00000000E+00  0.00000000E+00
  0.00000000E+00  0.00000000E+00  0.00000000E+00
  0.00000000E+00  0.00000000E+00  0.00000000E+00
  0.00000000E+00  0.00000000E+00  0.00000000E+00
  0.00000000E+00  0.00000000E+00  0.00000000E+00
