Bi La Sn H                              
   1.00000000000000     
    29.0000000000000000    0.0000000000000000    0.0000000000000000
     0.2488180851000000   28.9989325590000000    0.0000000000000000
    -0.0631677343000000   -0.4515975666000000   28.9964147692999994
   Bi   La   Sn   H 
    22    23    23     1
Selective dynamics
Direct
  0.7594896007274808  0.4785159412686143  0.3986939396672410   T   T   T
  0.6465689624983006  0.6848981410825192  0.5515878900698231   T   T   T
  0.3597619635416350  0.4574070104695690  0.4297345239200865   T   T   T
  0.5502548923404788  0.7129887384114842  0.5845144464779854   T   T   T
  0.5915029568994470  0.5209714444905416  0.5841479689498996   F   F   F
  0.6401346900157830  0.6806449895408103  0.4456045302770271   T   T   T
  0.6954287550828629  0.5212565134259169  0.6543674740432984   T   T   T
  0.4859013757063609  0.7003305685709672  0.4988761568479262   T   T   T
  0.5004839460855024  0.5502791173970252  0.5477141156400123   F   F   F
  0.3254007072310457  0.4861823378677297  0.5745751623444553   T   T   T
  0.3818391722595222  0.6105604498901025  0.5354887667399845   T   T   T
  0.6667129484492236  0.4827404655721850  0.5105018184570156   F   F   F
  0.5763997220267569  0.4263140504383500  0.5448328182496311   F   F   F
  0.6700757955989664  0.3737202960737370  0.5065722461463805   T   T   T
  0.4636381634361997  0.3385780244045857  0.4993585950813391   T   T   T
  0.6484934028780529  0.5775373212088155  0.4602701624361103   F   F   F
  0.5574830012105467  0.4366191647562463  0.7503749435134530   T   T   T
  0.6003208016189687  0.3511214062121091  0.6677743338334868   T   T   T
  0.4926321934815792  0.2988546227125378  0.4103053843957516   T   T   T
  0.6598590555236622  0.6172955422767498  0.6673536641349007   T   T   T
  0.4920143282470089  0.4098115809839143  0.3067467593423936   T   T   T
  0.6213995284762104  0.3163948870045991  0.5719833019276259   T   T   T
  0.5390049974351223  0.6835744550970717  0.4044308566695909   T   T   T
  0.3908641297847803  0.4140106218727958  0.5293531331337125   T   T   T
  0.6282091110308278  0.5520752483875102  0.2826883782871312   T   T   T
  0.4709403574885022  0.4722709078050932  0.6911088980180113   T   T   T
  0.5683115009887700  0.5094300495444983  0.4784716241115703   F   F   F
  0.4203210565129183  0.5084107200613417  0.5018573595042781   F   F   F
  0.4521155836400185  0.4007333132651140  0.4069656561693360   T   T   T
  0.5630850752546511  0.3484968635611392  0.3541924846593396   T   T   T
  0.4111590805029279  0.5404377490784802  0.6096550900659801   T   T   T
  0.5987346829093861  0.4423618164419787  0.3040607267342664   T   T   T
  0.4546876508104934  0.5993128072273904  0.3628798669783884   T   T   T
  0.4177465071731635  0.4858738146004288  0.3407671407522214   T   T   T
  0.6605673488142111  0.4274010274798548  0.6046185508236985   T   T   T
  0.6732672698370189  0.5788060807288693  0.5642876679861764   T   T   T
  0.5260351992479195  0.5092467689666844  0.3278946006968534   T   T   T
  0.5664967308039406  0.3576717168682311  0.4691986490320519   T   T   T
  0.3154035086569409  0.5418816732736917  0.4912448914216069   T   T   T
  0.6602773276260938  0.4298469259378231  0.4157543621544019   T   T   T
  0.5660841929594156  0.6261437171197244  0.5094829013827464   F   F   F
  0.5949678858673881  0.5284958138036880  0.6897973112937891   T   T   T
  0.4699079418981599  0.6416361364992559  0.5880727347477182   T   T   T
  0.4616435189031708  0.6029277804719450  0.4629619602923523   T   T   T
  0.7162030492364744  0.5740489655565778  0.3830965528844010   T   T   T
  0.5499310510395361  0.5822218838566187  0.4076968008106903   F   F   F
  0.4794126430662260  0.5072205383607624  0.4190535757241776   F   F   F
  0.6949343424776347  0.4804797278555875  0.3243682128633732   T   T   T
  0.7522352019556026  0.4299666336940792  0.4879044344107655   T   T   T
  0.7479645211271381  0.5380982383805825  0.4852312175486864   T   T   T
  0.7486036463232753  0.4906891682722807  0.5727602352137204   T   T   T
  0.6471983280372708  0.4362833068194042  0.7090597252406677   T   T   T
  0.5761789294034608  0.7427992824363784  0.4932242868315146   T   T   T
  0.6192554540844384  0.5183157687966542  0.3801816896793397   F   F   F
  0.5051149380116543  0.5606339792293262  0.6503718708008764   T   T   T
  0.4922009500451665  0.4366758245867572  0.4933013002826740   F   F   F
  0.5608844484509063  0.4404139570509003  0.6454865549417619   F   F   F
  0.5774809303772670  0.6163674853392902  0.6136631981093920   T   T   T
  0.5440454198854010  0.6173359498288448  0.3120443071220870   T   T   T
  0.6267113481421647  0.6251903535761465  0.3607780324928505   T   T   T
  0.3764267460566524  0.5563689682130504  0.4124075551818162   T   T   T
  0.4723078164089713  0.4557257050327763  0.5877273803360978   F   F   F
  0.7271082579005219  0.6352183739569347  0.4843937519622600   T   T   T
  0.5011196244560041  0.3699208543789475  0.6900671213437293   T   T   T
  0.3809971946434087  0.4421966812902914  0.6408353014663124   T   T   T
  0.5544592502646992  0.4379899399457940  0.4037542370104745   F   F   F
  0.4369753670477908  0.3645481992162906  0.6138872197422202   T   T   T
  0.5279317713720270  0.3492427878941916  0.5792223856107710   T   T   T
  0.4967009102594548  0.3209077921580235  0.7249092597147703   T   T   T
 
  0.00000000E+00  0.00000000E+00  0.00000000E+00
  0.00000000E+00  0.00000000E+00  0.00000000E+00
  0.00000000E+00  0.00000000E+00  0.00000000E+00
  0.00000000E+00  0.00000000E+00  0.00000000E+00
  0.00000000E+00  0.00000000E+00  0.00000000E+00
  0.00000000E+00  0.00000000E+00  0.00000000E+00
  0.00000000E+00  0.00000000E+00  0.00000000E+00
  0.00000000E+00  0.00000000E+00  0.00000000E+00
  0.00000000E+00  0.00000000E+00  0.00000000E+00
  0.00000000E+00  0.00000000E+00  0.00000000E+00
  0.00000000E+00  0.00000000E+00  0.00000000E+00
  0.00000000E+00  0.00000000E+00  0.00000000E+00
  0.00000000E+00  0.00000000E+00  0.00000000E+00
  0.00000000E+00  0.00000000E+00  0.00000000E+00
  0.00000000E+00  0.00000000E+00  0.00000000E+00
  0.00000000E+00  0.00000000E+00  0.00000000E+00
  0.00000000E+00  0.00000000E+00  0.00000000E+00
  0.00000000E+00  0.00000000E+00  0.00000000E+00
  0.00000000E+00  0.00000000E+00  0.00000000E+00
  0.00000000E+00  0.00000000E+00  0.00000000E+00
  0.00000000E+00  0.00000000E+00  0.00000000E+00
  0.00000000E+00  0.00000000E+00  0.00000000E+00
  0.00000000E+00  0.00000000E+00  0.00000000E+00
  0.00000000E+00  0.00000000E+00  0.00000000E+00
  0.00000000E+00  0.00000000E+00  0.00000000E+00
  0.00000000E+00  0.00000000E+00  0.00000000E+00
  0.00000000E+00  0.00000000E+00  0.00000000E+00
  0.00000000E+00  0.00000000E+00  0.00000000E+00
  0.00000000E+00  0.00000000E+00  0.00000000E+00
  0.00000000E+00  0.00000000E+00  0.00000000E+00
  0.00000000E+00  0.00000000E+00  0.00000000E+00
  0.00000000E+00  0.00000000E+00  0.00000000E+00
  0.00000000E+00  0.00000000E+00  0.00000000E+00
  0.00000000E+00  0.00000000E+00  0.00000000E+00
  0.00000000E+00  0.00000000E+00  0.00000000E+00
  0.00000000E+00  0.00000000E+00  0.00000000E+00
  0.00000000E+00  0.00000000E+00  0.00000000E+00
  0.00000000E+00  0.00000000E+00  0.00000000E+00
  0.00000000E+00  0.00000000E+00  0.00000000E+00
  0.00000000E+00  0.00000000E+00  0.00000000E+00
  0.00000000E+00  0.00000000E+00  0.00000000E+00
  0.00000000E+00  0.00000000E+00  0.00000000E+00
  0.00000000E+00  0.00000000E+00  0.00000000E+00
  0.00000000E+00  0.00000000E+00  0.00000000E+00
  0.00000000E+00  0.00000000E+00  0.00000000E+00
  0.00000000E+00  0.00000000E+00  0.00000000E+00
  0.00000000E+00  0.00000000E+00  0.00000000E+00
  0.00000000E+00  0.00000000E+00  0.00000000E+00
  0.00000000E+00  0.00000000E+00  0.00000000E+00
  0.00000000E+00  0.00000000E+00  0.00000000E+00
  0.00000000E+00  0.00000000E+00  0.00000000E+00
  0.00000000E+00  0.00000000E+00  0.00000000E+00
  0.00000000E+00  0.00000000E+00  0.00000000E+00
  0.00000000E+00  0.00000000E+00  0.00000000E+00
  0.00000000E+00  0.00000000E+00  0.00000000E+00
  0.00000000E+00  0.00000000E+00  0.00000000E+00
  0.00000000E+00  0.00000000E+00  0.00000000E+00
  0.00000000E+00  0.00000000E+00  0.00000000E+00
  0.00000000E+00  0.00000000E+00  0.00000000E+00
  0.00000000E+00  0.00000000E+00  0.00000000E+00
  0.00000000E+00  0.00000000E+00  0.00000000E+00
  0.00000000E+00  0.00000000E+00  0.00000000E+00
  0.00000000E+00  0.00000000E+00  0.00000000E+00
  0.00000000E+00  0.00000000E+00  0.00000000E+00
  0.00000000E+00  0.00000000E+00  0.00000000E+00
  0.00000000E+00  0.00000000E+00  0.00000000E+00
  0.00000000E+00  0.00000000E+00  0.00000000E+00
  0.00000000E+00  0.00000000E+00  0.00000000E+00
  0.00000000E+00  0.00000000E+00  0.00000000E+00
