Bi La Sn H                              
   1.00000000000000     
    29.0000000000000000    0.0000000000000000    0.0000000000000000
     0.2488180851000000   28.9989325590000000    0.0000000000000000
    -0.0631677343000000   -0.4515975666000000   28.9964147692999994
   Bi   La   Sn   H 
    22    23    23     1
Selective dynamics
Direct
  0.7593759989712896  0.4788915789466009  0.3990607346974576   T   T   T
  0.6462724052353566  0.6845640783419333  0.5524865442570613   T   T   T
  0.3570009723521833  0.4591603477606763  0.4311725653030440   T   T   T
  0.5498751727412111  0.7132289120734705  0.5846856664335207   T   T   T
  0.5915029568994470  0.5209714444905416  0.5841479689498996   F   F   F
  0.6400339374299719  0.6806136650289748  0.4458865879812141   T   T   T
  0.6960294269509208  0.5220568340955575  0.6547049741255689   T   T   T
  0.4855839166060707  0.7003747909380856  0.5001247907983465   T   T   T
  0.5004839460855024  0.5502791173970252  0.5477141156400123   F   F   F
  0.3244557184087345  0.4858620250692966  0.5737955514748251   T   T   T
  0.3823860988092535  0.6112538019238519  0.5347615002735616   T   T   T
  0.6667129484492236  0.4827404655721850  0.5105018184570156   F   F   F
  0.5763997220267569  0.4263140504383500  0.5448328182496311   F   F   F
  0.6695991053497440  0.3743328699835245  0.5061214871955906   T   T   T
  0.4642602541656069  0.3382471120394479  0.5022589420873963   T   T   T
  0.6484934028780529  0.5775373212088155  0.4602701624361103   F   F   F
  0.5573426443028539  0.4379545211870653  0.7500289894802329   T   T   T
  0.6070048010383110  0.3511155128634720  0.6687072442483784   T   T   T
  0.4928879279789271  0.2973897886977619  0.4134175502921011   T   T   T
  0.6598500539900218  0.6183707153129465  0.6660278141542917   T   T   T
  0.4946947520425590  0.4095031331564435  0.3107422709466610   T   T   T
  0.6224464959052926  0.3164083209832521  0.5721449530206746   T   T   T
  0.5382493663466922  0.6834723690505999  0.4047836587324137   T   T   T
  0.3911561463485685  0.4148991060574080  0.5286186800296997   T   T   T
  0.6304207600075767  0.5532579158511070  0.2830879897490160   T   T   T
  0.4708755114841539  0.4691303214090389  0.6910875731339133   T   T   T
  0.5683115009887700  0.5094300495444983  0.4784716241115703   F   F   F
  0.4203210565129183  0.5084107200613417  0.5018573595042781   F   F   F
  0.4496055566284421  0.3989239521184763  0.4084254319654334   T   T   T
  0.5640541602180610  0.3469504905673139  0.3571628696814171   T   T   T
  0.4101517470547562  0.5404529309990589  0.6091065119942207   T   T   T
  0.5992988835720098  0.4430689708120579  0.3044024794181840   T   T   T
  0.4550596965614013  0.5984784598732735  0.3625445939223547   T   T   T
  0.4146294833743686  0.4838860342278251  0.3416130731419790   T   T   T
  0.6613817001297525  0.4283307388449425  0.6042808232141873   T   T   T
  0.6731947071997080  0.5786435679049364  0.5639814477793870   T   T   T
  0.5269701421629756  0.5094072938480306  0.3276616964762534   T   T   T
  0.5664962084865848  0.3581612676813994  0.4689570869584727   T   T   T
  0.3145668677194843  0.5435327580027635  0.4920289161274823   T   T   T
  0.6606712025783597  0.4297309681307326  0.4153945867874921   T   T   T
  0.5660841929594156  0.6261437171197244  0.5094829013827464   F   F   F
  0.5954344586536350  0.5290918679888521  0.6896256552173895   T   T   T
  0.4698283943601424  0.6411908599030881  0.5888593936560487   T   T   T
  0.4625418823050209  0.6030373344960743  0.4631585546488235   T   T   T
  0.7162527256246066  0.5743948035812936  0.3831331358043742   T   T   T
  0.5499310510395361  0.5822218838566187  0.4076968008106903   F   F   F
  0.4794126430662260  0.5072205383607624  0.4190535757241776   F   F   F
  0.6954213361120836  0.4800656194439429  0.3246272285527996   T   T   T
  0.7527539678092451  0.4304238232068925  0.4885085211674380   T   T   T
  0.7484686437312907  0.5382365965710088  0.4855201774270320   T   T   T
  0.7484897496369449  0.4918407478948140  0.5730746405400582   T   T   T
  0.6477327149660881  0.4377966043024344  0.7093272886009264   T   T   T
  0.5758179158241897  0.7426571846008048  0.4931911700974418   T   T   T
  0.6192554540844384  0.5183157687966542  0.3801816896793397   F   F   F
  0.5042824569629463  0.5584915742243416  0.6500560687472744   T   T   T
  0.4922009500451665  0.4366758245867572  0.4933013002826740   F   F   F
  0.5608844484509063  0.4404139570509003  0.6454865549417619   F   F   F
  0.5767042418370736  0.6159432438965858  0.6138081336188825   T   T   T
  0.5445367139921226  0.6169619663109491  0.3119768421925749   T   T   T
  0.6266554626347075  0.6257690955970768  0.3612060062691492   T   T   T
  0.3762323202340539  0.5566385342423364  0.4127867509308141   T   T   T
  0.4723078164089713  0.4557257050327763  0.5877273803360978   F   F   F
  0.7271025055860229  0.6350376210933822  0.4850323470771259   T   T   T
  0.5076747370144259  0.3670817412664746  0.6861090438215943   T   T   T
  0.3797845943771788  0.4424719254930887  0.6406126360803455   T   T   T
  0.5544592502646992  0.4379899399457940  0.4037542370104745   F   F   F
  0.4361027863905971  0.3661253663023422  0.6142841514221041   T   T   T
  0.5292587947692340  0.3491644875711535  0.5812377503912837   T   T   T
  0.3999296448662910  0.4108604397331733  0.3504798510534372   T   T   T
 
  0.00000000E+00  0.00000000E+00  0.00000000E+00
  0.00000000E+00  0.00000000E+00  0.00000000E+00
  0.00000000E+00  0.00000000E+00  0.00000000E+00
  0.00000000E+00  0.00000000E+00  0.00000000E+00
  0.00000000E+00  0.00000000E+00  0.00000000E+00
  0.00000000E+00  0.00000000E+00  0.00000000E+00
  0.00000000E+00  0.00000000E+00  0.00000000E+00
  0.00000000E+00  0.00000000E+00  0.00000000E+00
  0.00000000E+00  0.00000000E+00  0.00000000E+00
  0.00000000E+00  0.00000000E+00  0.00000000E+00
  0.00000000E+00  0.00000000E+00  0.00000000E+00
  0.00000000E+00  0.00000000E+00  0.00000000E+00
  0.00000000E+00  0.00000000E+00  0.00000000E+00
  0.00000000E+00  0.00000000E+00  0.00000000E+00
  0.00000000E+00  0.00000000E+00  0.00000000E+00
  0.00000000E+00  0.00000000E+00  0.00000000E+00
  0.00000000E+00  0.00000000E+00  0.00000000E+00
  0.00000000E+00  0.00000000E+00  0.00000000E+00
  0.00000000E+00  0.00000000E+00  0.00000000E+00
  0.00000000E+00  0.00000000E+00  0.00000000E+00
  0.00000000E+00  0.00000000E+00  0.00000000E+00
  0.00000000E+00  0.00000000E+00  0.00000000E+00
  0.00000000E+00  0.00000000E+00  0.00000000E+00
  0.00000000E+00  0.00000000E+00  0.00000000E+00
  0.00000000E+00  0.00000000E+00  0.00000000E+00
  0.00000000E+00  0.00000000E+00  0.00000000E+00
  0.00000000E+00  0.00000000E+00  0.00000000E+00
  0.00000000E+00  0.00000000E+00  0.00000000E+00
  0.00000000E+00  0.00000000E+00  0.00000000E+00
  0.00000000E+00  0.00000000E+00  0.00000000E+00
  0.00000000E+00  0.00000000E+00  0.00000000E+00
  0.00000000E+00  0.00000000E+00  0.00000000E+00
  0.00000000E+00  0.00000000E+00  0.00000000E+00
  0.00000000E+00  0.00000000E+00  0.00000000E+00
  0.00000000E+00  0.00000000E+00  0.00000000E+00
  0.00000000E+00  0.00000000E+00  0.00000000E+00
  0.00000000E+00  0.00000000E+00  0.00000000E+00
  0.00000000E+00  0.00000000E+00  0.00000000E+00
  0.00000000E+00  0.00000000E+00  0.00000000E+00
  0.00000000E+00  0.00000000E+00  0.00000000E+00
  0.00000000E+00  0.00000000E+00  0.00000000E+00
  0.00000000E+00  0.00000000E+00  0.00000000E+00
  0.00000000E+00  0.00000000E+00  0.00000000E+00
  0.00000000E+00  0.00000000E+00  0.00000000E+00
  0.00000000E+00  0.00000000E+00  0.00000000E+00
  0.00000000E+00  0.00000000E+00  0.00000000E+00
  0.00000000E+00  0.00000000E+00  0.00000000E+00
  0.00000000E+00  0.00000000E+00  0.00000000E+00
  0.00000000E+00  0.00000000E+00  0.00000000E+00
  0.00000000E+00  0.00000000E+00  0.00000000E+00
  0.00000000E+00  0.00000000E+00  0.00000000E+00
  0.00000000E+00  0.00000000E+00  0.00000000E+00
  0.00000000E+00  0.00000000E+00  0.00000000E+00
  0.00000000E+00  0.00000000E+00  0.00000000E+00
  0.00000000E+00  0.00000000E+00  0.00000000E+00
  0.00000000E+00  0.00000000E+00  0.00000000E+00
  0.00000000E+00  0.00000000E+00  0.00000000E+00
  0.00000000E+00  0.00000000E+00  0.00000000E+00
  0.00000000E+00  0.00000000E+00  0.00000000E+00
  0.00000000E+00  0.00000000E+00  0.00000000E+00
  0.00000000E+00  0.00000000E+00  0.00000000E+00
  0.00000000E+00  0.00000000E+00  0.00000000E+00
  0.00000000E+00  0.00000000E+00  0.00000000E+00
  0.00000000E+00  0.00000000E+00  0.00000000E+00
  0.00000000E+00  0.00000000E+00  0.00000000E+00
  0.00000000E+00  0.00000000E+00  0.00000000E+00
  0.00000000E+00  0.00000000E+00  0.00000000E+00
  0.00000000E+00  0.00000000E+00  0.00000000E+00
  0.00000000E+00  0.00000000E+00  0.00000000E+00
