Bi La Sn H                              
   1.00000000000000     
    29.0000000000000000    0.0000000000000000    0.0000000000000000
     0.2488180851000000   28.9989325590000000    0.0000000000000000
    -0.0631677343000000   -0.4515975666000000   28.9964147692999994
   Bi   La   Sn   H 
    22    23    23     1
Selective dynamics
Direct
  0.7596754774104765  0.4741107717467114  0.3980789381403506   T   T   T
  0.6477686235978034  0.6845062421214502  0.5500723307903159   T   T   T
  0.3618923781994920  0.4582143157339355  0.4277347451019995   T   T   T
  0.5513691241866520  0.7135806596110169  0.5838872226259665   T   T   T
  0.5915029568994470  0.5209714444905416  0.5841479689498996   F   F   F
  0.6405561286598330  0.6792672543312955  0.4438466632637433   T   T   T
  0.6955658222881775  0.5212070943807751  0.6537972749817930   T   T   T
  0.4884461561973071  0.7033540243418170  0.4995097430523941   T   T   T
  0.5004839460855024  0.5502791173970252  0.5477141156400123   F   F   F
  0.3257627822090407  0.4859883707034430  0.5755115176499901   T   T   T
  0.3814219780656399  0.6101480472311801  0.5362169051633555   T   T   T
  0.6667129484492236  0.4827404655721850  0.5105018184570156   F   F   F
  0.5763997220267569  0.4263140504383500  0.5448328182496311   F   F   F
  0.6680594800666426  0.3735812013604510  0.5069472650705675   T   T   T
  0.4623100807152801  0.3391574883851743  0.5002746365701167   T   T   T
  0.6484934028780529  0.5775373212088155  0.4602701624361103   F   F   F
  0.5577228493064543  0.4358311105685408  0.7497880676528015   T   T   T
  0.6013648999151477  0.3509395375804999  0.6695159928549721   T   T   T
  0.4911643367819202  0.2985865871930573  0.4108958736986597   T   T   T
  0.6598958178700127  0.6171484624093576  0.6670888476734715   T   T   T
  0.4891130746768544  0.4107790087451782  0.3039238353155397   T   T   T
  0.6213364261153757  0.3161471934389681  0.5735047937676666   T   T   T
  0.5388640984245875  0.6841798131127519  0.4032574971439158   T   T   T
  0.3897002505141384  0.4148881886472642  0.5272829724049356   T   T   T
  0.6292038497505330  0.5496704592123729  0.2821770531231088   T   T   T
  0.4719142353703878  0.4735954073159702  0.6922176043434642   T   T   T
  0.5683115009887700  0.5094300495444983  0.4784716241115703   F   F   F
  0.4203210565129183  0.5084107200613417  0.5018573595042781   F   F   F
  0.4533935361046080  0.4014684427783478  0.4059810519692548   T   T   T
  0.5591858323837493  0.3491584624982397  0.3526688369394372   T   T   T
  0.4115948336506928  0.5400969727924887  0.6101593308702657   T   T   T
  0.5986679726387532  0.4398828653682601  0.3045505084816672   T   T   T
  0.4537441375697622  0.5935636120993038  0.3554325267573375   T   T   T
  0.4183329292433245  0.4891480437205800  0.3378654907458611   T   T   T
  0.6609362412089158  0.4276598217434144  0.6041489819167267   T   T   T
  0.6733155555618866  0.5787474634115953  0.5639067351720175   T   T   T
  0.5273114488225144  0.5076960919594975  0.3281542806271039   T   T   T
  0.5651049676572941  0.3572317620342728  0.4690736692358560   T   T   T
  0.3161018296217772  0.5406618214860152  0.4914420547298123   T   T   T
  0.6598344868108235  0.4293007756788932  0.4160229765675842   T   T   T
  0.5660841929594156  0.6261437171197244  0.5094829013827464   F   F   F
  0.5955905882877602  0.5279354738252953  0.6899944026034647   T   T   T
  0.4707746876185119  0.6421812589056999  0.5874458919738410   T   T   T
  0.4629946327173662  0.6053517104022597  0.4655442620698839   T   T   T
  0.7165499874412035  0.5698653294350653  0.3829928877434218   T   T   T
  0.5499310510395361  0.5822218838566187  0.4076968008106903   F   F   F
  0.4794126430662260  0.5072205383607624  0.4190535757241776   F   F   F
  0.6946524557803418  0.4774432060540048  0.3235475707858173   T   T   T
  0.7512047177169348  0.4281264789272374  0.4886022246464169   T   T   T
  0.7486833952680740  0.5361479493910570  0.4843536795568448   T   T   T
  0.7488962823930961  0.4898255731093555  0.5722784210213341   T   T   T
  0.6479547675352594  0.4356947341556376  0.7088896762865786   T   T   T
  0.5795665560013705  0.7437899783606238  0.4923360697389371   T   T   T
  0.6192554540844384  0.5183157687966542  0.3801816896793397   F   F   F
  0.5052943399901352  0.5615969598740016  0.6502936338504838   T   T   T
  0.4922009500451665  0.4366758245867572  0.4933013002826740   F   F   F
  0.5608844484509063  0.4404139570509003  0.6454865549417619   F   F   F
  0.5777669011234601  0.6166271615989015  0.6138805588585654   T   T   T
  0.5461236601518670  0.6160974656498355  0.3131518355173424   T   T   T
  0.6297501493892248  0.6239980781730831  0.3590312367814936   T   T   T
  0.3780584146178133  0.5577271086028933  0.4137204084012694   T   T   T
  0.4723078164089713  0.4557257050327763  0.5877273803360978   F   F   F
  0.7274639514460721  0.6337280202687954  0.4835597885571140   T   T   T
  0.5017842103874698  0.3709832218933923  0.6840682498351592   T   T   T
  0.3820122410040487  0.4405969879268052  0.6409253859336286   T   T   T
  0.5544592502646992  0.4379899399457940  0.4037542370104745   F   F   F
  0.4333931358554611  0.3624727489586322  0.6098969292126227   T   T   T
  0.5274368545926801  0.3497373239617025  0.5795092273545071   T   T   T
  0.4675354786467447  0.6539315698750082  0.4031692181073988   T   T   T
 
  0.00000000E+00  0.00000000E+00  0.00000000E+00
  0.00000000E+00  0.00000000E+00  0.00000000E+00
  0.00000000E+00  0.00000000E+00  0.00000000E+00
  0.00000000E+00  0.00000000E+00  0.00000000E+00
  0.00000000E+00  0.00000000E+00  0.00000000E+00
  0.00000000E+00  0.00000000E+00  0.00000000E+00
  0.00000000E+00  0.00000000E+00  0.00000000E+00
  0.00000000E+00  0.00000000E+00  0.00000000E+00
  0.00000000E+00  0.00000000E+00  0.00000000E+00
  0.00000000E+00  0.00000000E+00  0.00000000E+00
  0.00000000E+00  0.00000000E+00  0.00000000E+00
  0.00000000E+00  0.00000000E+00  0.00000000E+00
  0.00000000E+00  0.00000000E+00  0.00000000E+00
  0.00000000E+00  0.00000000E+00  0.00000000E+00
  0.00000000E+00  0.00000000E+00  0.00000000E+00
  0.00000000E+00  0.00000000E+00  0.00000000E+00
  0.00000000E+00  0.00000000E+00  0.00000000E+00
  0.00000000E+00  0.00000000E+00  0.00000000E+00
  0.00000000E+00  0.00000000E+00  0.00000000E+00
  0.00000000E+00  0.00000000E+00  0.00000000E+00
  0.00000000E+00  0.00000000E+00  0.00000000E+00
  0.00000000E+00  0.00000000E+00  0.00000000E+00
  0.00000000E+00  0.00000000E+00  0.00000000E+00
  0.00000000E+00  0.00000000E+00  0.00000000E+00
  0.00000000E+00  0.00000000E+00  0.00000000E+00
  0.00000000E+00  0.00000000E+00  0.00000000E+00
  0.00000000E+00  0.00000000E+00  0.00000000E+00
  0.00000000E+00  0.00000000E+00  0.00000000E+00
  0.00000000E+00  0.00000000E+00  0.00000000E+00
  0.00000000E+00  0.00000000E+00  0.00000000E+00
  0.00000000E+00  0.00000000E+00  0.00000000E+00
  0.00000000E+00  0.00000000E+00  0.00000000E+00
  0.00000000E+00  0.00000000E+00  0.00000000E+00
  0.00000000E+00  0.00000000E+00  0.00000000E+00
  0.00000000E+00  0.00000000E+00  0.00000000E+00
  0.00000000E+00  0.00000000E+00  0.00000000E+00
  0.00000000E+00  0.00000000E+00  0.00000000E+00
  0.00000000E+00  0.00000000E+00  0.00000000E+00
  0.00000000E+00  0.00000000E+00  0.00000000E+00
  0.00000000E+00  0.00000000E+00  0.00000000E+00
  0.00000000E+00  0.00000000E+00  0.00000000E+00
  0.00000000E+00  0.00000000E+00  0.00000000E+00
  0.00000000E+00  0.00000000E+00  0.00000000E+00
  0.00000000E+00  0.00000000E+00  0.00000000E+00
  0.00000000E+00  0.00000000E+00  0.00000000E+00
  0.00000000E+00  0.00000000E+00  0.00000000E+00
  0.00000000E+00  0.00000000E+00  0.00000000E+00
  0.00000000E+00  0.00000000E+00  0.00000000E+00
  0.00000000E+00  0.00000000E+00  0.00000000E+00
  0.00000000E+00  0.00000000E+00  0.00000000E+00
  0.00000000E+00  0.00000000E+00  0.00000000E+00
  0.00000000E+00  0.00000000E+00  0.00000000E+00
  0.00000000E+00  0.00000000E+00  0.00000000E+00
  0.00000000E+00  0.00000000E+00  0.00000000E+00
  0.00000000E+00  0.00000000E+00  0.00000000E+00
  0.00000000E+00  0.00000000E+00  0.00000000E+00
  0.00000000E+00  0.00000000E+00  0.00000000E+00
  0.00000000E+00  0.00000000E+00  0.00000000E+00
  0.00000000E+00  0.00000000E+00  0.00000000E+00
  0.00000000E+00  0.00000000E+00  0.00000000E+00
  0.00000000E+00  0.00000000E+00  0.00000000E+00
  0.00000000E+00  0.00000000E+00  0.00000000E+00
  0.00000000E+00  0.00000000E+00  0.00000000E+00
  0.00000000E+00  0.00000000E+00  0.00000000E+00
  0.00000000E+00  0.00000000E+00  0.00000000E+00
  0.00000000E+00  0.00000000E+00  0.00000000E+00
  0.00000000E+00  0.00000000E+00  0.00000000E+00
  0.00000000E+00  0.00000000E+00  0.00000000E+00
  0.00000000E+00  0.00000000E+00  0.00000000E+00
