Bi La Sn H                              
   1.00000000000000     
    29.0000000000000000    0.0000000000000000    0.0000000000000000
     0.2488180851000000   28.9989325590000000    0.0000000000000000
    -0.0631677343000000   -0.4515975666000000   28.9964147692999994
   Bi   La   Sn   H 
    22    23    23     1
Selective dynamics
Direct
  0.7595640225574460  0.4804597244033077  0.3982467984995046   T   T   T
  0.6474241159341163  0.6849373607742895  0.5499812487133245   T   T   T
  0.3595692328599359  0.4584396024722395  0.4283641801013476   T   T   T
  0.5505464654942981  0.7135605294031385  0.5831527839903244   T   T   T
  0.5915029568994470  0.5209714444905416  0.5841479689498996   F   F   F
  0.6399193151380937  0.6794228895263303  0.4445272359868195   T   T   T
  0.6945675461265569  0.5202979498589910  0.6535797459451972   T   T   T
  0.4871348648861150  0.7012836354263963  0.4982208804606930   T   T   T
  0.5004839460855024  0.5502791173970252  0.5477141156400123   F   F   F
  0.3259391439852917  0.4859688596823084  0.5754449743395107   T   T   T
  0.3820180205824607  0.6099548305218345  0.5354658097803928   T   T   T
  0.6667129484492236  0.4827404655721850  0.5105018184570156   F   F   F
  0.5763997220267569  0.4263140504383500  0.5448328182496311   F   F   F
  0.6691414750085045  0.3736657837803385  0.5056243177689150   T   T   T
  0.4624769512585151  0.3384270549266562  0.4985669130176580   T   T   T
  0.6484934028780529  0.5775373212088155  0.4602701624361103   F   F   F
  0.5575597922884167  0.4356630235770777  0.7499341900471205   T   T   T
  0.5999543761930342  0.3495575028036573  0.6679772473896126   T   T   T
  0.4931489736713314  0.2996366379982672  0.4090509323894504   T   T   T
  0.6599702844310490  0.6167711241139946  0.6674170978343120   T   T   T
  0.4924033288833021  0.4106584315007402  0.3067112319705429   T   T   T
  0.6221252893656510  0.3159619883630661  0.5725441251532286   T   T   T
  0.5390053722932724  0.6828994100851964  0.4029829512749468   T   T   T
  0.3900493070571055  0.4150478572581900  0.5267379800348022   T   T   T
  0.6266865056722224  0.5536509029356665  0.2803910014561367   T   T   T
  0.4722809944781529  0.4748927007263672  0.6920599922314545   T   T   T
  0.5683115009887700  0.5094300495444983  0.4784716241115703   F   F   F
  0.4203210565129183  0.5084107200613417  0.5018573595042781   F   F   F
  0.4522639327297344  0.4011882941240128  0.4064609606015748   T   T   T
  0.5639329829133822  0.3494522856881461  0.3531518222079641   T   T   T
  0.4116634110213551  0.5399634562608940  0.6101128146246526   T   T   T
  0.5998346914196442  0.4418267635354121  0.3045049332604016   T   T   T
  0.4560380147092357  0.5987724698367024  0.3617692974676372   T   T   T
  0.4183156838488102  0.4870603665637531  0.3400932284523051   T   T   T
  0.6612639144179872  0.4259989206563907  0.6034020839273641   T   T   T
  0.6734719558298550  0.5788834033881975  0.5640667141892088   T   T   T
  0.5262041659607003  0.5102654121706399  0.3283063036039873   T   T   T
  0.5658404983140296  0.3571817292361020  0.4694957260723688   T   T   T
  0.3155004703289709  0.5411107266364604  0.4914044970113046   T   T   T
  0.6603022752070458  0.4301225633358843  0.4148698117292559   T   T   T
  0.5660841929594156  0.6261437171197244  0.5094829013827464   F   F   F
  0.5950165446413148  0.5280181852203546  0.6900963150880250   T   T   T
  0.4698320569674337  0.6424215514439883  0.5875247394021118   T   T   T
  0.4624620659922286  0.6033580225166649  0.4635915237291480   T   T   T
  0.7158071000212683  0.5760951473471861  0.3831680931424193   T   T   T
  0.5499310510395361  0.5822218838566187  0.4076968008106903   F   F   F
  0.4794126430662260  0.5072205383607624  0.4190535757241776   F   F   F
  0.6950007780673892  0.4830612065652546  0.3240312373047555   T   T   T
  0.7515354405209259  0.4300679456214262  0.4864242453793856   T   T   T
  0.7481333145273605  0.5391566179375419  0.4853057253896119   T   T   T
  0.7487172640264435  0.4899351049798784  0.5717576341407110   T   T   T
  0.6469700952663044  0.4347804476907969  0.7076940851179525   T   T   T
  0.5772194129565950  0.7439422610623597  0.4919152107797301   T   T   T
  0.6192554540844384  0.5183157687966542  0.3801816896793397   F   F   F
  0.5054452460502098  0.5628035090472187  0.6502996930868241   T   T   T
  0.4922009500451665  0.4366758245867572  0.4933013002826740   F   F   F
  0.5608844484509063  0.4404139570509003  0.6454865549417619   F   F   F
  0.5780907303403087  0.6168173627749992  0.6133230524503400   T   T   T
  0.5439103054426759  0.6173124697803805  0.3055366070217794   T   T   T
  0.6239073446990115  0.6237633549892971  0.3598141172966458   T   T   T
  0.3768897852662875  0.5573725404630320  0.4124389545676595   T   T   T
  0.4723078164089713  0.4557257050327763  0.5877273803360978   F   F   F
  0.7271402111332125  0.6360025829276668  0.4848808924103561   T   T   T
  0.5006701979184220  0.3721751091973327  0.6825415636051612   T   T   T
  0.3829625734961227  0.4401209738778779  0.6401297941838070   T   T   T
  0.5544592502646992  0.4379899399457940  0.4037542370104745   F   F   F
  0.4337164069989059  0.3614858614950825  0.6077178848727930   T   T   T
  0.5280466169286363  0.3489677799190535  0.5783540284395093   T   T   T
  0.5805178114577831  0.6153238981864542  0.2504447702411679   T   T   T
 
  0.00000000E+00  0.00000000E+00  0.00000000E+00
  0.00000000E+00  0.00000000E+00  0.00000000E+00
  0.00000000E+00  0.00000000E+00  0.00000000E+00
  0.00000000E+00  0.00000000E+00  0.00000000E+00
  0.00000000E+00  0.00000000E+00  0.00000000E+00
  0.00000000E+00  0.00000000E+00  0.00000000E+00
  0.00000000E+00  0.00000000E+00  0.00000000E+00
  0.00000000E+00  0.00000000E+00  0.00000000E+00
  0.00000000E+00  0.00000000E+00  0.00000000E+00
  0.00000000E+00  0.00000000E+00  0.00000000E+00
  0.00000000E+00  0.00000000E+00  0.00000000E+00
  0.00000000E+00  0.00000000E+00  0.00000000E+00
  0.00000000E+00  0.00000000E+00  0.00000000E+00
  0.00000000E+00  0.00000000E+00  0.00000000E+00
  0.00000000E+00  0.00000000E+00  0.00000000E+00
  0.00000000E+00  0.00000000E+00  0.00000000E+00
  0.00000000E+00  0.00000000E+00  0.00000000E+00
  0.00000000E+00  0.00000000E+00  0.00000000E+00
  0.00000000E+00  0.00000000E+00  0.00000000E+00
  0.00000000E+00  0.00000000E+00  0.00000000E+00
  0.00000000E+00  0.00000000E+00  0.00000000E+00
  0.00000000E+00  0.00000000E+00  0.00000000E+00
  0.00000000E+00  0.00000000E+00  0.00000000E+00
  0.00000000E+00  0.00000000E+00  0.00000000E+00
  0.00000000E+00  0.00000000E+00  0.00000000E+00
  0.00000000E+00  0.00000000E+00  0.00000000E+00
  0.00000000E+00  0.00000000E+00  0.00000000E+00
  0.00000000E+00  0.00000000E+00  0.00000000E+00
  0.00000000E+00  0.00000000E+00  0.00000000E+00
  0.00000000E+00  0.00000000E+00  0.00000000E+00
  0.00000000E+00  0.00000000E+00  0.00000000E+00
  0.00000000E+00  0.00000000E+00  0.00000000E+00
  0.00000000E+00  0.00000000E+00  0.00000000E+00
  0.00000000E+00  0.00000000E+00  0.00000000E+00
  0.00000000E+00  0.00000000E+00  0.00000000E+00
  0.00000000E+00  0.00000000E+00  0.00000000E+00
  0.00000000E+00  0.00000000E+00  0.00000000E+00
  0.00000000E+00  0.00000000E+00  0.00000000E+00
  0.00000000E+00  0.00000000E+00  0.00000000E+00
  0.00000000E+00  0.00000000E+00  0.00000000E+00
  0.00000000E+00  0.00000000E+00  0.00000000E+00
  0.00000000E+00  0.00000000E+00  0.00000000E+00
  0.00000000E+00  0.00000000E+00  0.00000000E+00
  0.00000000E+00  0.00000000E+00  0.00000000E+00
  0.00000000E+00  0.00000000E+00  0.00000000E+00
  0.00000000E+00  0.00000000E+00  0.00000000E+00
  0.00000000E+00  0.00000000E+00  0.00000000E+00
  0.00000000E+00  0.00000000E+00  0.00000000E+00
  0.00000000E+00  0.00000000E+00  0.00000000E+00
  0.00000000E+00  0.00000000E+00  0.00000000E+00
  0.00000000E+00  0.00000000E+00  0.00000000E+00
  0.00000000E+00  0.00000000E+00  0.00000000E+00
  0.00000000E+00  0.00000000E+00  0.00000000E+00
  0.00000000E+00  0.00000000E+00  0.00000000E+00
  0.00000000E+00  0.00000000E+00  0.00000000E+00
  0.00000000E+00  0.00000000E+00  0.00000000E+00
  0.00000000E+00  0.00000000E+00  0.00000000E+00
  0.00000000E+00  0.00000000E+00  0.00000000E+00
  0.00000000E+00  0.00000000E+00  0.00000000E+00
  0.00000000E+00  0.00000000E+00  0.00000000E+00
  0.00000000E+00  0.00000000E+00  0.00000000E+00
  0.00000000E+00  0.00000000E+00  0.00000000E+00
  0.00000000E+00  0.00000000E+00  0.00000000E+00
  0.00000000E+00  0.00000000E+00  0.00000000E+00
  0.00000000E+00  0.00000000E+00  0.00000000E+00
  0.00000000E+00  0.00000000E+00  0.00000000E+00
  0.00000000E+00  0.00000000E+00  0.00000000E+00
  0.00000000E+00  0.00000000E+00  0.00000000E+00
  0.00000000E+00  0.00000000E+00  0.00000000E+00
