Bi La Sn H                              
   1.00000000000000     
    29.0000000000000000    0.0000000000000000    0.0000000000000000
     0.2488180851000000   28.9989325590000000    0.0000000000000000
    -0.0631677343000000   -0.4515975666000000   28.9964147692999994
   Bi   La   Sn   H 
    22    23    23     1
Selective dynamics
Direct
  0.7645362347365262  0.4720684081380886  0.3944090992555337   T   T   T
  0.6468796947738108  0.6857880720864795  0.5518341960221267   T   T   T
  0.3596746167173983  0.4580772127575677  0.4284474782953017   T   T   T
  0.5492889390936685  0.7131116283752580  0.5843891982483129   T   T   T
  0.5915029568994470  0.5209714444905416  0.5841479689498996   F   F   F
  0.6402109223646807  0.6806361049437135  0.4454812859958562   T   T   T
  0.6952681177296923  0.5226868428211612  0.6543077104381525   T   T   T
  0.4860232157710846  0.7013764441183103  0.4992096455707393   T   T   T
  0.5004839460855024  0.5502791173970252  0.5477141156400123   F   F   F
  0.3255925203580158  0.4855472754499155  0.5750933750770275   T   T   T
  0.3814433819050690  0.6099153731724868  0.5354666668134876   T   T   T
  0.6667129484492236  0.4827404655721850  0.5105018184570156   F   F   F
  0.5763997220267569  0.4263140504383500  0.5448328182496311   F   F   F
  0.6702925953322062  0.3751778252398953  0.5063072220402496   T   T   T
  0.4636708584716956  0.3382659386942763  0.4991152020961816   T   T   T
  0.6484934028780529  0.5775373212088155  0.4602701624361103   F   F   F
  0.5576359628820284  0.4360947906799656  0.7498733828041311   T   T   T
  0.6018143497423066  0.3511259452600792  0.6690076761246355   T   T   T
  0.4935585243373306  0.2993920426501642  0.4093826830895023   T   T   T
  0.6588547548829877  0.6187309955916309  0.6669185186229459   T   T   T
  0.4915646410769067  0.4099437044874065  0.3074041864963001   T   T   T
  0.6233844363438872  0.3174257023164491  0.5728654309169300   T   T   T
  0.5394774593105551  0.6837498094232998  0.4049900804332026   T   T   T
  0.3908011701796793  0.4149822589117940  0.5272880837054792   T   T   T
  0.6300744604161164  0.5509533268209837  0.2830916324168115   T   T   T
  0.4718346589688582  0.4728191759797601  0.6917676882440355   T   T   T
  0.5683115009887700  0.5094300495444983  0.4784716241115703   F   F   F
  0.4203210565129183  0.5084107200613417  0.5018573595042781   F   F   F
  0.4521882695265248  0.4006271214725993  0.4069214452410327   T   T   T
  0.5646658342724831  0.3489675673150470  0.3535220089913842   T   T   T
  0.4110547112300594  0.5398737623967562  0.6099873797596316   T   T   T
  0.5984784036576472  0.4411659849428645  0.3043832716156117   T   T   T
  0.4554798861524120  0.6001998670826745  0.3628253988809799   T   T   T
  0.4182343210187250  0.4868635901464513  0.3401894377517559   T   T   T
  0.6615300237611497  0.4275632793308843  0.6045907467757851   T   T   T
  0.6724925809659176  0.5797457087483560  0.5644438939538805   T   T   T
  0.5263482876572765  0.5096519314911303  0.3276594429172203   T   T   T
  0.5667793721793850  0.3572531552989840  0.4693265862589822   T   T   T
  0.3156165792839430  0.5409292248639901  0.4913214601550616   T   T   T
  0.6599620612905119  0.4293738678189854  0.4147135896963883   T   T   T
  0.5660841929594156  0.6261437171197244  0.5094829013827464   F   F   F
  0.5953336871396953  0.5285294544340405  0.6897900263898710   T   T   T
  0.4690867980219541  0.6416831299028113  0.5877664207872985   T   T   T
  0.4623893344984371  0.6036649295614268  0.4641588988670360   T   T   T
  0.7168304435223137  0.5673405752019587  0.3838214283242688   T   T   T
  0.5499310510395361  0.5822218838566187  0.4076968008106903   F   F   F
  0.4794126430662260  0.5072205383607624  0.4190535757241776   F   F   F
  0.6950334878546794  0.4769702523966471  0.3224686349927427   T   T   T
  0.7522341819891483  0.4319559319688025  0.4862355838648519   T   T   T
  0.7469417971638231  0.5399269433868124  0.4862237784751888   T   T   T
  0.7478839515316603  0.4910361078256237  0.5724062588350338   T   T   T
  0.6473159318465753  0.4367472224878780  0.7084859849098785   T   T   T
  0.5768685490266893  0.7429667457496744  0.4935002647146097   T   T   T
  0.6192554540844384  0.5183157687966542  0.3801816896793397   F   F   F
  0.5048940587223673  0.5612194240752808  0.6503882293306700   T   T   T
  0.4922009500451665  0.4366758245867572  0.4933013002826740   F   F   F
  0.5608844484509063  0.4404139570509003  0.6454865549417619   F   F   F
  0.5766042010120310  0.6166348303912567  0.6136638297187460   T   T   T
  0.5466254860965067  0.6173658085973238  0.3134772626178659   T   T   T
  0.6300860454167518  0.6240858951341870  0.3612511501295287   T   T   T
  0.3773082844264946  0.5567221912696242  0.4126189052295700   T   T   T
  0.4723078164089713  0.4557257050327763  0.5877273803360978   F   F   F
  0.7262408810483543  0.6364036534978800  0.4857872476209488   T   T   T
  0.5023775109915415  0.3698735134327517  0.6843445752694355   T   T   T
  0.3820384350727001  0.4401462945731875  0.6403258945535336   T   T   T
  0.5544592502646992  0.4379899399457940  0.4037542370104745   F   F   F
  0.4347928140602920  0.3626266106735446  0.6093255476953545   T   T   T
  0.5287335917934752  0.3486979935251038  0.5790169244700893   T   T   T
  0.7866322310352488  0.4211601377266868  0.3625514078662245   T   T   T
 
  0.00000000E+00  0.00000000E+00  0.00000000E+00
  0.00000000E+00  0.00000000E+00  0.00000000E+00
  0.00000000E+00  0.00000000E+00  0.00000000E+00
  0.00000000E+00  0.00000000E+00  0.00000000E+00
  0.00000000E+00  0.00000000E+00  0.00000000E+00
  0.00000000E+00  0.00000000E+00  0.00000000E+00
  0.00000000E+00  0.00000000E+00  0.00000000E+00
  0.00000000E+00  0.00000000E+00  0.00000000E+00
  0.00000000E+00  0.00000000E+00  0.00000000E+00
  0.00000000E+00  0.00000000E+00  0.00000000E+00
  0.00000000E+00  0.00000000E+00  0.00000000E+00
  0.00000000E+00  0.00000000E+00  0.00000000E+00
  0.00000000E+00  0.00000000E+00  0.00000000E+00
  0.00000000E+00  0.00000000E+00  0.00000000E+00
  0.00000000E+00  0.00000000E+00  0.00000000E+00
  0.00000000E+00  0.00000000E+00  0.00000000E+00
  0.00000000E+00  0.00000000E+00  0.00000000E+00
  0.00000000E+00  0.00000000E+00  0.00000000E+00
  0.00000000E+00  0.00000000E+00  0.00000000E+00
  0.00000000E+00  0.00000000E+00  0.00000000E+00
  0.00000000E+00  0.00000000E+00  0.00000000E+00
  0.00000000E+00  0.00000000E+00  0.00000000E+00
  0.00000000E+00  0.00000000E+00  0.00000000E+00
  0.00000000E+00  0.00000000E+00  0.00000000E+00
  0.00000000E+00  0.00000000E+00  0.00000000E+00
  0.00000000E+00  0.00000000E+00  0.00000000E+00
  0.00000000E+00  0.00000000E+00  0.00000000E+00
  0.00000000E+00  0.00000000E+00  0.00000000E+00
  0.00000000E+00  0.00000000E+00  0.00000000E+00
  0.00000000E+00  0.00000000E+00  0.00000000E+00
  0.00000000E+00  0.00000000E+00  0.00000000E+00
  0.00000000E+00  0.00000000E+00  0.00000000E+00
  0.00000000E+00  0.00000000E+00  0.00000000E+00
  0.00000000E+00  0.00000000E+00  0.00000000E+00
  0.00000000E+00  0.00000000E+00  0.00000000E+00
  0.00000000E+00  0.00000000E+00  0.00000000E+00
  0.00000000E+00  0.00000000E+00  0.00000000E+00
  0.00000000E+00  0.00000000E+00  0.00000000E+00
  0.00000000E+00  0.00000000E+00  0.00000000E+00
  0.00000000E+00  0.00000000E+00  0.00000000E+00
  0.00000000E+00  0.00000000E+00  0.00000000E+00
  0.00000000E+00  0.00000000E+00  0.00000000E+00
  0.00000000E+00  0.00000000E+00  0.00000000E+00
  0.00000000E+00  0.00000000E+00  0.00000000E+00
  0.00000000E+00  0.00000000E+00  0.00000000E+00
  0.00000000E+00  0.00000000E+00  0.00000000E+00
  0.00000000E+00  0.00000000E+00  0.00000000E+00
  0.00000000E+00  0.00000000E+00  0.00000000E+00
  0.00000000E+00  0.00000000E+00  0.00000000E+00
  0.00000000E+00  0.00000000E+00  0.00000000E+00
  0.00000000E+00  0.00000000E+00  0.00000000E+00
  0.00000000E+00  0.00000000E+00  0.00000000E+00
  0.00000000E+00  0.00000000E+00  0.00000000E+00
  0.00000000E+00  0.00000000E+00  0.00000000E+00
  0.00000000E+00  0.00000000E+00  0.00000000E+00
  0.00000000E+00  0.00000000E+00  0.00000000E+00
  0.00000000E+00  0.00000000E+00  0.00000000E+00
  0.00000000E+00  0.00000000E+00  0.00000000E+00
  0.00000000E+00  0.00000000E+00  0.00000000E+00
  0.00000000E+00  0.00000000E+00  0.00000000E+00
  0.00000000E+00  0.00000000E+00  0.00000000E+00
  0.00000000E+00  0.00000000E+00  0.00000000E+00
  0.00000000E+00  0.00000000E+00  0.00000000E+00
  0.00000000E+00  0.00000000E+00  0.00000000E+00
  0.00000000E+00  0.00000000E+00  0.00000000E+00
  0.00000000E+00  0.00000000E+00  0.00000000E+00
  0.00000000E+00  0.00000000E+00  0.00000000E+00
  0.00000000E+00  0.00000000E+00  0.00000000E+00
  0.00000000E+00  0.00000000E+00  0.00000000E+00
