Bi La Sn H                              
   1.00000000000000     
    29.0000000000000000    0.0000000000000000    0.0000000000000000
     0.2488180851000000   28.9989325590000000    0.0000000000000000
    -0.0631677343000000   -0.4515975666000000   28.9964147692999994
   Bi   La   Sn   H 
    22    23    23     1
Selective dynamics
Direct
  0.7605558473544776  0.4725978339023304  0.3932454224220283   T   T   T
  0.6477089960858030  0.6860987922631954  0.5484559250077449   T   T   T
  0.3595613464305994  0.4575482366761331  0.4289953837925719   T   T   T
  0.5499549365739882  0.7134510745106971  0.5829124805933478   T   T   T
  0.5915029568994470  0.5209714444905416  0.5841479689498996   F   F   F
  0.6368432250225026  0.6791795363707186  0.4425525516951119   T   T   T
  0.6951864282109116  0.5212211133555041  0.6522860847080876   T   T   T
  0.4864585582974994  0.7013565305354839  0.4983823057995174   T   T   T
  0.5004839460855024  0.5502791173970252  0.5477141156400123   F   F   F
  0.3267346968803351  0.4852559862388158  0.5770999141128896   T   T   T
  0.3817567193832849  0.6090250988531659  0.5361888792662873   T   T   T
  0.6667129484492236  0.4827404655721850  0.5105018184570156   F   F   F
  0.5763997220267569  0.4263140504383500  0.5448328182496311   F   F   F
  0.6689187541255833  0.3742538988501387  0.5038792277555053   T   T   T
  0.4623677030173952  0.3382649878918209  0.4983405495807236   T   T   T
  0.6484934028780529  0.5775373212088155  0.4602701624361103   F   F   F
  0.5579666585442691  0.4354298986026076  0.7498724530368289   T   T   T
  0.5981625933508846  0.3502755769021945  0.6697405481933824   T   T   T
  0.4925827573904451  0.2993133465701125  0.4087920033821203   T   T   T
  0.6599348810843061  0.6171266437133609  0.6674199650050534   T   T   T
  0.4914430545723230  0.4092283342109548  0.3060901542103244   T   T   T
  0.6238017089884652  0.3186787225628746  0.5740952094689490   T   T   T
  0.5370517876423582  0.6832026700284989  0.4027796579413675   T   T   T
  0.3900397241788662  0.4148154824266359  0.5271894700095973   T   T   T
  0.6272089931268497  0.5506365067606419  0.2822255557262233   T   T   T
  0.4729474836525193  0.4762581056439771  0.6926643905032286   T   T   T
  0.5683115009887700  0.5094300495444983  0.4784716241115703   F   F   F
  0.4203210565129183  0.5084107200613417  0.5018573595042781   F   F   F
  0.4522403474382011  0.4009362206663197  0.4062429090752717   T   T   T
  0.5639086826242868  0.3486866996124666  0.3541097021012518   T   T   T
  0.4123413555287834  0.5397053244536220  0.6111575902607543   T   T   T
  0.5974094017345536  0.4414110120209093  0.3033127741288368   T   T   T
  0.4544133431195551  0.5988906604751953  0.3636352843862499   T   T   T
  0.4178698874299349  0.4862830958664458  0.3407616816402230   T   T   T
  0.6612613954644335  0.4267532892907431  0.6036448619124116   T   T   T
  0.6730130876966992  0.5804355951458690  0.5637888521408250   T   T   T
  0.5256323666352213  0.5089294468522771  0.3281275920953708   T   T   T
  0.5657483840317138  0.3570091162311907  0.4695168980991757   T   T   T
  0.3150587155858283  0.5397860213246181  0.4928900342274504   T   T   T
  0.6602183727524072  0.4305261709894689  0.4139951116351931   T   T   T
  0.5660841929594156  0.6261437171197244  0.5094829013827464   F   F   F
  0.5960179068898408  0.5276508346043147  0.6897448979028551   T   T   T
  0.4697955227533488  0.6420986094917372  0.5874999517831564   T   T   T
  0.4624222022243065  0.6033492421578036  0.4642073863887697   T   T   T
  0.7161341655275496  0.5702193213553827  0.3831029673933919   T   T   T
  0.5499310510395361  0.5822218838566187  0.4076968008106903   F   F   F
  0.4794126430662260  0.5072205383607624  0.4190535757241776   F   F   F
  0.6949904939598753  0.4792991676328483  0.3215015173659794   T   T   T
  0.7511923574662740  0.4280505059231597  0.4854278077518966   T   T   T
  0.7481004878780309  0.5353229262769236  0.4806582853427155   T   T   T
  0.7490532614305978  0.4902213990518104  0.5698270392494666   T   T   T
  0.6475804368987341  0.4343848482515406  0.7079913588454838   T   T   T
  0.5769171104952246  0.7439850315803265  0.4919032273841586   T   T   T
  0.6192554540844384  0.5183157687966542  0.3801816896793397   F   F   F
  0.5061572918475684  0.5631720221038445  0.6506714486178524   T   T   T
  0.4922009500451665  0.4366758245867572  0.4933013002826740   F   F   F
  0.5608844484509063  0.4404139570509003  0.6454865549417619   F   F   F
  0.5779226529845433  0.6171943037476680  0.6133667761763775   T   T   T
  0.5427109863342308  0.6163307872846896  0.3113070143710809   T   T   T
  0.6265579867140586  0.6239743203511156  0.3583911892240556   T   T   T
  0.3758405892005149  0.5564849111771689  0.4135228695111361   T   T   T
  0.4723078164089713  0.4557257050327763  0.5877273803360978   F   F   F
  0.7252591048969196  0.6389046065382180  0.4835544724164709   T   T   T
  0.4989507666614365  0.3732764770184405  0.6828016138487226   T   T   T
  0.3843120372609865  0.4391650684120151  0.6413807831259951   T   T   T
  0.5544592502646992  0.4379899399457940  0.4037542370104745   F   F   F
  0.4342520786186360  0.3606911435297944  0.6067625262143314   T   T   T
  0.5284312395779492  0.3483529217826898  0.5779722474521966   T   T   T
  0.7433772242564636  0.5925751096960004  0.5292478458351312   T   T   T
 
  0.00000000E+00  0.00000000E+00  0.00000000E+00
  0.00000000E+00  0.00000000E+00  0.00000000E+00
  0.00000000E+00  0.00000000E+00  0.00000000E+00
  0.00000000E+00  0.00000000E+00  0.00000000E+00
  0.00000000E+00  0.00000000E+00  0.00000000E+00
  0.00000000E+00  0.00000000E+00  0.00000000E+00
  0.00000000E+00  0.00000000E+00  0.00000000E+00
  0.00000000E+00  0.00000000E+00  0.00000000E+00
  0.00000000E+00  0.00000000E+00  0.00000000E+00
  0.00000000E+00  0.00000000E+00  0.00000000E+00
  0.00000000E+00  0.00000000E+00  0.00000000E+00
  0.00000000E+00  0.00000000E+00  0.00000000E+00
  0.00000000E+00  0.00000000E+00  0.00000000E+00
  0.00000000E+00  0.00000000E+00  0.00000000E+00
  0.00000000E+00  0.00000000E+00  0.00000000E+00
  0.00000000E+00  0.00000000E+00  0.00000000E+00
  0.00000000E+00  0.00000000E+00  0.00000000E+00
  0.00000000E+00  0.00000000E+00  0.00000000E+00
  0.00000000E+00  0.00000000E+00  0.00000000E+00
  0.00000000E+00  0.00000000E+00  0.00000000E+00
  0.00000000E+00  0.00000000E+00  0.00000000E+00
  0.00000000E+00  0.00000000E+00  0.00000000E+00
  0.00000000E+00  0.00000000E+00  0.00000000E+00
  0.00000000E+00  0.00000000E+00  0.00000000E+00
  0.00000000E+00  0.00000000E+00  0.00000000E+00
  0.00000000E+00  0.00000000E+00  0.00000000E+00
  0.00000000E+00  0.00000000E+00  0.00000000E+00
  0.00000000E+00  0.00000000E+00  0.00000000E+00
  0.00000000E+00  0.00000000E+00  0.00000000E+00
  0.00000000E+00  0.00000000E+00  0.00000000E+00
  0.00000000E+00  0.00000000E+00  0.00000000E+00
  0.00000000E+00  0.00000000E+00  0.00000000E+00
  0.00000000E+00  0.00000000E+00  0.00000000E+00
  0.00000000E+00  0.00000000E+00  0.00000000E+00
  0.00000000E+00  0.00000000E+00  0.00000000E+00
  0.00000000E+00  0.00000000E+00  0.00000000E+00
  0.00000000E+00  0.00000000E+00  0.00000000E+00
  0.00000000E+00  0.00000000E+00  0.00000000E+00
  0.00000000E+00  0.00000000E+00  0.00000000E+00
  0.00000000E+00  0.00000000E+00  0.00000000E+00
  0.00000000E+00  0.00000000E+00  0.00000000E+00
  0.00000000E+00  0.00000000E+00  0.00000000E+00
  0.00000000E+00  0.00000000E+00  0.00000000E+00
  0.00000000E+00  0.00000000E+00  0.00000000E+00
  0.00000000E+00  0.00000000E+00  0.00000000E+00
  0.00000000E+00  0.00000000E+00  0.00000000E+00
  0.00000000E+00  0.00000000E+00  0.00000000E+00
  0.00000000E+00  0.00000000E+00  0.00000000E+00
  0.00000000E+00  0.00000000E+00  0.00000000E+00
  0.00000000E+00  0.00000000E+00  0.00000000E+00
  0.00000000E+00  0.00000000E+00  0.00000000E+00
  0.00000000E+00  0.00000000E+00  0.00000000E+00
  0.00000000E+00  0.00000000E+00  0.00000000E+00
  0.00000000E+00  0.00000000E+00  0.00000000E+00
  0.00000000E+00  0.00000000E+00  0.00000000E+00
  0.00000000E+00  0.00000000E+00  0.00000000E+00
  0.00000000E+00  0.00000000E+00  0.00000000E+00
  0.00000000E+00  0.00000000E+00  0.00000000E+00
  0.00000000E+00  0.00000000E+00  0.00000000E+00
  0.00000000E+00  0.00000000E+00  0.00000000E+00
  0.00000000E+00  0.00000000E+00  0.00000000E+00
  0.00000000E+00  0.00000000E+00  0.00000000E+00
  0.00000000E+00  0.00000000E+00  0.00000000E+00
  0.00000000E+00  0.00000000E+00  0.00000000E+00
  0.00000000E+00  0.00000000E+00  0.00000000E+00
  0.00000000E+00  0.00000000E+00  0.00000000E+00
  0.00000000E+00  0.00000000E+00  0.00000000E+00
  0.00000000E+00  0.00000000E+00  0.00000000E+00
  0.00000000E+00  0.00000000E+00  0.00000000E+00
