Bi La Sn H                              
   1.00000000000000     
    29.0000000000000000    0.0000000000000000    0.0000000000000000
     0.2488180851000000   28.9989325590000000    0.0000000000000000
    -0.0631677343000000   -0.4515975666000000   28.9964147692999994
   Bi   La   Sn   H 
    22    23    23     1
Selective dynamics
Direct
  0.7593755727061026  0.4793701556309509  0.3990616203838196   T   T   T
  0.6465352654692047  0.6844853465899160  0.5522854900085098   T   T   T
  0.3600651136759697  0.4583502994009113  0.4282863545126580   T   T   T
  0.5494098855182472  0.7128646745804738  0.5852026861356454   T   T   T
  0.5915029568994470  0.5209714444905416  0.5841479689498996   F   F   F
  0.6397178442632014  0.6801475097607069  0.4453827360207784   T   T   T
  0.6968168913712546  0.5238097993133540  0.6549823172182084   T   T   T
  0.4861065679327524  0.7006419418792306  0.5005035918502708   T   T   T
  0.5004839460855024  0.5502791173970252  0.5477141156400123   F   F   F
  0.3247033193790804  0.4858266729493810  0.5744409911959441   T   T   T
  0.3814994139407808  0.6102484596262435  0.5346714543894706   T   T   T
  0.6667129484492236  0.4827404655721850  0.5105018184570156   F   F   F
  0.5763997220267569  0.4263140504383500  0.5448328182496311   F   F   F
  0.6694927482877590  0.3759316479955029  0.5070029421095748   T   T   T
  0.4648518496545964  0.3395525996659684  0.5002656737810747   T   T   T
  0.6484934028780529  0.5775373212088155  0.4602701624361103   F   F   F
  0.5583395937626781  0.4379533231577070  0.7499364492271799   T   T   T
  0.6059828706200278  0.3516052321163146  0.6671996203675467   T   T   T
  0.4921484061098986  0.2993352678093414  0.4104581542391568   T   T   T
  0.6594480648546387  0.6191267531898453  0.6660629659888357   T   T   T
  0.4914966357979542  0.4105843595202207  0.3061200200259396   T   T   T
  0.6278055527507106  0.3163681555677414  0.5733765337317488   T   T   T
  0.5384186644347906  0.6835859560090175  0.4052235609877369   T   T   T
  0.3905777019196498  0.4152850035608400  0.5270244850129557   T   T   T
  0.6268635525317054  0.5517639411647185  0.2822893598033107   T   T   T
  0.4714935953504292  0.4688936560732543  0.6918682602037168   T   T   T
  0.5683115009887700  0.5094300495444983  0.4784716241115703   F   F   F
  0.4203210565129183  0.5084107200613417  0.5018573595042781   F   F   F
  0.4521144013508833  0.4009153495450546  0.4063106284666565   T   T   T
  0.5619349936737905  0.3487304226775987  0.3535501307089917   T   T   T
  0.4104736314790448  0.5399715414184137  0.6093229666072720   T   T   T
  0.6003263814154587  0.4399189565934346  0.3059080340563465   T   T   T
  0.4547644296983850  0.6001522679160440  0.3636637671936928   T   T   T
  0.4186669393402616  0.4876927243798230  0.3394699638402338   T   T   T
  0.6615712537634121  0.4302046267774230  0.6048159409832198   T   T   T
  0.6728094195772349  0.5787112102499371  0.5640365000616627   T   T   T
  0.5258035504743772  0.5098046837167112  0.3282193737523933   T   T   T
  0.5671574885431639  0.3572269531163397  0.4692954986099551   T   T   T
  0.3149662870837840  0.5412960646778325  0.4909526429223309   T   T   T
  0.6611046143621659  0.4295627680625736  0.4149703840705117   T   T   T
  0.5660841929594156  0.6261437171197244  0.5094829013827464   F   F   F
  0.5959925158815632  0.5288509791952781  0.6896646383805616   T   T   T
  0.4690298612114543  0.6407925867135892  0.5887605610326778   T   T   T
  0.4629739058460349  0.6030640705948449  0.4638694261210055   T   T   T
  0.7161313214993255  0.5746957320739907  0.3834597608476142   T   T   T
  0.5499310510395361  0.5822218838566187  0.4076968008106903   F   F   F
  0.4794126430662260  0.5072205383607624  0.4190535757241776   F   F   F
  0.6953286545158449  0.4821087478142861  0.3238841939455867   T   T   T
  0.7530487332392779  0.4308774992214612  0.4880480618321171   T   T   T
  0.7484753167981444  0.5395607932156961  0.4855070464980534   T   T   T
  0.7489502933558170  0.4919058241488071  0.5723445778615760   T   T   T
  0.6479552769697032  0.4373223134386479  0.7093845647136399   T   T   T
  0.5768160495787868  0.7428119351898833  0.4939913683985719   T   T   T
  0.6192554540844384  0.5183157687966542  0.3801816896793397   F   F   F
  0.5047894705888059  0.5578672563060708  0.6498517269033400   T   T   T
  0.4922009500451665  0.4366758245867572  0.4933013002826740   F   F   F
  0.5608844484509063  0.4404139570509003  0.6454865549417619   F   F   F
  0.5763270150711721  0.6161453154779901  0.6137505156430344   T   T   T
  0.5435771210079134  0.6177716974427148  0.3121303708333769   T   T   T
  0.6266757149416452  0.6253458885275478  0.3598446310586618   T   T   T
  0.3766284841645871  0.5568094588939447  0.4124566213765352   T   T   T
  0.4723078164089713  0.4557257050327763  0.5877273803360978   F   F   F
  0.7264889032904476  0.6362901479781740  0.4853104635037047   T   T   T
  0.5060643645462242  0.3665950481647980  0.6819615047030622   T   T   T
  0.3816776934544711  0.4406643195762180  0.6391302546443230   T   T   T
  0.5544592502646992  0.4379899399457940  0.4037542370104745   F   F   F
  0.4380506171693285  0.3648072103732565  0.6088918943268560   T   T   T
  0.5314449252651108  0.3385928138146664  0.5806532462667309   T   T   T
  0.5178998610607478  0.2788996978791028  0.5852936141171009   T   T   T
 
  0.00000000E+00  0.00000000E+00  0.00000000E+00
  0.00000000E+00  0.00000000E+00  0.00000000E+00
  0.00000000E+00  0.00000000E+00  0.00000000E+00
  0.00000000E+00  0.00000000E+00  0.00000000E+00
  0.00000000E+00  0.00000000E+00  0.00000000E+00
  0.00000000E+00  0.00000000E+00  0.00000000E+00
  0.00000000E+00  0.00000000E+00  0.00000000E+00
  0.00000000E+00  0.00000000E+00  0.00000000E+00
  0.00000000E+00  0.00000000E+00  0.00000000E+00
  0.00000000E+00  0.00000000E+00  0.00000000E+00
  0.00000000E+00  0.00000000E+00  0.00000000E+00
  0.00000000E+00  0.00000000E+00  0.00000000E+00
  0.00000000E+00  0.00000000E+00  0.00000000E+00
  0.00000000E+00  0.00000000E+00  0.00000000E+00
  0.00000000E+00  0.00000000E+00  0.00000000E+00
  0.00000000E+00  0.00000000E+00  0.00000000E+00
  0.00000000E+00  0.00000000E+00  0.00000000E+00
  0.00000000E+00  0.00000000E+00  0.00000000E+00
  0.00000000E+00  0.00000000E+00  0.00000000E+00
  0.00000000E+00  0.00000000E+00  0.00000000E+00
  0.00000000E+00  0.00000000E+00  0.00000000E+00
  0.00000000E+00  0.00000000E+00  0.00000000E+00
  0.00000000E+00  0.00000000E+00  0.00000000E+00
  0.00000000E+00  0.00000000E+00  0.00000000E+00
  0.00000000E+00  0.00000000E+00  0.00000000E+00
  0.00000000E+00  0.00000000E+00  0.00000000E+00
  0.00000000E+00  0.00000000E+00  0.00000000E+00
  0.00000000E+00  0.00000000E+00  0.00000000E+00
  0.00000000E+00  0.00000000E+00  0.00000000E+00
  0.00000000E+00  0.00000000E+00  0.00000000E+00
  0.00000000E+00  0.00000000E+00  0.00000000E+00
  0.00000000E+00  0.00000000E+00  0.00000000E+00
  0.00000000E+00  0.00000000E+00  0.00000000E+00
  0.00000000E+00  0.00000000E+00  0.00000000E+00
  0.00000000E+00  0.00000000E+00  0.00000000E+00
  0.00000000E+00  0.00000000E+00  0.00000000E+00
  0.00000000E+00  0.00000000E+00  0.00000000E+00
  0.00000000E+00  0.00000000E+00  0.00000000E+00
  0.00000000E+00  0.00000000E+00  0.00000000E+00
  0.00000000E+00  0.00000000E+00  0.00000000E+00
  0.00000000E+00  0.00000000E+00  0.00000000E+00
  0.00000000E+00  0.00000000E+00  0.00000000E+00
  0.00000000E+00  0.00000000E+00  0.00000000E+00
  0.00000000E+00  0.00000000E+00  0.00000000E+00
  0.00000000E+00  0.00000000E+00  0.00000000E+00
  0.00000000E+00  0.00000000E+00  0.00000000E+00
  0.00000000E+00  0.00000000E+00  0.00000000E+00
  0.00000000E+00  0.00000000E+00  0.00000000E+00
  0.00000000E+00  0.00000000E+00  0.00000000E+00
  0.00000000E+00  0.00000000E+00  0.00000000E+00
  0.00000000E+00  0.00000000E+00  0.00000000E+00
  0.00000000E+00  0.00000000E+00  0.00000000E+00
  0.00000000E+00  0.00000000E+00  0.00000000E+00
  0.00000000E+00  0.00000000E+00  0.00000000E+00
  0.00000000E+00  0.00000000E+00  0.00000000E+00
  0.00000000E+00  0.00000000E+00  0.00000000E+00
  0.00000000E+00  0.00000000E+00  0.00000000E+00
  0.00000000E+00  0.00000000E+00  0.00000000E+00
  0.00000000E+00  0.00000000E+00  0.00000000E+00
  0.00000000E+00  0.00000000E+00  0.00000000E+00
  0.00000000E+00  0.00000000E+00  0.00000000E+00
  0.00000000E+00  0.00000000E+00  0.00000000E+00
  0.00000000E+00  0.00000000E+00  0.00000000E+00
  0.00000000E+00  0.00000000E+00  0.00000000E+00
  0.00000000E+00  0.00000000E+00  0.00000000E+00
  0.00000000E+00  0.00000000E+00  0.00000000E+00
  0.00000000E+00  0.00000000E+00  0.00000000E+00
  0.00000000E+00  0.00000000E+00  0.00000000E+00
  0.00000000E+00  0.00000000E+00  0.00000000E+00
