Bi La Sn H                              
   1.00000000000000     
    29.0000000000000000    0.0000000000000000    0.0000000000000000
     0.2488180851000000   28.9989325590000000    0.0000000000000000
    -0.0631677343000000   -0.4515975666000000   28.9964147692999994
   Bi   La   Sn   H 
    22    23    23     1
Selective dynamics
Direct
  0.7575307317496306  0.4790627539835943  0.4046457896041764   T   T   T
  0.6479259082782524  0.6821090627389894  0.5530811412356350   T   T   T
  0.3598059086648468  0.4578756638425312  0.4290100652516657   T   T   T
  0.5510619595579617  0.7129001008091442  0.5844329522699073   T   T   T
  0.5915029568994470  0.5209714444905416  0.5841479689498996   F   F   F
  0.6418899118860060  0.6802925003678807  0.4467647340985222   T   T   T
  0.6972567854968817  0.5239579665250064  0.6582775399679466   T   T   T
  0.4869302835870047  0.7017185737981362  0.4996158512451999   T   T   T
  0.5004839460855024  0.5502791173970252  0.5477141156400123   F   F   F
  0.3248218079901867  0.4859013201977215  0.5744575676577297   T   T   T
  0.3817679759904860  0.6103110518243999  0.5352414955807816   T   T   T
  0.6667129484492236  0.4827404655721850  0.5105018184570156   F   F   F
  0.5763997220267569  0.4263140504383500  0.5448328182496311   F   F   F
  0.6678564849867702  0.3734979424063605  0.5074345492528595   T   T   T
  0.4632887784650697  0.3385613687929032  0.5000049920799043   T   T   T
  0.6484934028780529  0.5775373212088155  0.4602701624361103   F   F   F
  0.5596648402541962  0.4390384348179625  0.7502698744929261   T   T   T
  0.6059074661678759  0.3517106379683356  0.6676012771967496   T   T   T
  0.4923175350017481  0.2982594887327679  0.4104118238329556   T   T   T
  0.6592681988902798  0.6206112726210220  0.6655811947286183   T   T   T
  0.4918354027575960  0.4097417938783701  0.3058462716305169   T   T   T
  0.6208282642026449  0.3143142139009394  0.5721512603559601   T   T   T
  0.5403460542969708  0.6835425373925749  0.4050661392084961   T   T   T
  0.3907854780829286  0.4149475171791738  0.5284565895569384   T   T   T
  0.6295564523666957  0.5520689010153675  0.2828025982380080   T   T   T
  0.4717436053904734  0.4699611191882779  0.6919692090194397   T   T   T
  0.5683115009887700  0.5094300495444983  0.4784716241115703   F   F   F
  0.4203210565129183  0.5084107200613417  0.5018573595042781   F   F   F
  0.4526496577913063  0.4004287352774812  0.4066143388468860   T   T   T
  0.5625119623639777  0.3488372483061416  0.3542765068316162   T   T   T
  0.4108067976156595  0.5401279795326737  0.6097364797970507   T   T   T
  0.6006958343330732  0.4414287497137954  0.3051510721157860   T   T   T
  0.4551847491954832  0.5997186926396524  0.3631991206345518   T   T   T
  0.4182251314694345  0.4859561108678607  0.3400490092459744   T   T   T
  0.6623995238369914  0.4296172865807947  0.6040935984387251   T   T   T
  0.6745547442237287  0.5763598797653289  0.5652182028336021   T   T   T
  0.5262570091278553  0.5087720601038749  0.3277549803632866   T   T   T
  0.5654003075585443  0.3572712112681061  0.4689982345090575   T   T   T
  0.3155573319535395  0.5414118301166971  0.4912435120854082   T   T   T
  0.6596129246327334  0.4293069810519947  0.4169385447817076   T   T   T
  0.5660841929594156  0.6261437171197244  0.5094829013827464   F   F   F
  0.5962149052261086  0.5296213573762283  0.6893635831621197   T   T   T
  0.4697939581896376  0.6417029846259400  0.5882016870551110   T   T   T
  0.4628789604916910  0.6036115433840366  0.4641892728118522   T   T   T
  0.7172302734633665  0.5743585906557749  0.3848657847800748   T   T   T
  0.5499310510395361  0.5822218838566187  0.4076968008106903   F   F   F
  0.4794126430662260  0.5072205383607624  0.4190535757241776   F   F   F
  0.6961956761657061  0.4813560718714408  0.3262829733413180   T   T   T
  0.7520601938907975  0.4294670011780066  0.4948293652189284   T   T   T
  0.7491918527188564  0.5370979095635444  0.4912237029852387   T   T   T
  0.7512692854560569  0.4885988415966513  0.5801222352991050   T   T   T
  0.6487093614592344  0.4381756376605717  0.7079062235344823   T   T   T
  0.5779934165501288  0.7426720042860230  0.4935943994229122   T   T   T
  0.6192554540844384  0.5183157687966542  0.3801816896793397   F   F   F
  0.5047460616732737  0.5592399643809289  0.6500273968382617   T   T   T
  0.4922009500451665  0.4366758245867572  0.4933013002826740   F   F   F
  0.5608844484509063  0.4404139570509003  0.6454865549417619   F   F   F
  0.5766116581587351  0.6160568168782644  0.6136975555327522   T   T   T
  0.5449589149352949  0.6158969345208369  0.3125494338911806   T   T   T
  0.6274766596500587  0.6249778154005315  0.3614723232355607   T   T   T
  0.3776279396898843  0.5560627811730767  0.4125876379391363   T   T   T
  0.4723078164089713  0.4557257050327763  0.5877273803360978   F   F   F
  0.7281047719324203  0.6336314917095532  0.4862979269474471   T   T   T
  0.5064489285217222  0.3681169478935548  0.6858692268810425   T   T   T
  0.3808625469035066  0.4419717610144391  0.6409238271661677   T   T   T
  0.5544592502646992  0.4379899399457940  0.4037542370104745   F   F   F
  0.4352366556395391  0.3646417938962714  0.6130650269355494   T   T   T
  0.5279580805191003  0.3497047793733118  0.5799567088500340   T   T   T
  0.8083690306896411  0.4987311605292451  0.5995728905804606   T   T   T
 
  0.00000000E+00  0.00000000E+00  0.00000000E+00
  0.00000000E+00  0.00000000E+00  0.00000000E+00
  0.00000000E+00  0.00000000E+00  0.00000000E+00
  0.00000000E+00  0.00000000E+00  0.00000000E+00
  0.00000000E+00  0.00000000E+00  0.00000000E+00
  0.00000000E+00  0.00000000E+00  0.00000000E+00
  0.00000000E+00  0.00000000E+00  0.00000000E+00
  0.00000000E+00  0.00000000E+00  0.00000000E+00
  0.00000000E+00  0.00000000E+00  0.00000000E+00
  0.00000000E+00  0.00000000E+00  0.00000000E+00
  0.00000000E+00  0.00000000E+00  0.00000000E+00
  0.00000000E+00  0.00000000E+00  0.00000000E+00
  0.00000000E+00  0.00000000E+00  0.00000000E+00
  0.00000000E+00  0.00000000E+00  0.00000000E+00
  0.00000000E+00  0.00000000E+00  0.00000000E+00
  0.00000000E+00  0.00000000E+00  0.00000000E+00
  0.00000000E+00  0.00000000E+00  0.00000000E+00
  0.00000000E+00  0.00000000E+00  0.00000000E+00
  0.00000000E+00  0.00000000E+00  0.00000000E+00
  0.00000000E+00  0.00000000E+00  0.00000000E+00
  0.00000000E+00  0.00000000E+00  0.00000000E+00
  0.00000000E+00  0.00000000E+00  0.00000000E+00
  0.00000000E+00  0.00000000E+00  0.00000000E+00
  0.00000000E+00  0.00000000E+00  0.00000000E+00
  0.00000000E+00  0.00000000E+00  0.00000000E+00
  0.00000000E+00  0.00000000E+00  0.00000000E+00
  0.00000000E+00  0.00000000E+00  0.00000000E+00
  0.00000000E+00  0.00000000E+00  0.00000000E+00
  0.00000000E+00  0.00000000E+00  0.00000000E+00
  0.00000000E+00  0.00000000E+00  0.00000000E+00
  0.00000000E+00  0.00000000E+00  0.00000000E+00
  0.00000000E+00  0.00000000E+00  0.00000000E+00
  0.00000000E+00  0.00000000E+00  0.00000000E+00
  0.00000000E+00  0.00000000E+00  0.00000000E+00
  0.00000000E+00  0.00000000E+00  0.00000000E+00
  0.00000000E+00  0.00000000E+00  0.00000000E+00
  0.00000000E+00  0.00000000E+00  0.00000000E+00
  0.00000000E+00  0.00000000E+00  0.00000000E+00
  0.00000000E+00  0.00000000E+00  0.00000000E+00
  0.00000000E+00  0.00000000E+00  0.00000000E+00
  0.00000000E+00  0.00000000E+00  0.00000000E+00
  0.00000000E+00  0.00000000E+00  0.00000000E+00
  0.00000000E+00  0.00000000E+00  0.00000000E+00
  0.00000000E+00  0.00000000E+00  0.00000000E+00
  0.00000000E+00  0.00000000E+00  0.00000000E+00
  0.00000000E+00  0.00000000E+00  0.00000000E+00
  0.00000000E+00  0.00000000E+00  0.00000000E+00
  0.00000000E+00  0.00000000E+00  0.00000000E+00
  0.00000000E+00  0.00000000E+00  0.00000000E+00
  0.00000000E+00  0.00000000E+00  0.00000000E+00
  0.00000000E+00  0.00000000E+00  0.00000000E+00
  0.00000000E+00  0.00000000E+00  0.00000000E+00
  0.00000000E+00  0.00000000E+00  0.00000000E+00
  0.00000000E+00  0.00000000E+00  0.00000000E+00
  0.00000000E+00  0.00000000E+00  0.00000000E+00
  0.00000000E+00  0.00000000E+00  0.00000000E+00
  0.00000000E+00  0.00000000E+00  0.00000000E+00
  0.00000000E+00  0.00000000E+00  0.00000000E+00
  0.00000000E+00  0.00000000E+00  0.00000000E+00
  0.00000000E+00  0.00000000E+00  0.00000000E+00
  0.00000000E+00  0.00000000E+00  0.00000000E+00
  0.00000000E+00  0.00000000E+00  0.00000000E+00
  0.00000000E+00  0.00000000E+00  0.00000000E+00
  0.00000000E+00  0.00000000E+00  0.00000000E+00
  0.00000000E+00  0.00000000E+00  0.00000000E+00
  0.00000000E+00  0.00000000E+00  0.00000000E+00
  0.00000000E+00  0.00000000E+00  0.00000000E+00
  0.00000000E+00  0.00000000E+00  0.00000000E+00
  0.00000000E+00  0.00000000E+00  0.00000000E+00
