Bi La Sn H                              
   1.00000000000000     
    29.0000000000000000    0.0000000000000000    0.0000000000000000
     0.2488180851000000   28.9989325590000000    0.0000000000000000
    -0.0631677343000000   -0.4515975666000000   28.9964147692999994
   Bi   La   Sn   H 
    22    23    23     1
Selective dynamics
Direct
  0.7595447143978354  0.4772727587694848  0.3996807557660161   T   T   T
  0.6464004285945155  0.6835409423308978  0.5562810870055428   T   T   T
  0.3591256395969928  0.4591856134668258  0.4282041869177960   T   T   T
  0.5507966456706286  0.7129802410664923  0.5853836423850785   T   T   T
  0.5915029568994470  0.5209714444905416  0.5841479689498996   F   F   F
  0.6409491451310589  0.6821714977850346  0.4502745748428418   T   T   T
  0.6971779164438516  0.5234438466462886  0.6548485232943017   T   T   T
  0.4857574603486601  0.7006429799209399  0.5001443554500671   T   T   T
  0.5004839460855024  0.5502791173970252  0.5477141156400123   F   F   F
  0.3250899828138759  0.4869567944046580  0.5743299114821294   T   T   T
  0.3825921461404665  0.6104309995460403  0.5350146800736496   T   T   T
  0.6667129484492236  0.4827404655721850  0.5105018184570156   F   F   F
  0.5763997220267569  0.4263140504383500  0.5448328182496311   F   F   F
  0.6682701252165912  0.3739707168780105  0.5086689723989135   T   T   T
  0.4633157186656994  0.3386538333328909  0.4997045880471900   T   T   T
  0.6484934028780529  0.5775373212088155  0.4602701624361103   F   F   F
  0.5585217845033529  0.4379741388903152  0.7493217923733791   T   T   T
  0.6043474476463864  0.3526516095025031  0.6708085786332650   T   T   T
  0.4930036455158970  0.2998965457648957  0.4091621310916789   T   T   T
  0.6603237536725794  0.6197464665052537  0.6650629276707166   T   T   T
  0.4936410778015209  0.4109826954262593  0.3095335464076127   T   T   T
  0.6215286005772515  0.3160959846549244  0.5747541334420484   T   T   T
  0.5395372887002002  0.6842065486992069  0.4056693063428137   T   T   T
  0.3901943976751855  0.4158434323139759  0.5271056214364592   T   T   T
  0.6347652757964246  0.5566001779585386  0.2842947207308358   T   T   T
  0.4712194766007451  0.4704997287979257  0.6921433035357745   T   T   T
  0.5683115009887700  0.5094300495444983  0.4784716241115703   F   F   F
  0.4203210565129183  0.5084107200613417  0.5018573595042781   F   F   F
  0.4510438976527532  0.4008235941071099  0.4076860289748044   T   T   T
  0.5661507032825700  0.3480769766381552  0.3550129268036931   T   T   T
  0.4109207539258852  0.5402198329566050  0.6098336179337386   T   T   T
  0.5988702023658727  0.4412648230069152  0.3046170852232219   T   T   T
  0.4555047586144574  0.6008157656680597  0.3630124773422116   T   T   T
  0.4181750322222112  0.4874756859605703  0.3400167959009854   T   T   T
  0.6612213997478120  0.4292058510280001  0.6054038559392871   T   T   T
  0.6733331935209437  0.5777531041455737  0.5637780777956745   T   T   T
  0.5271989418007000  0.5111490690246940  0.3277957634490036   T   T   T
  0.5660030665414374  0.3575577294383599  0.4690957673592955   T   T   T
  0.3154978747736248  0.5424327034113435  0.4909690639364270   T   T   T
  0.6592767426722695  0.4289307397442270  0.4166310732120421   T   T   T
  0.5660841929594156  0.6261437171197244  0.5094829013827464   F   F   F
  0.5964859750263886  0.5291710861216167  0.6891905721346575   T   T   T
  0.4702726867495534  0.6411294148182336  0.5887501874227401   T   T   T
  0.4633800832051920  0.6030426140500522  0.4633701630294834   T   T   T
  0.7165696969014825  0.5735470056322312  0.3813712971192341   T   T   T
  0.5499310510395361  0.5822218838566187  0.4076968008106903   F   F   F
  0.4794126430662260  0.5072205383607624  0.4190535757241776   F   F   F
  0.6944497216037322  0.4771938031897273  0.3263503225311459   T   T   T
  0.7513769299805605  0.4285660449777960  0.4887954104038674   T   T   T
  0.7487683890516323  0.5365978276566569  0.4857080574867940   T   T   T
  0.7488427311475753  0.4901928846068502  0.5735123812196493   T   T   T
  0.6490136422615581  0.4379927993505987  0.7099502521344560   T   T   T
  0.5751284831482085  0.7440255071694216  0.4942230296534478   T   T   T
  0.6192554540844384  0.5183157687966542  0.3801816896793397   F   F   F
  0.5049141221931130  0.5588530844711752  0.6503468023225486   T   T   T
  0.4922009500451665  0.4366758245867572  0.4933013002826740   F   F   F
  0.5608844484509063  0.4404139570509003  0.6454865549417619   F   F   F
  0.5768250841986725  0.6155986145141876  0.6135997493813472   T   T   T
  0.5459130890325945  0.6178719186767854  0.3129185083347777   T   T   T
  0.6265733927122684  0.6265510563193469  0.3652577079616806   T   T   T
  0.3772958097540225  0.5576175604901975  0.4124169883965559   T   T   T
  0.4723078164089713  0.4557257050327763  0.5877273803360978   F   F   F
  0.7280244181100989  0.6333130812901290  0.4845695434533352   T   T   T
  0.5036344571329032  0.3683190270923120  0.6843390198023758   T   T   T
  0.3808908774667653  0.4412066738228900  0.6398671837093323   T   T   T
  0.5544592502646992  0.4379899399457940  0.4037542370104745   F   F   F
  0.4339704983756845  0.3635793441251461  0.6101163512465235   T   T   T
  0.5280274335979588  0.3494498449754926  0.5800120150862439   T   T   T
  0.6998603110198662  0.5881655864825361  0.3075953252603980   T   T   T
 
  0.00000000E+00  0.00000000E+00  0.00000000E+00
  0.00000000E+00  0.00000000E+00  0.00000000E+00
  0.00000000E+00  0.00000000E+00  0.00000000E+00
  0.00000000E+00  0.00000000E+00  0.00000000E+00
  0.00000000E+00  0.00000000E+00  0.00000000E+00
  0.00000000E+00  0.00000000E+00  0.00000000E+00
  0.00000000E+00  0.00000000E+00  0.00000000E+00
  0.00000000E+00  0.00000000E+00  0.00000000E+00
  0.00000000E+00  0.00000000E+00  0.00000000E+00
  0.00000000E+00  0.00000000E+00  0.00000000E+00
  0.00000000E+00  0.00000000E+00  0.00000000E+00
  0.00000000E+00  0.00000000E+00  0.00000000E+00
  0.00000000E+00  0.00000000E+00  0.00000000E+00
  0.00000000E+00  0.00000000E+00  0.00000000E+00
  0.00000000E+00  0.00000000E+00  0.00000000E+00
  0.00000000E+00  0.00000000E+00  0.00000000E+00
  0.00000000E+00  0.00000000E+00  0.00000000E+00
  0.00000000E+00  0.00000000E+00  0.00000000E+00
  0.00000000E+00  0.00000000E+00  0.00000000E+00
  0.00000000E+00  0.00000000E+00  0.00000000E+00
  0.00000000E+00  0.00000000E+00  0.00000000E+00
  0.00000000E+00  0.00000000E+00  0.00000000E+00
  0.00000000E+00  0.00000000E+00  0.00000000E+00
  0.00000000E+00  0.00000000E+00  0.00000000E+00
  0.00000000E+00  0.00000000E+00  0.00000000E+00
  0.00000000E+00  0.00000000E+00  0.00000000E+00
  0.00000000E+00  0.00000000E+00  0.00000000E+00
  0.00000000E+00  0.00000000E+00  0.00000000E+00
  0.00000000E+00  0.00000000E+00  0.00000000E+00
  0.00000000E+00  0.00000000E+00  0.00000000E+00
  0.00000000E+00  0.00000000E+00  0.00000000E+00
  0.00000000E+00  0.00000000E+00  0.00000000E+00
  0.00000000E+00  0.00000000E+00  0.00000000E+00
  0.00000000E+00  0.00000000E+00  0.00000000E+00
  0.00000000E+00  0.00000000E+00  0.00000000E+00
  0.00000000E+00  0.00000000E+00  0.00000000E+00
  0.00000000E+00  0.00000000E+00  0.00000000E+00
  0.00000000E+00  0.00000000E+00  0.00000000E+00
  0.00000000E+00  0.00000000E+00  0.00000000E+00
  0.00000000E+00  0.00000000E+00  0.00000000E+00
  0.00000000E+00  0.00000000E+00  0.00000000E+00
  0.00000000E+00  0.00000000E+00  0.00000000E+00
  0.00000000E+00  0.00000000E+00  0.00000000E+00
  0.00000000E+00  0.00000000E+00  0.00000000E+00
  0.00000000E+00  0.00000000E+00  0.00000000E+00
  0.00000000E+00  0.00000000E+00  0.00000000E+00
  0.00000000E+00  0.00000000E+00  0.00000000E+00
  0.00000000E+00  0.00000000E+00  0.00000000E+00
  0.00000000E+00  0.00000000E+00  0.00000000E+00
  0.00000000E+00  0.00000000E+00  0.00000000E+00
  0.00000000E+00  0.00000000E+00  0.00000000E+00
  0.00000000E+00  0.00000000E+00  0.00000000E+00
  0.00000000E+00  0.00000000E+00  0.00000000E+00
  0.00000000E+00  0.00000000E+00  0.00000000E+00
  0.00000000E+00  0.00000000E+00  0.00000000E+00
  0.00000000E+00  0.00000000E+00  0.00000000E+00
  0.00000000E+00  0.00000000E+00  0.00000000E+00
  0.00000000E+00  0.00000000E+00  0.00000000E+00
  0.00000000E+00  0.00000000E+00  0.00000000E+00
  0.00000000E+00  0.00000000E+00  0.00000000E+00
  0.00000000E+00  0.00000000E+00  0.00000000E+00
  0.00000000E+00  0.00000000E+00  0.00000000E+00
  0.00000000E+00  0.00000000E+00  0.00000000E+00
  0.00000000E+00  0.00000000E+00  0.00000000E+00
  0.00000000E+00  0.00000000E+00  0.00000000E+00
  0.00000000E+00  0.00000000E+00  0.00000000E+00
  0.00000000E+00  0.00000000E+00  0.00000000E+00
  0.00000000E+00  0.00000000E+00  0.00000000E+00
  0.00000000E+00  0.00000000E+00  0.00000000E+00
