Bi La Sn H                              
   1.00000000000000     
    29.0000000000000000    0.0000000000000000    0.0000000000000000
     0.2488180851000000   28.9989325590000000    0.0000000000000000
    -0.0631677343000000   -0.4515975666000000   28.9964147692999994
   Bi   La   Sn   H 
    22    23    23     1
Selective dynamics
Direct
  0.7605569936901323  0.4762119359497103  0.3992061665785775   T   T   T
  0.6463405811138252  0.6845278798552216  0.5523398730146687   T   T   T
  0.3604044716258713  0.4609174528330459  0.4263917617047421   T   T   T
  0.5503041101754009  0.7135206269717339  0.5847867957529520   T   T   T
  0.5915029568994470  0.5209714444905416  0.5841479689498996   F   F   F
  0.6397608237231239  0.6807951311347520  0.4454889349694512   T   T   T
  0.6957407225792253  0.5226678126763398  0.6536511076634921   T   T   T
  0.4861134077579279  0.7009267025186692  0.5007833870263572   T   T   T
  0.5004839460855024  0.5502791173970252  0.5477141156400123   F   F   F
  0.3244588547434352  0.4873131191546115  0.5728006693485109   T   T   T
  0.3831038148265467  0.6114807834029022  0.5349785017787702   T   T   T
  0.6667129484492236  0.4827404655721850  0.5105018184570156   F   F   F
  0.5763997220267569  0.4263140504383500  0.5448328182496311   F   F   F
  0.6684428892720898  0.3739434531369304  0.5063896436922494   T   T   T
  0.4633375102851864  0.3388166437811115  0.4999497061931104   T   T   T
  0.6484934028780529  0.5775373212088155  0.4602701624361103   F   F   F
  0.5584393137372957  0.4366567404973485  0.7492175251748189   T   T   T
  0.6047288893251260  0.3521424037506746  0.6694714971229745   T   T   T
  0.4916371410460664  0.2995757866317472  0.4096871667956496   T   T   T
  0.6598979367445746  0.6187774025134660  0.6658211755440254   T   T   T
  0.4934701367302345  0.4115149826603370  0.3090390783996367   T   T   T
  0.6215992377693885  0.3165669276060374  0.5730776797468328   T   T   T
  0.5365664879577156  0.6846158919512767  0.4032091909455465   T   T   T
  0.3903013719101502  0.4160247898431984  0.5265757682306470   T   T   T
  0.6304119016452410  0.5521078703314807  0.2833154208186331   T   T   T
  0.4707609329515645  0.4697786689640959  0.6915065230813795   T   T   T
  0.5683115009887700  0.5094300495444983  0.4784716241115703   F   F   F
  0.4203210565129183  0.5084107200613417  0.5018573595042781   F   F   F
  0.4516890464964370  0.4011879003207388  0.4073134316086940   T   T   T
  0.5641011898912710  0.3478425679601433  0.3548013573666897   T   T   T
  0.4103690626998600  0.5404044977977484  0.6091438913531482   T   T   T
  0.5997619124972147  0.4416671576118510  0.3050344884409828   T   T   T
  0.4556564056846724  0.6066029563210406  0.3630152404586870   T   T   T
  0.4201740267626882  0.4899805696958848  0.3379838514094903   T   T   T
  0.6611890031320055  0.4283342736407861  0.6042945554439322   T   T   T
  0.6734027559507976  0.5788568557300567  0.5636057816778798   T   T   T
  0.5267898225656912  0.5112127594610796  0.3278481674179133   T   T   T
  0.5656889464082664  0.3574533825821903  0.4688639545712828   T   T   T
  0.3166952761945782  0.5440313086909179  0.4898497557399405   T   T   T
  0.6602146306379160  0.4291842225044978  0.4154008749892612   T   T   T
  0.5660841929594156  0.6261437171197244  0.5094829013827464   F   F   F
  0.5956125370423641  0.5290731190658353  0.6897107714782199   T   T   T
  0.4704815924930495  0.6414950159777959  0.5892471403987846   T   T   T
  0.4639950121859225  0.6031166497305368  0.4642477925700808   T   T   T
  0.7171942743557970  0.5721905260106196  0.3834695211294706   T   T   T
  0.5499310510395361  0.5822218838566187  0.4076968008106903   F   F   F
  0.4794126430662260  0.5072205383607624  0.4190535757241776   F   F   F
  0.6958415857453100  0.4794161537676241  0.3249722380672813   T   T   T
  0.7515922487559531  0.4286843099557175  0.4886165741733653   T   T   T
  0.7484490416316434  0.5373954477581397  0.4848672671441727   T   T   T
  0.7490199692048144  0.4907016775080970  0.5722481873665035   T   T   T
  0.6485552802570121  0.4380399891372116  0.7088393977029828   T   T   T
  0.5765715616139057  0.7428387605029013  0.4929889534884844   T   T   T
  0.6192554540844384  0.5183157687966542  0.3801816896793397   F   F   F
  0.5044646847254119  0.5587068396416285  0.6501674991840890   T   T   T
  0.4922009500451665  0.4366758245867572  0.4933013002826740   F   F   F
  0.5608844484509063  0.4404139570509003  0.6454865549417619   F   F   F
  0.5767857248099898  0.6160118157676336  0.6137629870201952   T   T   T
  0.5475981905835798  0.6175078815106304  0.3128097199415625   T   T   T
  0.6297247761175419  0.6256556443680222  0.3611106690159729   T   T   T
  0.3791057329672359  0.5581507708916471  0.4114983164666002   T   T   T
  0.4723078164089713  0.4557257050327763  0.5877273803360978   F   F   F
  0.7266187845802762  0.6352460973107577  0.4833301302624770   T   T   T
  0.5043719714099456  0.3676579023997198  0.6850231810439168   T   T   T
  0.3797287714986403  0.4419998085670148  0.6389385693124372   T   T   T
  0.5544592502646992  0.4379899399457940  0.4037542370104745   F   F   F
  0.4343774000197211  0.3650447681741166  0.6112382207433739   T   T   T
  0.5279764952647863  0.3494548682010416  0.5801730434115226   T   T   T
  0.4704957671667465  0.6837549481243956  0.3614077504514387   T   T   T
 
  0.00000000E+00  0.00000000E+00  0.00000000E+00
  0.00000000E+00  0.00000000E+00  0.00000000E+00
  0.00000000E+00  0.00000000E+00  0.00000000E+00
  0.00000000E+00  0.00000000E+00  0.00000000E+00
  0.00000000E+00  0.00000000E+00  0.00000000E+00
  0.00000000E+00  0.00000000E+00  0.00000000E+00
  0.00000000E+00  0.00000000E+00  0.00000000E+00
  0.00000000E+00  0.00000000E+00  0.00000000E+00
  0.00000000E+00  0.00000000E+00  0.00000000E+00
  0.00000000E+00  0.00000000E+00  0.00000000E+00
  0.00000000E+00  0.00000000E+00  0.00000000E+00
  0.00000000E+00  0.00000000E+00  0.00000000E+00
  0.00000000E+00  0.00000000E+00  0.00000000E+00
  0.00000000E+00  0.00000000E+00  0.00000000E+00
  0.00000000E+00  0.00000000E+00  0.00000000E+00
  0.00000000E+00  0.00000000E+00  0.00000000E+00
  0.00000000E+00  0.00000000E+00  0.00000000E+00
  0.00000000E+00  0.00000000E+00  0.00000000E+00
  0.00000000E+00  0.00000000E+00  0.00000000E+00
  0.00000000E+00  0.00000000E+00  0.00000000E+00
  0.00000000E+00  0.00000000E+00  0.00000000E+00
  0.00000000E+00  0.00000000E+00  0.00000000E+00
  0.00000000E+00  0.00000000E+00  0.00000000E+00
  0.00000000E+00  0.00000000E+00  0.00000000E+00
  0.00000000E+00  0.00000000E+00  0.00000000E+00
  0.00000000E+00  0.00000000E+00  0.00000000E+00
  0.00000000E+00  0.00000000E+00  0.00000000E+00
  0.00000000E+00  0.00000000E+00  0.00000000E+00
  0.00000000E+00  0.00000000E+00  0.00000000E+00
  0.00000000E+00  0.00000000E+00  0.00000000E+00
  0.00000000E+00  0.00000000E+00  0.00000000E+00
  0.00000000E+00  0.00000000E+00  0.00000000E+00
  0.00000000E+00  0.00000000E+00  0.00000000E+00
  0.00000000E+00  0.00000000E+00  0.00000000E+00
  0.00000000E+00  0.00000000E+00  0.00000000E+00
  0.00000000E+00  0.00000000E+00  0.00000000E+00
  0.00000000E+00  0.00000000E+00  0.00000000E+00
  0.00000000E+00  0.00000000E+00  0.00000000E+00
  0.00000000E+00  0.00000000E+00  0.00000000E+00
  0.00000000E+00  0.00000000E+00  0.00000000E+00
  0.00000000E+00  0.00000000E+00  0.00000000E+00
  0.00000000E+00  0.00000000E+00  0.00000000E+00
  0.00000000E+00  0.00000000E+00  0.00000000E+00
  0.00000000E+00  0.00000000E+00  0.00000000E+00
  0.00000000E+00  0.00000000E+00  0.00000000E+00
  0.00000000E+00  0.00000000E+00  0.00000000E+00
  0.00000000E+00  0.00000000E+00  0.00000000E+00
  0.00000000E+00  0.00000000E+00  0.00000000E+00
  0.00000000E+00  0.00000000E+00  0.00000000E+00
  0.00000000E+00  0.00000000E+00  0.00000000E+00
  0.00000000E+00  0.00000000E+00  0.00000000E+00
  0.00000000E+00  0.00000000E+00  0.00000000E+00
  0.00000000E+00  0.00000000E+00  0.00000000E+00
  0.00000000E+00  0.00000000E+00  0.00000000E+00
  0.00000000E+00  0.00000000E+00  0.00000000E+00
  0.00000000E+00  0.00000000E+00  0.00000000E+00
  0.00000000E+00  0.00000000E+00  0.00000000E+00
  0.00000000E+00  0.00000000E+00  0.00000000E+00
  0.00000000E+00  0.00000000E+00  0.00000000E+00
  0.00000000E+00  0.00000000E+00  0.00000000E+00
  0.00000000E+00  0.00000000E+00  0.00000000E+00
  0.00000000E+00  0.00000000E+00  0.00000000E+00
  0.00000000E+00  0.00000000E+00  0.00000000E+00
  0.00000000E+00  0.00000000E+00  0.00000000E+00
  0.00000000E+00  0.00000000E+00  0.00000000E+00
  0.00000000E+00  0.00000000E+00  0.00000000E+00
  0.00000000E+00  0.00000000E+00  0.00000000E+00
  0.00000000E+00  0.00000000E+00  0.00000000E+00
  0.00000000E+00  0.00000000E+00  0.00000000E+00
