Bi La Sn H                              
   1.00000000000000     
    29.0000000000000000    0.0000000000000000    0.0000000000000000
     0.2488180851000000   28.9989325590000000    0.0000000000000000
    -0.0631677343000000   -0.4515975666000000   28.9964147692999994
   Bi   La   Sn   H 
    22    23    23     1
Selective dynamics
Direct
  0.7584333883420069  0.4779564777386512  0.3991055524972681   T   T   T
  0.6467314636184014  0.6848403629912518  0.5518024114243839   T   T   T
  0.3592615645627038  0.4582418250803246  0.4291869548484518   T   T   T
  0.5501060799309589  0.7134538129551802  0.5838826999331685   T   T   T
  0.5915029568994470  0.5209714444905416  0.5841479689498996   F   F   F
  0.6397259763436693  0.6799487470134719  0.4455467755942857   T   T   T
  0.6952474299339324  0.5226720105605763  0.6544103952195550   T   T   T
  0.4862982152696927  0.7012622718108243  0.4994417301812543   T   T   T
  0.5004839460855024  0.5502791173970252  0.5477141156400123   F   F   F
  0.3236426928130091  0.4864687072267778  0.5729897548409855   T   T   T
  0.3818711611656569  0.6110115691166466  0.5344907359974453   T   T   T
  0.6667129484492236  0.4827404655721850  0.5105018184570156   F   F   F
  0.5763997220267569  0.4263140504383500  0.5448328182496311   F   F   F
  0.6688397951355820  0.3734661237725609  0.5068005987806646   T   T   T
  0.4632336709987194  0.3390316091126012  0.5006636180442929   T   T   T
  0.6484934028780529  0.5775373212088155  0.4602701624361103   F   F   F
  0.5594966890748405  0.4358750620662710  0.7495595526152793   T   T   T
  0.6052233923324545  0.3518930393019568  0.6685665552485018   T   T   T
  0.4912474027357354  0.2988344286788827  0.4111280798751676   T   T   T
  0.6591488238065969  0.6189147552163157  0.6661421818222439   T   T   T
  0.4919313231249252  0.4095023343314659  0.3071434968824681   T   T   T
  0.6211437924934547  0.3159883515929098  0.5728525715615063   T   T   T
  0.5382964968924671  0.6833093165591487  0.4042905164908308   T   T   T
  0.3904956953134346  0.4153687547684822  0.5292538588070098   T   T   T
  0.6284777870353035  0.5519311350425976  0.2826977007126905   T   T   T
  0.4716608584294044  0.4692991385034829  0.6919830869668949   T   T   T
  0.5683115009887700  0.5094300495444983  0.4784716241115703   F   F   F
  0.4203210565129183  0.5084107200613417  0.5018573595042781   F   F   F
  0.4515760108137601  0.4007876322864625  0.4071590205785423   T   T   T
  0.5627688818028819  0.3479713834196191  0.3555659946794315   T   T   T
  0.4092140392355433  0.5399839089160544  0.6081798345689806   T   T   T
  0.5984022782985745  0.4417545574549072  0.3043750085131732   T   T   T
  0.4550990835088466  0.5997593790423948  0.3633815800627819   T   T   T
  0.4180778519381920  0.4863741526141113  0.3404231957263917   T   T   T
  0.6617999249231686  0.4281590138577281  0.6042500068455920   T   T   T
  0.6728030923918322  0.5788938020639133  0.5639256162901236   T   T   T
  0.5259275348766712  0.5092336115541530  0.3279699205030728   T   T   T
  0.5657638568378375  0.3574821578449444  0.4689372995934606   T   T   T
  0.3146844815923590  0.5424577198347218  0.4902617681451368   T   T   T
  0.6594855710494870  0.4296763139780290  0.4162387819586608   T   T   T
  0.5660841929594156  0.6261437171197244  0.5094829013827464   F   F   F
  0.5949889710983557  0.5291156240118394  0.6894300122607787   T   T   T
  0.4697659817252853  0.6418174067826299  0.5882122327054713   T   T   T
  0.4630949107934124  0.6034175342457072  0.4639637647424288   T   T   T
  0.7159029006474530  0.5737734599021210  0.3826830803429956   T   T   T
  0.5499310510395361  0.5822218838566187  0.4076968008106903   F   F   F
  0.4794126430662260  0.5072205383607624  0.4190535757241776   F   F   F
  0.6946709517888828  0.4797981197680981  0.3242455622456348   T   T   T
  0.7514776651733469  0.4293705641239921  0.4890503679996097   T   T   T
  0.7480168552717709  0.5384206665928803  0.4849373611545130   T   T   T
  0.7488409102455794  0.4916081791437356  0.5727055904704281   T   T   T
  0.6490277984809582  0.4384723659062330  0.7082095581209346   T   T   T
  0.5767558581573615  0.7434930130378973  0.4925749713341595   T   T   T
  0.6192554540844384  0.5183157687966542  0.3801816896793397   F   F   F
  0.5034280949370219  0.5591622057213745  0.6497758605344024   T   T   T
  0.4922009500451665  0.4366758245867572  0.4933013002826740   F   F   F
  0.5608844484509063  0.4404139570509003  0.6454865549417619   F   F   F
  0.5764006028279901  0.6159854316174967  0.6137233574315211   T   T   T
  0.5437675157530129  0.6170112907739143  0.3117362837969881   T   T   T
  0.6263556201194074  0.6250536901998330  0.3603855944669309   T   T   T
  0.3772709429664738  0.5567309341637173  0.4125433813130233   T   T   T
  0.4723078164089713  0.4557257050327763  0.5877273803360978   F   F   F
  0.7270444820121286  0.6350209555685378  0.4848281272525030   T   T   T
  0.5057525650708611  0.3667975005746725  0.6869830773732249   T   T   T
  0.3764228805241543  0.4445906341505209  0.6442966185195235   T   T   T
  0.5544592502646992  0.4379899399457940  0.4037542370104745   F   F   F
  0.4347284358150034  0.3689408795937739  0.6154549052600716   T   T   T
  0.5275340157922295  0.3491916603198256  0.5808271535382733   T   T   T
  0.3285408405427660  0.4146994152847447  0.6653042159077205   T   T   T
 
  0.00000000E+00  0.00000000E+00  0.00000000E+00
  0.00000000E+00  0.00000000E+00  0.00000000E+00
  0.00000000E+00  0.00000000E+00  0.00000000E+00
  0.00000000E+00  0.00000000E+00  0.00000000E+00
  0.00000000E+00  0.00000000E+00  0.00000000E+00
  0.00000000E+00  0.00000000E+00  0.00000000E+00
  0.00000000E+00  0.00000000E+00  0.00000000E+00
  0.00000000E+00  0.00000000E+00  0.00000000E+00
  0.00000000E+00  0.00000000E+00  0.00000000E+00
  0.00000000E+00  0.00000000E+00  0.00000000E+00
  0.00000000E+00  0.00000000E+00  0.00000000E+00
  0.00000000E+00  0.00000000E+00  0.00000000E+00
  0.00000000E+00  0.00000000E+00  0.00000000E+00
  0.00000000E+00  0.00000000E+00  0.00000000E+00
  0.00000000E+00  0.00000000E+00  0.00000000E+00
  0.00000000E+00  0.00000000E+00  0.00000000E+00
  0.00000000E+00  0.00000000E+00  0.00000000E+00
  0.00000000E+00  0.00000000E+00  0.00000000E+00
  0.00000000E+00  0.00000000E+00  0.00000000E+00
  0.00000000E+00  0.00000000E+00  0.00000000E+00
  0.00000000E+00  0.00000000E+00  0.00000000E+00
  0.00000000E+00  0.00000000E+00  0.00000000E+00
  0.00000000E+00  0.00000000E+00  0.00000000E+00
  0.00000000E+00  0.00000000E+00  0.00000000E+00
  0.00000000E+00  0.00000000E+00  0.00000000E+00
  0.00000000E+00  0.00000000E+00  0.00000000E+00
  0.00000000E+00  0.00000000E+00  0.00000000E+00
  0.00000000E+00  0.00000000E+00  0.00000000E+00
  0.00000000E+00  0.00000000E+00  0.00000000E+00
  0.00000000E+00  0.00000000E+00  0.00000000E+00
  0.00000000E+00  0.00000000E+00  0.00000000E+00
  0.00000000E+00  0.00000000E+00  0.00000000E+00
  0.00000000E+00  0.00000000E+00  0.00000000E+00
  0.00000000E+00  0.00000000E+00  0.00000000E+00
  0.00000000E+00  0.00000000E+00  0.00000000E+00
  0.00000000E+00  0.00000000E+00  0.00000000E+00
  0.00000000E+00  0.00000000E+00  0.00000000E+00
  0.00000000E+00  0.00000000E+00  0.00000000E+00
  0.00000000E+00  0.00000000E+00  0.00000000E+00
  0.00000000E+00  0.00000000E+00  0.00000000E+00
  0.00000000E+00  0.00000000E+00  0.00000000E+00
  0.00000000E+00  0.00000000E+00  0.00000000E+00
  0.00000000E+00  0.00000000E+00  0.00000000E+00
  0.00000000E+00  0.00000000E+00  0.00000000E+00
  0.00000000E+00  0.00000000E+00  0.00000000E+00
  0.00000000E+00  0.00000000E+00  0.00000000E+00
  0.00000000E+00  0.00000000E+00  0.00000000E+00
  0.00000000E+00  0.00000000E+00  0.00000000E+00
  0.00000000E+00  0.00000000E+00  0.00000000E+00
  0.00000000E+00  0.00000000E+00  0.00000000E+00
  0.00000000E+00  0.00000000E+00  0.00000000E+00
  0.00000000E+00  0.00000000E+00  0.00000000E+00
  0.00000000E+00  0.00000000E+00  0.00000000E+00
  0.00000000E+00  0.00000000E+00  0.00000000E+00
  0.00000000E+00  0.00000000E+00  0.00000000E+00
  0.00000000E+00  0.00000000E+00  0.00000000E+00
  0.00000000E+00  0.00000000E+00  0.00000000E+00
  0.00000000E+00  0.00000000E+00  0.00000000E+00
  0.00000000E+00  0.00000000E+00  0.00000000E+00
  0.00000000E+00  0.00000000E+00  0.00000000E+00
  0.00000000E+00  0.00000000E+00  0.00000000E+00
  0.00000000E+00  0.00000000E+00  0.00000000E+00
  0.00000000E+00  0.00000000E+00  0.00000000E+00
  0.00000000E+00  0.00000000E+00  0.00000000E+00
  0.00000000E+00  0.00000000E+00  0.00000000E+00
  0.00000000E+00  0.00000000E+00  0.00000000E+00
  0.00000000E+00  0.00000000E+00  0.00000000E+00
  0.00000000E+00  0.00000000E+00  0.00000000E+00
  0.00000000E+00  0.00000000E+00  0.00000000E+00
