Bi La Sn H                              
   1.00000000000000     
    29.0000000000000000    0.0000000000000000    0.0000000000000000
     0.2488180851000000   28.9989325590000000    0.0000000000000000
    -0.0631677343000000   -0.4515975666000000   28.9964147692999994
   Bi   La   Sn   H 
    22    23    23     1
Selective dynamics
Direct
  0.7603208466965531  0.4771529563288986  0.3973816092558046   T   T   T
  0.6477996530291531  0.6859760126843686  0.5486472637987678   T   T   T
  0.3600330766465902  0.4579146192209123  0.4274874285559688   T   T   T
  0.5511536739425977  0.7155194352888768  0.5794242916090929   T   T   T
  0.5915029568994470  0.5209714444905416  0.5841479689498996   F   F   F
  0.6400914065025606  0.6790952934114961  0.4441528079360249   T   T   T
  0.6953521383812755  0.5149882821230242  0.6539696546094134   T   T   T
  0.4872661380282928  0.7021161986177772  0.4954910295384751   T   T   T
  0.5004839460855024  0.5502791173970252  0.5477141156400123   F   F   F
  0.3284962318902789  0.4856497502594680  0.5787360124442437   T   T   T
  0.3818211295789224  0.6080480856016076  0.5372342031961723   T   T   T
  0.6667129484492236  0.4827404655721850  0.5105018184570156   F   F   F
  0.5763997220267569  0.4263140504383500  0.5448328182496311   F   F   F
  0.6682861142067532  0.3731981308492228  0.5047147938603628   T   T   T
  0.4606438596531535  0.3379870069916788  0.4949738615746829   T   T   T
  0.6484934028780529  0.5775373212088155  0.4602701624361103   F   F   F
  0.5539052958775416  0.4350937802947378  0.7494328307738000   T   T   T
  0.5899326613612020  0.3477075146587009  0.6661274490800483   T   T   T
  0.4924453130421219  0.3000520703930444  0.4054476127222665   T   T   T
  0.6639656445153406  0.6104520084580343  0.6695900368385682   T   T   T
  0.4914232123135363  0.4101354148705247  0.3042845636858517   T   T   T
  0.6210838479974516  0.3165601532011331  0.5721844243523543   T   T   T
  0.5393434676701194  0.6830726581245520  0.4014933191910934   T   T   T
  0.3893406297297175  0.4155598672896996  0.5255504331302897   T   T   T
  0.6284408735428867  0.5502534316046729  0.2826740885565715   T   T   T
  0.4737779948208420  0.4828194628898993  0.6918854531356705   T   T   T
  0.5683115009887700  0.5094300495444983  0.4784716241115703   F   F   F
  0.4203210565129183  0.5084107200613417  0.5018573595042781   F   F   F
  0.4525589860740074  0.4017082814839015  0.4045898737834262   T   T   T
  0.5635387527819161  0.3500653710483109  0.3522612056961086   T   T   T
  0.4141768673107750  0.5395717722962836  0.6124448307541234   T   T   T
  0.5984233898621245  0.4422967512177156  0.3029062257995264   T   T   T
  0.4544534635161287  0.5991428407050111  0.3631747187378237   T   T   T
  0.4183053424435435  0.4873941679046672  0.3396940990970010   T   T   T
  0.6608322547757715  0.4242887842834733  0.6033493433879745   T   T   T
  0.6738507902964489  0.5791685992734767  0.5646437914176586   T   T   T
  0.5259633167995803  0.5086142702488680  0.3282514351705788   T   T   T
  0.5648181035245344  0.3564550034608224  0.4692790708354775   T   T   T
  0.3153870364852162  0.5389241128173038  0.4932294329990328   T   T   T
  0.6599515979681136  0.4300357202611745  0.4153186154619334   T   T   T
  0.5660841929594156  0.6261437171197244  0.5094829013827464   F   F   F
  0.5954405908948814  0.5267064538845111  0.6896684010036295   T   T   T
  0.4699921621460413  0.6440148561879179  0.5847352401091014   T   T   T
  0.4622087747028601  0.6032504105836936  0.4636345443239612   T   T   T
  0.7157112697945425  0.5725742595003055  0.3820884974885022   T   T   T
  0.5499310510395361  0.5822218838566187  0.4076968008106903   F   F   F
  0.4794126430662260  0.5072205383607624  0.4190535757241776   F   F   F
  0.6951294260815102  0.4783740485682348  0.3236760701749020   T   T   T
  0.7514563158527949  0.4289223799790805  0.4862689200251967   T   T   T
  0.7479898191494397  0.5368285481347447  0.4834795941609856   T   T   T
  0.7487925865281120  0.4895647479095869  0.5713152288389193   T   T   T
  0.6436351324413974  0.4294262357422761  0.7078931807111485   T   T   T
  0.5770784764748493  0.7447109211835921  0.4882985451863478   T   T   T
  0.6192554540844384  0.5183157687966542  0.3801816896793397   F   F   F
  0.5087073798457055  0.5682528185476505  0.6489314381982134   T   T   T
  0.4922009500451665  0.4366758245867572  0.4933013002826740   F   F   F
  0.5608844484509063  0.4404139570509003  0.6454865549417619   F   F   F
  0.5815281945480495  0.6210458464617420  0.6140938157131959   T   T   T
  0.5432893262306282  0.6156615709778146  0.3112987113044126   T   T   T
  0.6266121919734892  0.6242767874096469  0.3590707195203284   T   T   T
  0.3758853968236606  0.5569280742031311  0.4138052755966440   T   T   T
  0.4723078164089713  0.4557257050327763  0.5877273803360978   F   F   F
  0.7279881320731492  0.6340433382517345  0.4828117161585792   T   T   T
  0.4911569159552078  0.3791784825008650  0.6772069929330937   T   T   T
  0.3882455483715102  0.4368810617048264  0.6405900605148203   T   T   T
  0.5544592502646992  0.4379899399457940  0.4037542370104745   F   F   F
  0.4309558831205127  0.3555619981328688  0.6011665439917889   T   T   T
  0.5257176061649564  0.3485869671763648  0.5748986995802460   T   T   T
  0.5865409688396177  0.6700919055974044  0.6542026959313291   T   T   T
 
  0.00000000E+00  0.00000000E+00  0.00000000E+00
  0.00000000E+00  0.00000000E+00  0.00000000E+00
  0.00000000E+00  0.00000000E+00  0.00000000E+00
  0.00000000E+00  0.00000000E+00  0.00000000E+00
  0.00000000E+00  0.00000000E+00  0.00000000E+00
  0.00000000E+00  0.00000000E+00  0.00000000E+00
  0.00000000E+00  0.00000000E+00  0.00000000E+00
  0.00000000E+00  0.00000000E+00  0.00000000E+00
  0.00000000E+00  0.00000000E+00  0.00000000E+00
  0.00000000E+00  0.00000000E+00  0.00000000E+00
  0.00000000E+00  0.00000000E+00  0.00000000E+00
  0.00000000E+00  0.00000000E+00  0.00000000E+00
  0.00000000E+00  0.00000000E+00  0.00000000E+00
  0.00000000E+00  0.00000000E+00  0.00000000E+00
  0.00000000E+00  0.00000000E+00  0.00000000E+00
  0.00000000E+00  0.00000000E+00  0.00000000E+00
  0.00000000E+00  0.00000000E+00  0.00000000E+00
  0.00000000E+00  0.00000000E+00  0.00000000E+00
  0.00000000E+00  0.00000000E+00  0.00000000E+00
  0.00000000E+00  0.00000000E+00  0.00000000E+00
  0.00000000E+00  0.00000000E+00  0.00000000E+00
  0.00000000E+00  0.00000000E+00  0.00000000E+00
  0.00000000E+00  0.00000000E+00  0.00000000E+00
  0.00000000E+00  0.00000000E+00  0.00000000E+00
  0.00000000E+00  0.00000000E+00  0.00000000E+00
  0.00000000E+00  0.00000000E+00  0.00000000E+00
  0.00000000E+00  0.00000000E+00  0.00000000E+00
  0.00000000E+00  0.00000000E+00  0.00000000E+00
  0.00000000E+00  0.00000000E+00  0.00000000E+00
  0.00000000E+00  0.00000000E+00  0.00000000E+00
  0.00000000E+00  0.00000000E+00  0.00000000E+00
  0.00000000E+00  0.00000000E+00  0.00000000E+00
  0.00000000E+00  0.00000000E+00  0.00000000E+00
  0.00000000E+00  0.00000000E+00  0.00000000E+00
  0.00000000E+00  0.00000000E+00  0.00000000E+00
  0.00000000E+00  0.00000000E+00  0.00000000E+00
  0.00000000E+00  0.00000000E+00  0.00000000E+00
  0.00000000E+00  0.00000000E+00  0.00000000E+00
  0.00000000E+00  0.00000000E+00  0.00000000E+00
  0.00000000E+00  0.00000000E+00  0.00000000E+00
  0.00000000E+00  0.00000000E+00  0.00000000E+00
  0.00000000E+00  0.00000000E+00  0.00000000E+00
  0.00000000E+00  0.00000000E+00  0.00000000E+00
  0.00000000E+00  0.00000000E+00  0.00000000E+00
  0.00000000E+00  0.00000000E+00  0.00000000E+00
  0.00000000E+00  0.00000000E+00  0.00000000E+00
  0.00000000E+00  0.00000000E+00  0.00000000E+00
  0.00000000E+00  0.00000000E+00  0.00000000E+00
  0.00000000E+00  0.00000000E+00  0.00000000E+00
  0.00000000E+00  0.00000000E+00  0.00000000E+00
  0.00000000E+00  0.00000000E+00  0.00000000E+00
  0.00000000E+00  0.00000000E+00  0.00000000E+00
  0.00000000E+00  0.00000000E+00  0.00000000E+00
  0.00000000E+00  0.00000000E+00  0.00000000E+00
  0.00000000E+00  0.00000000E+00  0.00000000E+00
  0.00000000E+00  0.00000000E+00  0.00000000E+00
  0.00000000E+00  0.00000000E+00  0.00000000E+00
  0.00000000E+00  0.00000000E+00  0.00000000E+00
  0.00000000E+00  0.00000000E+00  0.00000000E+00
  0.00000000E+00  0.00000000E+00  0.00000000E+00
  0.00000000E+00  0.00000000E+00  0.00000000E+00
  0.00000000E+00  0.00000000E+00  0.00000000E+00
  0.00000000E+00  0.00000000E+00  0.00000000E+00
  0.00000000E+00  0.00000000E+00  0.00000000E+00
  0.00000000E+00  0.00000000E+00  0.00000000E+00
  0.00000000E+00  0.00000000E+00  0.00000000E+00
  0.00000000E+00  0.00000000E+00  0.00000000E+00
  0.00000000E+00  0.00000000E+00  0.00000000E+00
  0.00000000E+00  0.00000000E+00  0.00000000E+00
