Bi La Sn H                              
   1.00000000000000     
    29.0000000000000000    0.0000000000000000    0.0000000000000000
     0.2488180851000000   28.9989325590000000    0.0000000000000000
    -0.0631677343000000   -0.4515975666000000   28.9964147692999994
   Bi   La   Sn   H 
    22    23    23     1
Selective dynamics
Direct
  0.7585258774494523  0.4777985416696530  0.3981039543999387   T   T   T
  0.6465844839319161  0.6847491064148572  0.5522724635710012   T   T   T
  0.3601751097222050  0.4572500896915918  0.4301147311286711   T   T   T
  0.5495762966962462  0.7131596069668179  0.5840706482428952   T   T   T
  0.5915029568994470  0.5209714444905416  0.5841479689498996   F   F   F
  0.6399534417611770  0.6804315082191391  0.4457639837260340   T   T   T
  0.6956754022425815  0.5224142614248601  0.6539645226989428   T   T   T
  0.4860193894949085  0.7011439103800481  0.4990080585207696   T   T   T
  0.5004839460855024  0.5502791173970252  0.5477141156400123   F   F   F
  0.3250609843356441  0.4858089579733044  0.5755452416544832   T   T   T
  0.3811647872246954  0.6102920188644071  0.5351298531999715   T   T   T
  0.6667129484492236  0.4827404655721850  0.5105018184570156   F   F   F
  0.5763997220267569  0.4263140504383500  0.5448328182496311   F   F   F
  0.6690868162868651  0.3742175042398087  0.5063381713915370   T   T   T
  0.4635595518133677  0.3390149438488094  0.5005369224336509   T   T   T
  0.6484934028780529  0.5775373212088155  0.4602701624361103   F   F   F
  0.5595320249847651  0.4372613633584003  0.7498171055123749   T   T   T
  0.6044201151800926  0.3517361333751133  0.6690562064775333   T   T   T
  0.4922704507571542  0.2983838615714158  0.4108082002904876   T   T   T
  0.6595825717467687  0.6187777523568571  0.6660269529965794   T   T   T
  0.4891249045960258  0.4114737163420757  0.3056797561660806   T   T   T
  0.6220490907219025  0.3167171744839694  0.5726044623594628   T   T   T
  0.5393154203131582  0.6838958256151231  0.4048376039830845   T   T   T
  0.3906856741814709  0.4149075949548257  0.5292156071017234   T   T   T
  0.6284737820406974  0.5524718891464522  0.2824894895472834   T   T   T
  0.4718087814558252  0.4705467467463897  0.6921483793403361   T   T   T
  0.5683115009887700  0.5094300495444983  0.4784716241115703   F   F   F
  0.4203210565129183  0.5084107200613417  0.5018573595042781   F   F   F
  0.4527967010603287  0.4004449226805482  0.4073681978391097   T   T   T
  0.5607751560443059  0.3495267980062430  0.3530735242349501   T   T   T
  0.4108672611346509  0.5401848713736740  0.6096136701920972   T   T   T
  0.5974388994596779  0.4424526755833721  0.3045322902328492   T   T   T
  0.4545023269482064  0.5995907545923015  0.3638392086884684   T   T   T
  0.4150893757767232  0.4860230202154491  0.3405009578315085   T   T   T
  0.6615158726276337  0.4282026863035595  0.6041439784340794   T   T   T
  0.6727823921684352  0.5789581423179613  0.5639115364903040   T   T   T
  0.5267093588999200  0.5097528244204750  0.3279232259815711   T   T   T
  0.5659301657081193  0.3574545227060764  0.4689692902599282   T   T   T
  0.3149948545470379  0.5408927912710073  0.4920345160282172   T   T   T
  0.6599814261095879  0.4295808920698453  0.4152572456438093   T   T   T
  0.5660841929594156  0.6261437171197244  0.5094829013827464   F   F   F
  0.5957277555209017  0.5289380900074219  0.6895320854828134   T   T   T
  0.4693587684910424  0.6413428901234153  0.5879537576419668   T   T   T
  0.4624545267072873  0.6025978272502350  0.4641248420308027   T   T   T
  0.7157113830558637  0.5732104037087415  0.3826770455535320   T   T   T
  0.5499310510395361  0.5822218838566187  0.4076968008106903   F   F   F
  0.4794126430662260  0.5072205383607624  0.4190535757241776   F   F   F
  0.6941792832842818  0.4799235901668821  0.3232404596580557   T   T   T
  0.7518737277058976  0.4300344665119820  0.4877545349019208   T   T   T
  0.7480378429833188  0.5383472696556499  0.4846743640572548   T   T   T
  0.7488003254321181  0.4911798043617694  0.5723647241486468   T   T   T
  0.6491409011597088  0.4373149892041721  0.7086829429100407   T   T   T
  0.5768887032392781  0.7434953628697237  0.4933249699825108   T   T   T
  0.6192554540844384  0.5183157687966542  0.3801816896793397   F   F   F
  0.5047020429088703  0.5595130316144616  0.6501029511034444   T   T   T
  0.4922009500451665  0.4366758245867572  0.4933013002826740   F   F   F
  0.5608844484509063  0.4404139570509003  0.6454865549417619   F   F   F
  0.5766481944497912  0.6163557573145713  0.6136479351813562   T   T   T
  0.5437089265042341  0.6176557818140465  0.3125878964495280   T   T   T
  0.6267269693049881  0.6252698375718847  0.3604882787648006   T   T   T
  0.3760037982176321  0.5571966883875165  0.4134785542177096   T   T   T
  0.4723078164089713  0.4557257050327763  0.5877273803360978   F   F   F
  0.7266802274664241  0.6352029944077457  0.4847326453574419   T   T   T
  0.5051670688613097  0.3683509067185506  0.6871201508522679   T   T   T
  0.3812619870919277  0.4416401421458167  0.6415691642053817   T   T   T
  0.5544592502646992  0.4379899399457940  0.4037542370104745   F   F   F
  0.4354407524035850  0.3643278308022589  0.6132677428333467   T   T   T
  0.5282553435890882  0.3494918174116338  0.5803220358507953   T   T   T
  0.4539886319016291  0.5450784843103788  0.3071923568308732   T   T   T
 
  0.00000000E+00  0.00000000E+00  0.00000000E+00
  0.00000000E+00  0.00000000E+00  0.00000000E+00
  0.00000000E+00  0.00000000E+00  0.00000000E+00
  0.00000000E+00  0.00000000E+00  0.00000000E+00
  0.00000000E+00  0.00000000E+00  0.00000000E+00
  0.00000000E+00  0.00000000E+00  0.00000000E+00
  0.00000000E+00  0.00000000E+00  0.00000000E+00
  0.00000000E+00  0.00000000E+00  0.00000000E+00
  0.00000000E+00  0.00000000E+00  0.00000000E+00
  0.00000000E+00  0.00000000E+00  0.00000000E+00
  0.00000000E+00  0.00000000E+00  0.00000000E+00
  0.00000000E+00  0.00000000E+00  0.00000000E+00
  0.00000000E+00  0.00000000E+00  0.00000000E+00
  0.00000000E+00  0.00000000E+00  0.00000000E+00
  0.00000000E+00  0.00000000E+00  0.00000000E+00
  0.00000000E+00  0.00000000E+00  0.00000000E+00
  0.00000000E+00  0.00000000E+00  0.00000000E+00
  0.00000000E+00  0.00000000E+00  0.00000000E+00
  0.00000000E+00  0.00000000E+00  0.00000000E+00
  0.00000000E+00  0.00000000E+00  0.00000000E+00
  0.00000000E+00  0.00000000E+00  0.00000000E+00
  0.00000000E+00  0.00000000E+00  0.00000000E+00
  0.00000000E+00  0.00000000E+00  0.00000000E+00
  0.00000000E+00  0.00000000E+00  0.00000000E+00
  0.00000000E+00  0.00000000E+00  0.00000000E+00
  0.00000000E+00  0.00000000E+00  0.00000000E+00
  0.00000000E+00  0.00000000E+00  0.00000000E+00
  0.00000000E+00  0.00000000E+00  0.00000000E+00
  0.00000000E+00  0.00000000E+00  0.00000000E+00
  0.00000000E+00  0.00000000E+00  0.00000000E+00
  0.00000000E+00  0.00000000E+00  0.00000000E+00
  0.00000000E+00  0.00000000E+00  0.00000000E+00
  0.00000000E+00  0.00000000E+00  0.00000000E+00
  0.00000000E+00  0.00000000E+00  0.00000000E+00
  0.00000000E+00  0.00000000E+00  0.00000000E+00
  0.00000000E+00  0.00000000E+00  0.00000000E+00
  0.00000000E+00  0.00000000E+00  0.00000000E+00
  0.00000000E+00  0.00000000E+00  0.00000000E+00
  0.00000000E+00  0.00000000E+00  0.00000000E+00
  0.00000000E+00  0.00000000E+00  0.00000000E+00
  0.00000000E+00  0.00000000E+00  0.00000000E+00
  0.00000000E+00  0.00000000E+00  0.00000000E+00
  0.00000000E+00  0.00000000E+00  0.00000000E+00
  0.00000000E+00  0.00000000E+00  0.00000000E+00
  0.00000000E+00  0.00000000E+00  0.00000000E+00
  0.00000000E+00  0.00000000E+00  0.00000000E+00
  0.00000000E+00  0.00000000E+00  0.00000000E+00
  0.00000000E+00  0.00000000E+00  0.00000000E+00
  0.00000000E+00  0.00000000E+00  0.00000000E+00
  0.00000000E+00  0.00000000E+00  0.00000000E+00
  0.00000000E+00  0.00000000E+00  0.00000000E+00
  0.00000000E+00  0.00000000E+00  0.00000000E+00
  0.00000000E+00  0.00000000E+00  0.00000000E+00
  0.00000000E+00  0.00000000E+00  0.00000000E+00
  0.00000000E+00  0.00000000E+00  0.00000000E+00
  0.00000000E+00  0.00000000E+00  0.00000000E+00
  0.00000000E+00  0.00000000E+00  0.00000000E+00
  0.00000000E+00  0.00000000E+00  0.00000000E+00
  0.00000000E+00  0.00000000E+00  0.00000000E+00
  0.00000000E+00  0.00000000E+00  0.00000000E+00
  0.00000000E+00  0.00000000E+00  0.00000000E+00
  0.00000000E+00  0.00000000E+00  0.00000000E+00
  0.00000000E+00  0.00000000E+00  0.00000000E+00
  0.00000000E+00  0.00000000E+00  0.00000000E+00
  0.00000000E+00  0.00000000E+00  0.00000000E+00
  0.00000000E+00  0.00000000E+00  0.00000000E+00
  0.00000000E+00  0.00000000E+00  0.00000000E+00
  0.00000000E+00  0.00000000E+00  0.00000000E+00
  0.00000000E+00  0.00000000E+00  0.00000000E+00
