Bi La Sn H                              
   1.00000000000000     
    29.0000000000000000    0.0000000000000000    0.0000000000000000
     0.2488180851000000   28.9989325590000000    0.0000000000000000
    -0.0631677343000000   -0.4515975666000000   28.9964147692999994
   Bi   La   Sn   H 
    22    23    23     1
Selective dynamics
Direct
  0.7602995659010122  0.4760715117936343  0.3994207153733716   T   T   T
  0.6479514056146503  0.6846234217256284  0.5503888840936927   T   T   T
  0.3608341541956804  0.4589045759823863  0.4261348357766552   T   T   T
  0.5519319493960992  0.7138927676398502  0.5831435066537116   T   T   T
  0.5915029568994470  0.5209714444905416  0.5841479689498996   F   F   F
  0.6402550081772095  0.6803487255687573  0.4451649439329355   T   T   T
  0.6947388604644418  0.5197013577277708  0.6533212178164217   T   T   T
  0.4874198287705114  0.7023927684868180  0.4983911339662459   T   T   T
  0.5004839460855024  0.5502791173970252  0.5477141156400123   F   F   F
  0.3278525431241983  0.4854647217777148  0.5781062397584468   T   T   T
  0.3830983227107214  0.6091381023879621  0.5375081722764041   T   T   T
  0.6667129484492236  0.4827404655721850  0.5105018184570156   F   F   F
  0.5763997220267569  0.4263140504383500  0.5448328182496311   F   F   F
  0.6668700730635098  0.3737795405840493  0.5057251052233578   T   T   T
  0.4607923808414748  0.3379461580251565  0.4942844584273346   T   T   T
  0.6484934028780529  0.5775373212088155  0.4602701624361103   F   F   F
  0.5531456604541513  0.4364268833172921  0.7500397065953021   T   T   T
  0.5896837933005129  0.3486231261536315  0.6698437439029888   T   T   T
  0.4927815850269578  0.2997773354287003  0.4046079431616107   T   T   T
  0.6608733552097261  0.6157345673942046  0.6677734429119201   T   T   T
  0.4922260626999794  0.4110631531742827  0.3044101405523347   T   T   T
  0.6261199563326030  0.3184528530531605  0.5785019226035798   T   T   T
  0.5397851618328371  0.6839643126834448  0.4039934518890171   T   T   T
  0.3890844367081278  0.4160323512416388  0.5244803573442935   T   T   T
  0.6295622750900047  0.5518287649116650  0.2828228950168199   T   T   T
  0.4726453982976341  0.4807985544858504  0.6923366740924790   T   T   T
  0.5683115009887700  0.5094300495444983  0.4784716241115703   F   F   F
  0.4203210565129183  0.5084107200613417  0.5018573595042781   F   F   F
  0.4529739279650083  0.4017463812158378  0.4046663098008824   T   T   T
  0.5640704543629055  0.3501253220476909  0.3515273991364786   T   T   T
  0.4131264490908578  0.5396253321064278  0.6123505157813653   T   T   T
  0.5997992053392054  0.4421819855061633  0.3046515409780384   T   T   T
  0.4553111616592279  0.6003052149083106  0.3628178477088818   T   T   T
  0.4192490534358569  0.4886035326521264  0.3382045765185117   T   T   T
  0.6615085066935273  0.4237083036762365  0.6050294625764082   T   T   T
  0.6739950946114120  0.5784516583848708  0.5640532156240294   T   T   T
  0.5263011081337420  0.5097349347860826  0.3279898812316881   T   T   T
  0.5645073109159927  0.3569649565634337  0.4678607559560373   T   T   T
  0.3171758716564541  0.5400614917580584  0.4931512417485997   T   T   T
  0.6600539537488170  0.4295784784528593  0.4150491734298190   T   T   T
  0.5660841929594156  0.6261437171197244  0.5094829013827464   F   F   F
  0.5955728256547970  0.5265048825737079  0.6902287548142103   T   T   T
  0.4712022484447899  0.6433074019269218  0.5874142902001537   T   T   T
  0.4632700620169842  0.6040535295133712  0.4644630467283864   T   T   T
  0.7172328325752607  0.5717951209344704  0.3840971485227853   T   T   T
  0.5499310510395361  0.5822218838566187  0.4076968008106903   F   F   F
  0.4794126430662260  0.5072205383607624  0.4190535757241776   F   F   F
  0.6960614885431027  0.4800658763011208  0.3240828436331573   T   T   T
  0.7508028201367124  0.4272175072262784  0.4880321065281742   T   T   T
  0.7489803060047745  0.5369187299783709  0.4857414724946695   T   T   T
  0.7488136685850461  0.4882216240990020  0.5721172577765274   T   T   T
  0.6429234571198194  0.4296259433128510  0.7095646322757011   T   T   T
  0.5777320806065267  0.7442683521617001  0.4920523559484454   T   T   T
  0.6192554540844384  0.5183157687966542  0.3801816896793397   F   F   F
  0.5075372960075505  0.5653963362065355  0.6502303459027085   T   T   T
  0.4922009500451665  0.4366758245867572  0.4933013002826740   F   F   F
  0.5608844484509063  0.4404139570509003  0.6454865549417619   F   F   F
  0.5794505454356743  0.6176610995394173  0.6133022744736693   T   T   T
  0.5458403139961995  0.6174855253316304  0.3131264113753718   T   T   T
  0.6294492703856125  0.6245382679673760  0.3607595487661406   T   T   T
  0.3773349141986413  0.5570504721305107  0.4130268807245561   T   T   T
  0.4723078164089713  0.4557257050327763  0.5877273803360978   F   F   F
  0.7280015449349172  0.6341789184020299  0.4838882881490452   T   T   T
  0.4917574606252978  0.3780689256991551  0.6771922987437824   T   T   T
  0.3877188075827833  0.4362566364496700  0.6394186426148889   T   T   T
  0.5544592502646992  0.4379899399457940  0.4037542370104745   F   F   F
  0.4339909767179070  0.3565904358774550  0.5987224545856656   T   T   T
  0.5284170155802178  0.3457036350187491  0.5731281826591714   T   T   T
  0.6813916337239575  0.3519545015190249  0.6227614979617841   T   T   T
 
  0.00000000E+00  0.00000000E+00  0.00000000E+00
  0.00000000E+00  0.00000000E+00  0.00000000E+00
  0.00000000E+00  0.00000000E+00  0.00000000E+00
  0.00000000E+00  0.00000000E+00  0.00000000E+00
  0.00000000E+00  0.00000000E+00  0.00000000E+00
  0.00000000E+00  0.00000000E+00  0.00000000E+00
  0.00000000E+00  0.00000000E+00  0.00000000E+00
  0.00000000E+00  0.00000000E+00  0.00000000E+00
  0.00000000E+00  0.00000000E+00  0.00000000E+00
  0.00000000E+00  0.00000000E+00  0.00000000E+00
  0.00000000E+00  0.00000000E+00  0.00000000E+00
  0.00000000E+00  0.00000000E+00  0.00000000E+00
  0.00000000E+00  0.00000000E+00  0.00000000E+00
  0.00000000E+00  0.00000000E+00  0.00000000E+00
  0.00000000E+00  0.00000000E+00  0.00000000E+00
  0.00000000E+00  0.00000000E+00  0.00000000E+00
  0.00000000E+00  0.00000000E+00  0.00000000E+00
  0.00000000E+00  0.00000000E+00  0.00000000E+00
  0.00000000E+00  0.00000000E+00  0.00000000E+00
  0.00000000E+00  0.00000000E+00  0.00000000E+00
  0.00000000E+00  0.00000000E+00  0.00000000E+00
  0.00000000E+00  0.00000000E+00  0.00000000E+00
  0.00000000E+00  0.00000000E+00  0.00000000E+00
  0.00000000E+00  0.00000000E+00  0.00000000E+00
  0.00000000E+00  0.00000000E+00  0.00000000E+00
  0.00000000E+00  0.00000000E+00  0.00000000E+00
  0.00000000E+00  0.00000000E+00  0.00000000E+00
  0.00000000E+00  0.00000000E+00  0.00000000E+00
  0.00000000E+00  0.00000000E+00  0.00000000E+00
  0.00000000E+00  0.00000000E+00  0.00000000E+00
  0.00000000E+00  0.00000000E+00  0.00000000E+00
  0.00000000E+00  0.00000000E+00  0.00000000E+00
  0.00000000E+00  0.00000000E+00  0.00000000E+00
  0.00000000E+00  0.00000000E+00  0.00000000E+00
  0.00000000E+00  0.00000000E+00  0.00000000E+00
  0.00000000E+00  0.00000000E+00  0.00000000E+00
  0.00000000E+00  0.00000000E+00  0.00000000E+00
  0.00000000E+00  0.00000000E+00  0.00000000E+00
  0.00000000E+00  0.00000000E+00  0.00000000E+00
  0.00000000E+00  0.00000000E+00  0.00000000E+00
  0.00000000E+00  0.00000000E+00  0.00000000E+00
  0.00000000E+00  0.00000000E+00  0.00000000E+00
  0.00000000E+00  0.00000000E+00  0.00000000E+00
  0.00000000E+00  0.00000000E+00  0.00000000E+00
  0.00000000E+00  0.00000000E+00  0.00000000E+00
  0.00000000E+00  0.00000000E+00  0.00000000E+00
  0.00000000E+00  0.00000000E+00  0.00000000E+00
  0.00000000E+00  0.00000000E+00  0.00000000E+00
  0.00000000E+00  0.00000000E+00  0.00000000E+00
  0.00000000E+00  0.00000000E+00  0.00000000E+00
  0.00000000E+00  0.00000000E+00  0.00000000E+00
  0.00000000E+00  0.00000000E+00  0.00000000E+00
  0.00000000E+00  0.00000000E+00  0.00000000E+00
  0.00000000E+00  0.00000000E+00  0.00000000E+00
  0.00000000E+00  0.00000000E+00  0.00000000E+00
  0.00000000E+00  0.00000000E+00  0.00000000E+00
  0.00000000E+00  0.00000000E+00  0.00000000E+00
  0.00000000E+00  0.00000000E+00  0.00000000E+00
  0.00000000E+00  0.00000000E+00  0.00000000E+00
  0.00000000E+00  0.00000000E+00  0.00000000E+00
  0.00000000E+00  0.00000000E+00  0.00000000E+00
  0.00000000E+00  0.00000000E+00  0.00000000E+00
  0.00000000E+00  0.00000000E+00  0.00000000E+00
  0.00000000E+00  0.00000000E+00  0.00000000E+00
  0.00000000E+00  0.00000000E+00  0.00000000E+00
  0.00000000E+00  0.00000000E+00  0.00000000E+00
  0.00000000E+00  0.00000000E+00  0.00000000E+00
  0.00000000E+00  0.00000000E+00  0.00000000E+00
  0.00000000E+00  0.00000000E+00  0.00000000E+00
