Bi La Sn H                              
   1.00000000000000     
    29.0000000000000000    0.0000000000000000    0.0000000000000000
     0.2488180851000000   28.9989325590000000    0.0000000000000000
    -0.0631677343000000   -0.4515975666000000   28.9964147692999994
   Bi   La   Sn   H 
    22    23    23     1
Selective dynamics
Direct
  0.7601546528828045  0.4770813031278743  0.3992943420066999   T   T   T
  0.6494172225007269  0.6833962482490687  0.5495260928343930   T   T   T
  0.3598760383642258  0.4577188497059829  0.4277927443707983   T   T   T
  0.5533899509296113  0.7166441246528727  0.5831113586500403   T   T   T
  0.5915029568994470  0.5209714444905416  0.5841479689498996   F   F   F
  0.6412213752472503  0.6788997937546805  0.4443349531898407   T   T   T
  0.6954698115451812  0.5194252799533241  0.6546346886875487   T   T   T
  0.4885113984343140  0.7013358862602366  0.4943582752466869   T   T   T
  0.5004839460855024  0.5502791173970252  0.5477141156400123   F   F   F
  0.3280047016488363  0.4855241348373366  0.5780995672051937   T   T   T
  0.3819060835940723  0.6083486486164259  0.5373044081931224   T   T   T
  0.6667129484492236  0.4827404655721850  0.5105018184570156   F   F   F
  0.5763997220267569  0.4263140504383500  0.5448328182496311   F   F   F
  0.6684238915615196  0.3732237331668096  0.5067904121491107   T   T   T
  0.4616004049715521  0.3383195416197113  0.4957458556470613   T   T   T
  0.6484934028780529  0.5775373212088155  0.4602701624361103   F   F   F
  0.5553413211188656  0.4358937719390895  0.7496956206387804   T   T   T
  0.5921819906882213  0.3492769071910976  0.6680755458870594   T   T   T
  0.4930322918423954  0.2999782362735239  0.4066786525048097   T   T   T
  0.6618273740114712  0.6161369965039681  0.6671135127289871   T   T   T
  0.4911928235321690  0.4102981494437250  0.3038245964939672   T   T   T
  0.6203072582206173  0.3163003244541935  0.5736373537959817   T   T   T
  0.5405838294094353  0.6834547376090965  0.4014990871928658   T   T   T
  0.3899367482331927  0.4155418523727268  0.5259324528458901   T   T   T
  0.6297542403665033  0.5507224828476608  0.2829389597160440   T   T   T
  0.4736275926635297  0.4817424950817929  0.6923000791389645   T   T   T
  0.5683115009887700  0.5094300495444983  0.4784716241115703   F   F   F
  0.4203210565129183  0.5084107200613417  0.5018573595042781   F   F   F
  0.4527535265602561  0.4016122704997815  0.4045200752999026   T   T   T
  0.5635387721382614  0.3501141027144536  0.3519994834342912   T   T   T
  0.4133627180313928  0.5395122405623600  0.6121811969962931   T   T   T
  0.5988507992263774  0.4418027762621664  0.3039266866065777   T   T   T
  0.4548149300384580  0.5996489203136626  0.3633460910803226   T   T   T
  0.4184064589920277  0.4872364097820605  0.3396687742662435   T   T   T
  0.6606747811488332  0.4259346671218834  0.6043665263510462   T   T   T
  0.6744754626977268  0.5775638016056435  0.5641673983420801   T   T   T
  0.5262174519585282  0.5085808601784735  0.3281743120580284   T   T   T
  0.5655584600250114  0.3566842701027521  0.4693451078221424   T   T   T
  0.3156540536282073  0.5394340789800883  0.4930616734240453   T   T   T
  0.6597803617594857  0.4293353604836365  0.4158574089855306   T   T   T
  0.5660841929594156  0.6261437171197244  0.5094829013827464   F   F   F
  0.5954136603466681  0.5278805993256700  0.6895260008267311   T   T   T
  0.4705488823264915  0.6448003054992212  0.5854392734439643   T   T   T
  0.4618407410515218  0.6030753661147210  0.4639457098886653   T   T   T
  0.7158445412166498  0.5720836479837436  0.3827900048971803   T   T   T
  0.5499310510395361  0.5822218838566187  0.4076968008106903   F   F   F
  0.4794126430662260  0.5072205383607624  0.4190535757241776   F   F   F
  0.6954172711012659  0.4778838396830420  0.3246038137096175   T   T   T
  0.7511078286036910  0.4277459438022027  0.4878066490221298   T   T   T
  0.7490171668233121  0.5363095035498247  0.4856497305696117   T   T   T
  0.7488745029765940  0.4881115268053810  0.5728941847224833   T   T   T
  0.6447650324762110  0.4320211470476940  0.7083040299646266   T   T   T
  0.5786133736843007  0.7434884429040630  0.4899089823037133   T   T   T
  0.6192554540844384  0.5183157687966542  0.3801816896793397   F   F   F
  0.5073298451112673  0.5673368193323233  0.6495088337555853   T   T   T
  0.4922009500451665  0.4366758245867572  0.4933013002826740   F   F   F
  0.5608844484509063  0.4404139570509003  0.6454865549417619   F   F   F
  0.5803039438826399  0.6183256594048268  0.6125639066811566   T   T   T
  0.5436019349220673  0.6150070574297466  0.3113061055559924   T   T   T
  0.6266785993705826  0.6243570301490163  0.3594861830941404   T   T   T
  0.3760499802741866  0.5565680244352132  0.4132979256760450   T   T   T
  0.4723078164089713  0.4557257050327763  0.5877273803360978   F   F   F
  0.7286678579468212  0.6326004318928451  0.4837611400938254   T   T   T
  0.4922143989892732  0.3783979796435535  0.6790684770241975   T   T   T
  0.3872614115336037  0.4375805958193010  0.6409498275638444   T   T   T
  0.5544592502646992  0.4379899399457940  0.4037542370104745   F   F   F
  0.4309310791491909  0.3567163875553570  0.6029131118985923   T   T   T
  0.5257780989909033  0.3493587788531387  0.5764007297993433   T   T   T
  0.4837712715275777  0.7195396150800509  0.6042042619714887   T   T   T
 
  0.00000000E+00  0.00000000E+00  0.00000000E+00
  0.00000000E+00  0.00000000E+00  0.00000000E+00
  0.00000000E+00  0.00000000E+00  0.00000000E+00
  0.00000000E+00  0.00000000E+00  0.00000000E+00
  0.00000000E+00  0.00000000E+00  0.00000000E+00
  0.00000000E+00  0.00000000E+00  0.00000000E+00
  0.00000000E+00  0.00000000E+00  0.00000000E+00
  0.00000000E+00  0.00000000E+00  0.00000000E+00
  0.00000000E+00  0.00000000E+00  0.00000000E+00
  0.00000000E+00  0.00000000E+00  0.00000000E+00
  0.00000000E+00  0.00000000E+00  0.00000000E+00
  0.00000000E+00  0.00000000E+00  0.00000000E+00
  0.00000000E+00  0.00000000E+00  0.00000000E+00
  0.00000000E+00  0.00000000E+00  0.00000000E+00
  0.00000000E+00  0.00000000E+00  0.00000000E+00
  0.00000000E+00  0.00000000E+00  0.00000000E+00
  0.00000000E+00  0.00000000E+00  0.00000000E+00
  0.00000000E+00  0.00000000E+00  0.00000000E+00
  0.00000000E+00  0.00000000E+00  0.00000000E+00
  0.00000000E+00  0.00000000E+00  0.00000000E+00
  0.00000000E+00  0.00000000E+00  0.00000000E+00
  0.00000000E+00  0.00000000E+00  0.00000000E+00
  0.00000000E+00  0.00000000E+00  0.00000000E+00
  0.00000000E+00  0.00000000E+00  0.00000000E+00
  0.00000000E+00  0.00000000E+00  0.00000000E+00
  0.00000000E+00  0.00000000E+00  0.00000000E+00
  0.00000000E+00  0.00000000E+00  0.00000000E+00
  0.00000000E+00  0.00000000E+00  0.00000000E+00
  0.00000000E+00  0.00000000E+00  0.00000000E+00
  0.00000000E+00  0.00000000E+00  0.00000000E+00
  0.00000000E+00  0.00000000E+00  0.00000000E+00
  0.00000000E+00  0.00000000E+00  0.00000000E+00
  0.00000000E+00  0.00000000E+00  0.00000000E+00
  0.00000000E+00  0.00000000E+00  0.00000000E+00
  0.00000000E+00  0.00000000E+00  0.00000000E+00
  0.00000000E+00  0.00000000E+00  0.00000000E+00
  0.00000000E+00  0.00000000E+00  0.00000000E+00
  0.00000000E+00  0.00000000E+00  0.00000000E+00
  0.00000000E+00  0.00000000E+00  0.00000000E+00
  0.00000000E+00  0.00000000E+00  0.00000000E+00
  0.00000000E+00  0.00000000E+00  0.00000000E+00
  0.00000000E+00  0.00000000E+00  0.00000000E+00
  0.00000000E+00  0.00000000E+00  0.00000000E+00
  0.00000000E+00  0.00000000E+00  0.00000000E+00
  0.00000000E+00  0.00000000E+00  0.00000000E+00
  0.00000000E+00  0.00000000E+00  0.00000000E+00
  0.00000000E+00  0.00000000E+00  0.00000000E+00
  0.00000000E+00  0.00000000E+00  0.00000000E+00
  0.00000000E+00  0.00000000E+00  0.00000000E+00
  0.00000000E+00  0.00000000E+00  0.00000000E+00
  0.00000000E+00  0.00000000E+00  0.00000000E+00
  0.00000000E+00  0.00000000E+00  0.00000000E+00
  0.00000000E+00  0.00000000E+00  0.00000000E+00
  0.00000000E+00  0.00000000E+00  0.00000000E+00
  0.00000000E+00  0.00000000E+00  0.00000000E+00
  0.00000000E+00  0.00000000E+00  0.00000000E+00
  0.00000000E+00  0.00000000E+00  0.00000000E+00
  0.00000000E+00  0.00000000E+00  0.00000000E+00
  0.00000000E+00  0.00000000E+00  0.00000000E+00
  0.00000000E+00  0.00000000E+00  0.00000000E+00
  0.00000000E+00  0.00000000E+00  0.00000000E+00
  0.00000000E+00  0.00000000E+00  0.00000000E+00
  0.00000000E+00  0.00000000E+00  0.00000000E+00
  0.00000000E+00  0.00000000E+00  0.00000000E+00
  0.00000000E+00  0.00000000E+00  0.00000000E+00
  0.00000000E+00  0.00000000E+00  0.00000000E+00
  0.00000000E+00  0.00000000E+00  0.00000000E+00
  0.00000000E+00  0.00000000E+00  0.00000000E+00
  0.00000000E+00  0.00000000E+00  0.00000000E+00
