Bi La Sn H                              
   1.00000000000000     
    29.0000000000000000    0.0000000000000000    0.0000000000000000
     0.2488180851000000   28.9989325590000000    0.0000000000000000
    -0.0631677343000000   -0.4515975666000000   28.9964147692999994
   Bi   La   Sn   H 
    22    23    23     1
Selective dynamics
Direct
  0.7584337013721926  0.4789529883475896  0.3993124562513947   T   T   T
  0.6464538112078865  0.6848562890273869  0.5517125568948754   T   T   T
  0.3587270393198813  0.4584011984048733  0.4296459555300712   T   T   T
  0.5499154652539990  0.7130637414733424  0.5851384745647195   T   T   T
  0.5915029568994470  0.5209714444905416  0.5841479689498996   F   F   F
  0.6398762855145580  0.6801527686798630  0.4452663230893008   T   T   T
  0.6978292750677233  0.5231606567718310  0.6534036006489664   T   T   T
  0.4858763519332722  0.7004560529481142  0.5010328997555736   T   T   T
  0.5004839460855024  0.5502791173970252  0.5477141156400123   F   F   F
  0.3247229312307403  0.4872250113531890  0.5736172105993163   T   T   T
  0.3822789259217717  0.6107199113458970  0.5355233572482702   T   T   T
  0.6667129484492236  0.4827404655721850  0.5105018184570156   F   F   F
  0.5763997220267569  0.4263140504383500  0.5448328182496311   F   F   F
  0.6684190845940164  0.3743818941300617  0.5069852311427714   T   T   T
  0.4629953497459969  0.3383386523618187  0.5002165623652802   T   T   T
  0.6484934028780529  0.5775373212088155  0.4602701624361103   F   F   F
  0.5572601111762160  0.4496090536700804  0.7511424885421714   T   T   T
  0.6052309571930368  0.3511946916076635  0.6683121201604041   T   T   T
  0.4916608565152663  0.2998475700847383  0.4097836517695133   T   T   T
  0.6605713448122288  0.6191486069603995  0.6655753080101657   T   T   T
  0.4925056570554378  0.4091266457358083  0.3086508978698570   T   T   T
  0.6215904678587185  0.3162664284374950  0.5728912476498410   T   T   T
  0.5376454171365391  0.6833327736815484  0.4052196532986738   T   T   T
  0.3906870277844099  0.4151133519153563  0.5291218784197056   T   T   T
  0.6281083252624178  0.5526341572465632  0.2829838000369936   T   T   T
  0.4693315417549427  0.4687125009134886  0.6912570081188941   T   T   T
  0.5683115009887700  0.5094300495444983  0.4784716241115703   F   F   F
  0.4203210565129183  0.5084107200613417  0.5018573595042781   F   F   F
  0.4509970752406270  0.4009523545261394  0.4075950813958548   T   T   T
  0.5649191279071138  0.3481389080489977  0.3558078793377651   T   T   T
  0.4110261510906077  0.5404035744327403  0.6097281996101833   T   T   T
  0.5983738614009972  0.4422943278691029  0.3043293822790975   T   T   T
  0.4549762496171114  0.5996401242929225  0.3634727777648600   T   T   T
  0.4180138155262770  0.4857615396190939  0.3409736395244451   T   T   T
  0.6614745664467827  0.4297043353254522  0.6047840861042838   T   T   T
  0.6731086422254039  0.5789084751350509  0.5636668975830492   T   T   T
  0.5258788161488772  0.5095434576246940  0.3278323833529739   T   T   T
  0.5652229344189142  0.3570726632306381  0.4696302497918380   T   T   T
  0.3152119341398867  0.5429962931004596  0.4908853582736555   T   T   T
  0.6598407629639215  0.4294843061200406  0.4157901911616472   T   T   T
  0.5660841929594156  0.6261437171197244  0.5094829013827464   F   F   F
  0.5985254886778174  0.5302722758337272  0.6893729859610018   T   T   T
  0.4699623688368317  0.6407249584272724  0.5897917101813510   T   T   T
  0.4624715830822576  0.6031475052272334  0.4638092588567740   T   T   T
  0.7158097635234077  0.5745707995247339  0.3828128359367299   T   T   T
  0.5499310510395361  0.5822218838566187  0.4076968008106903   F   F   F
  0.4794126430662260  0.5072205383607624  0.4190535757241776   F   F   F
  0.6946082559231178  0.4802453148390227  0.3243908311566235   T   T   T
  0.7516987108737239  0.4297359914266410  0.4881311615074287   T   T   T
  0.7481417898506887  0.5389888510733666  0.4853428527747221   T   T   T
  0.7497412075521502  0.4911386789713122  0.5723103461264147   T   T   T
  0.6484020976425690  0.4371402087939705  0.7095348108392753   T   T   T
  0.5765056152890004  0.7426512149830585  0.4935159066197761   T   T   T
  0.6192554540844384  0.5183157687966542  0.3801816896793397   F   F   F
  0.5059583219151049  0.5572938478609313  0.6504535703533758   T   T   T
  0.4922009500451665  0.4366758245867572  0.4933013002826740   F   F   F
  0.5608844484509063  0.4404139570509003  0.6454865549417619   F   F   F
  0.5769171034808772  0.6162963511656051  0.6138883551116139   T   T   T
  0.5435368109887195  0.6179616021768531  0.3121582800838588   T   T   T
  0.6262923629621066  0.6257812645205484  0.3604781820415934   T   T   T
  0.3768771036294953  0.5564650243396679  0.4121461593143410   T   T   T
  0.4723078164089713  0.4557257050327763  0.5877273803360978   F   F   F
  0.7270298268983504  0.6355785025525370  0.4847625809094637   T   T   T
  0.5058982773096874  0.3684721518790138  0.6885124271866783   T   T   T
  0.3793159698651210  0.4424260098319653  0.6401256189446337   T   T   T
  0.5544592502646992  0.4379899399457940  0.4037542370104745   F   F   F
  0.4360178766258189  0.3658675499743761  0.6148296988499384   T   T   T
  0.5278021580647561  0.3489882264767965  0.5804997422190984   T   T   T
  0.5646970911460152  0.4096304661464029  0.7977617592260792   T   T   T
 
  0.00000000E+00  0.00000000E+00  0.00000000E+00
  0.00000000E+00  0.00000000E+00  0.00000000E+00
  0.00000000E+00  0.00000000E+00  0.00000000E+00
  0.00000000E+00  0.00000000E+00  0.00000000E+00
  0.00000000E+00  0.00000000E+00  0.00000000E+00
  0.00000000E+00  0.00000000E+00  0.00000000E+00
  0.00000000E+00  0.00000000E+00  0.00000000E+00
  0.00000000E+00  0.00000000E+00  0.00000000E+00
  0.00000000E+00  0.00000000E+00  0.00000000E+00
  0.00000000E+00  0.00000000E+00  0.00000000E+00
  0.00000000E+00  0.00000000E+00  0.00000000E+00
  0.00000000E+00  0.00000000E+00  0.00000000E+00
  0.00000000E+00  0.00000000E+00  0.00000000E+00
  0.00000000E+00  0.00000000E+00  0.00000000E+00
  0.00000000E+00  0.00000000E+00  0.00000000E+00
  0.00000000E+00  0.00000000E+00  0.00000000E+00
  0.00000000E+00  0.00000000E+00  0.00000000E+00
  0.00000000E+00  0.00000000E+00  0.00000000E+00
  0.00000000E+00  0.00000000E+00  0.00000000E+00
  0.00000000E+00  0.00000000E+00  0.00000000E+00
  0.00000000E+00  0.00000000E+00  0.00000000E+00
  0.00000000E+00  0.00000000E+00  0.00000000E+00
  0.00000000E+00  0.00000000E+00  0.00000000E+00
  0.00000000E+00  0.00000000E+00  0.00000000E+00
  0.00000000E+00  0.00000000E+00  0.00000000E+00
  0.00000000E+00  0.00000000E+00  0.00000000E+00
  0.00000000E+00  0.00000000E+00  0.00000000E+00
  0.00000000E+00  0.00000000E+00  0.00000000E+00
  0.00000000E+00  0.00000000E+00  0.00000000E+00
  0.00000000E+00  0.00000000E+00  0.00000000E+00
  0.00000000E+00  0.00000000E+00  0.00000000E+00
  0.00000000E+00  0.00000000E+00  0.00000000E+00
  0.00000000E+00  0.00000000E+00  0.00000000E+00
  0.00000000E+00  0.00000000E+00  0.00000000E+00
  0.00000000E+00  0.00000000E+00  0.00000000E+00
  0.00000000E+00  0.00000000E+00  0.00000000E+00
  0.00000000E+00  0.00000000E+00  0.00000000E+00
  0.00000000E+00  0.00000000E+00  0.00000000E+00
  0.00000000E+00  0.00000000E+00  0.00000000E+00
  0.00000000E+00  0.00000000E+00  0.00000000E+00
  0.00000000E+00  0.00000000E+00  0.00000000E+00
  0.00000000E+00  0.00000000E+00  0.00000000E+00
  0.00000000E+00  0.00000000E+00  0.00000000E+00
  0.00000000E+00  0.00000000E+00  0.00000000E+00
  0.00000000E+00  0.00000000E+00  0.00000000E+00
  0.00000000E+00  0.00000000E+00  0.00000000E+00
  0.00000000E+00  0.00000000E+00  0.00000000E+00
  0.00000000E+00  0.00000000E+00  0.00000000E+00
  0.00000000E+00  0.00000000E+00  0.00000000E+00
  0.00000000E+00  0.00000000E+00  0.00000000E+00
  0.00000000E+00  0.00000000E+00  0.00000000E+00
  0.00000000E+00  0.00000000E+00  0.00000000E+00
  0.00000000E+00  0.00000000E+00  0.00000000E+00
  0.00000000E+00  0.00000000E+00  0.00000000E+00
  0.00000000E+00  0.00000000E+00  0.00000000E+00
  0.00000000E+00  0.00000000E+00  0.00000000E+00
  0.00000000E+00  0.00000000E+00  0.00000000E+00
  0.00000000E+00  0.00000000E+00  0.00000000E+00
  0.00000000E+00  0.00000000E+00  0.00000000E+00
  0.00000000E+00  0.00000000E+00  0.00000000E+00
  0.00000000E+00  0.00000000E+00  0.00000000E+00
  0.00000000E+00  0.00000000E+00  0.00000000E+00
  0.00000000E+00  0.00000000E+00  0.00000000E+00
  0.00000000E+00  0.00000000E+00  0.00000000E+00
  0.00000000E+00  0.00000000E+00  0.00000000E+00
  0.00000000E+00  0.00000000E+00  0.00000000E+00
  0.00000000E+00  0.00000000E+00  0.00000000E+00
  0.00000000E+00  0.00000000E+00  0.00000000E+00
  0.00000000E+00  0.00000000E+00  0.00000000E+00
