Bi La Sn H                              
   1.00000000000000     
    29.0000000000000000    0.0000000000000000    0.0000000000000000
     0.2488180851000000   28.9989325590000000    0.0000000000000000
    -0.0631677343000000   -0.4515975666000000   28.9964147692999994
   Bi   La   Sn   H 
    22    23    23     1
Selective dynamics
Direct
  0.7585180362640800  0.4791564358412051  0.3997539110973614   T   T   T
  0.6466153702126684  0.6849566690185149  0.5515040526293439   T   T   T
  0.3604643774373918  0.4575371832809019  0.4287114966798500   T   T   T
  0.5499280717969529  0.7128949631221841  0.5840390802374249   T   T   T
  0.5915029568994470  0.5209714444905416  0.5841479689498996   F   F   F
  0.6393610005750836  0.6797234644653456  0.4452891156480485   T   T   T
  0.6963609146640743  0.5231568883556355  0.6548875080828115   T   T   T
  0.4856790428698605  0.7007361301839087  0.4997245601752345   T   T   T
  0.5004839460855024  0.5502791173970252  0.5477141156400123   F   F   F
  0.3246994793823605  0.4867424534034137  0.5747334517175225   T   T   T
  0.3815537659170321  0.6112084738485339  0.5345469282925964   T   T   T
  0.6667129484492236  0.4827404655721850  0.5105018184570156   F   F   F
  0.5763997220267569  0.4263140504383500  0.5448328182496311   F   F   F
  0.6712254225122858  0.3739845951824614  0.5055125698430916   T   T   T
  0.4601644606122702  0.3377133641814962  0.4968035687770121   T   T   T
  0.6484934028780529  0.5775373212088155  0.4602701624361103   F   F   F
  0.5602656085027119  0.4360565194316208  0.7492424199850162   T   T   T
  0.6048737080980120  0.3542162909708941  0.6746630197687110   T   T   T
  0.4922745448014301  0.2981851919991282  0.4093972547072208   T   T   T
  0.6596652096072131  0.6190815448443721  0.6659532146658175   T   T   T
  0.4926114217936184  0.4093227613684247  0.3062199692045484   T   T   T
  0.6147794886482352  0.3254055090075917  0.5733592300166607   T   T   T
  0.5379156183030697  0.6833515885483472  0.4044034213117006   T   T   T
  0.3904633967261508  0.4158080729867391  0.5287402169716732   T   T   T
  0.6279121273915640  0.5520464033579590  0.2826749512889409   T   T   T
  0.4719647371630130  0.4701652589471079  0.6924262169451710   T   T   T
  0.5683115009887700  0.5094300495444983  0.4784716241115703   F   F   F
  0.4203210565129183  0.5084107200613417  0.5018573595042781   F   F   F
  0.4524530446089617  0.4007977662562516  0.4062453844893849   T   T   T
  0.5638210731303402  0.3484149447123812  0.3550183699200410   T   T   T
  0.4109152264762101  0.5411221230782667  0.6089055879278907   T   T   T
  0.5992181065618936  0.4415303399010423  0.3043516293024956   T   T   T
  0.4549810841917554  0.5997110115624978  0.3635444445643298   T   T   T
  0.4188244583640499  0.4864378303833810  0.3396076197123296   T   T   T
  0.6613848786942238  0.4293476925598168  0.6045791126231933   T   T   T
  0.6728303968752942  0.5789869257824021  0.5639170561828410   T   T   T
  0.5261084643306730  0.5090690595381929  0.3279331716286134   T   T   T
  0.5654549853240166  0.3574885455940184  0.4686423502307425   T   T   T
  0.3158855943538936  0.5414823106632327  0.4908982882525073   T   T   T
  0.6597855954259713  0.4295652319700495  0.4152582974109203   T   T   T
  0.5660841929594156  0.6261437171197244  0.5094829013827464   F   F   F
  0.5959174218916478  0.5292079491004912  0.6897782351488523   T   T   T
  0.4695937582846064  0.6412876668238990  0.5884664647047156   T   T   T
  0.4623876910444409  0.6030133439737522  0.4638490735753034   T   T   T
  0.7158736783087719  0.5747574175965744  0.3827077558470693   T   T   T
  0.5499310510395361  0.5822218838566187  0.4076968008106903   F   F   F
  0.4794126430662260  0.5072205383607624  0.4190535757241776   F   F   F
  0.6951609320692207  0.4808413913655876  0.3240088538559908   T   T   T
  0.7533762847521648  0.4303625174878709  0.4887495170277639   T   T   T
  0.7480813880280289  0.5392233998275121  0.4852508696825912   T   T   T
  0.7483974305138419  0.4922188491909698  0.5728135352721868   T   T   T
  0.6510179850285989  0.4396056079030137  0.7093967864782562   T   T   T
  0.5761170958535132  0.7431198391164141  0.4927277505947020   T   T   T
  0.6192554540844384  0.5183157687966542  0.3801816896793397   F   F   F
  0.5045422409586678  0.5592804491475502  0.6504973724670121   T   T   T
  0.4922009500451665  0.4366758245867572  0.4933013002826740   F   F   F
  0.5608844484509063  0.4404139570509003  0.6454865549417619   F   F   F
  0.5766236326253077  0.6158105716565501  0.6137120545970632   T   T   T
  0.5432552729207902  0.6170541157289885  0.3117052009548768   T   T   T
  0.6260415043847999  0.6252935183506313  0.3601474294835520   T   T   T
  0.3766928735362052  0.5561144311082331  0.4117343288797985   T   T   T
  0.4723078164089713  0.4557257050327763  0.5877273803360978   F   F   F
  0.7267980062742170  0.6358117300501550  0.4847816414497074   T   T   T
  0.5041768332807722  0.3682462145997669  0.6850342051806105   T   T   T
  0.3800248497485827  0.4448820844746619  0.6426189744255371   T   T   T
  0.5544592502646992  0.4379899399457940  0.4037542370104745   F   F   F
  0.4279889969647347  0.3648344278764822  0.6164441999252831   T   T   T
  0.5178666687465477  0.3545839147392807  0.5781338610669355   T   T   T
  0.6395931273696586  0.2691120936159210  0.5893878543346752   T   T   T
 
  0.00000000E+00  0.00000000E+00  0.00000000E+00
  0.00000000E+00  0.00000000E+00  0.00000000E+00
  0.00000000E+00  0.00000000E+00  0.00000000E+00
  0.00000000E+00  0.00000000E+00  0.00000000E+00
  0.00000000E+00  0.00000000E+00  0.00000000E+00
  0.00000000E+00  0.00000000E+00  0.00000000E+00
  0.00000000E+00  0.00000000E+00  0.00000000E+00
  0.00000000E+00  0.00000000E+00  0.00000000E+00
  0.00000000E+00  0.00000000E+00  0.00000000E+00
  0.00000000E+00  0.00000000E+00  0.00000000E+00
  0.00000000E+00  0.00000000E+00  0.00000000E+00
  0.00000000E+00  0.00000000E+00  0.00000000E+00
  0.00000000E+00  0.00000000E+00  0.00000000E+00
  0.00000000E+00  0.00000000E+00  0.00000000E+00
  0.00000000E+00  0.00000000E+00  0.00000000E+00
  0.00000000E+00  0.00000000E+00  0.00000000E+00
  0.00000000E+00  0.00000000E+00  0.00000000E+00
  0.00000000E+00  0.00000000E+00  0.00000000E+00
  0.00000000E+00  0.00000000E+00  0.00000000E+00
  0.00000000E+00  0.00000000E+00  0.00000000E+00
  0.00000000E+00  0.00000000E+00  0.00000000E+00
  0.00000000E+00  0.00000000E+00  0.00000000E+00
  0.00000000E+00  0.00000000E+00  0.00000000E+00
  0.00000000E+00  0.00000000E+00  0.00000000E+00
  0.00000000E+00  0.00000000E+00  0.00000000E+00
  0.00000000E+00  0.00000000E+00  0.00000000E+00
  0.00000000E+00  0.00000000E+00  0.00000000E+00
  0.00000000E+00  0.00000000E+00  0.00000000E+00
  0.00000000E+00  0.00000000E+00  0.00000000E+00
  0.00000000E+00  0.00000000E+00  0.00000000E+00
  0.00000000E+00  0.00000000E+00  0.00000000E+00
  0.00000000E+00  0.00000000E+00  0.00000000E+00
  0.00000000E+00  0.00000000E+00  0.00000000E+00
  0.00000000E+00  0.00000000E+00  0.00000000E+00
  0.00000000E+00  0.00000000E+00  0.00000000E+00
  0.00000000E+00  0.00000000E+00  0.00000000E+00
  0.00000000E+00  0.00000000E+00  0.00000000E+00
  0.00000000E+00  0.00000000E+00  0.00000000E+00
  0.00000000E+00  0.00000000E+00  0.00000000E+00
  0.00000000E+00  0.00000000E+00  0.00000000E+00
  0.00000000E+00  0.00000000E+00  0.00000000E+00
  0.00000000E+00  0.00000000E+00  0.00000000E+00
  0.00000000E+00  0.00000000E+00  0.00000000E+00
  0.00000000E+00  0.00000000E+00  0.00000000E+00
  0.00000000E+00  0.00000000E+00  0.00000000E+00
  0.00000000E+00  0.00000000E+00  0.00000000E+00
  0.00000000E+00  0.00000000E+00  0.00000000E+00
  0.00000000E+00  0.00000000E+00  0.00000000E+00
  0.00000000E+00  0.00000000E+00  0.00000000E+00
  0.00000000E+00  0.00000000E+00  0.00000000E+00
  0.00000000E+00  0.00000000E+00  0.00000000E+00
  0.00000000E+00  0.00000000E+00  0.00000000E+00
  0.00000000E+00  0.00000000E+00  0.00000000E+00
  0.00000000E+00  0.00000000E+00  0.00000000E+00
  0.00000000E+00  0.00000000E+00  0.00000000E+00
  0.00000000E+00  0.00000000E+00  0.00000000E+00
  0.00000000E+00  0.00000000E+00  0.00000000E+00
  0.00000000E+00  0.00000000E+00  0.00000000E+00
  0.00000000E+00  0.00000000E+00  0.00000000E+00
  0.00000000E+00  0.00000000E+00  0.00000000E+00
  0.00000000E+00  0.00000000E+00  0.00000000E+00
  0.00000000E+00  0.00000000E+00  0.00000000E+00
  0.00000000E+00  0.00000000E+00  0.00000000E+00
  0.00000000E+00  0.00000000E+00  0.00000000E+00
  0.00000000E+00  0.00000000E+00  0.00000000E+00
  0.00000000E+00  0.00000000E+00  0.00000000E+00
  0.00000000E+00  0.00000000E+00  0.00000000E+00
  0.00000000E+00  0.00000000E+00  0.00000000E+00
  0.00000000E+00  0.00000000E+00  0.00000000E+00
