Bi La Sn H                              
   1.00000000000000     
    29.0000000000000000    0.0000000000000000    0.0000000000000000
     0.2488180851000000   28.9989325590000000    0.0000000000000000
    -0.0631677343000000   -0.4515975666000000   28.9964147692999994
   Bi   La   Sn   H 
    22    23    23     1
Selective dynamics
Direct
  0.7593933301235196  0.4789472397685085  0.3979823919947558   T   T   T
  0.6464485373408776  0.6856694819806046  0.5511752267486137   T   T   T
  0.3598186517162015  0.4578147503304622  0.4289044400403064   T   T   T
  0.5495596037332885  0.7134059205583545  0.5842025820385057   T   T   T
  0.5915029568994470  0.5209714444905416  0.5841479689498996   F   F   F
  0.6397430120387337  0.6797806611109876  0.4449805372835203   T   T   T
  0.6910398215919649  0.5213422019593729  0.6496726716966242   T   T   T
  0.4863844366624126  0.7009660496701193  0.4989121142868614   T   T   T
  0.5004839460855024  0.5502791173970252  0.5477141156400123   F   F   F
  0.3249019785517686  0.4861057215621610  0.5747118551960071   T   T   T
  0.3812452176449176  0.6102471692517561  0.5350344338277615   T   T   T
  0.6667129484492236  0.4827404655721850  0.5105018184570156   F   F   F
  0.5763997220267569  0.4263140504383500  0.5448328182496311   F   F   F
  0.6692664316450648  0.3730399542657731  0.5057142729624857   T   T   T
  0.4638690486597881  0.3390358121026433  0.5003084139798238   T   T   T
  0.6484934028780529  0.5775373212088155  0.4602701624361103   F   F   F
  0.5579235927144442  0.4359350725929482  0.7497896053448051   T   T   T
  0.6036744125772263  0.3509504672568577  0.6695983184498817   T   T   T
  0.4927773707050001  0.2990047661604581  0.4107615827853028   T   T   T
  0.6583293288490134  0.6184822452710079  0.6669813179842495   T   T   T
  0.4918926374391377  0.4096389216003843  0.3068386002101348   T   T   T
  0.6216330023365583  0.3160985598937791  0.5730159146607002   T   T   T
  0.5384961879196430  0.6833585670434179  0.4041506970233785   T   T   T
  0.3906890329439778  0.4152175986986141  0.5281626078854208   T   T   T
  0.6280049802654458  0.5520696088996797  0.2825995985571033   T   T   T
  0.4715827076389182  0.4711753729814410  0.6915827384141819   T   T   T
  0.5683115009887700  0.5094300495444983  0.4784716241115703   F   F   F
  0.4203210565129183  0.5084107200613417  0.5018573595042781   F   F   F
  0.4522295219386963  0.4005024194750794  0.4069012398638711   T   T   T
  0.5636908017234669  0.3484439694126390  0.3545568087815610   T   T   T
  0.4106878857012198  0.5403086251427923  0.6096477867818632   T   T   T
  0.5987755632121335  0.4415445788267005  0.3043697592475331   T   T   T
  0.4547934155701790  0.5996484153977664  0.3634700074989530   T   T   T
  0.4181696287329812  0.4864465832301165  0.3402362722100448   T   T   T
  0.6607529680102224  0.4249091992752362  0.6038962233276294   T   T   T
  0.6726399214226908  0.5802366080623981  0.5632269244820902   T   T   T
  0.5261629211704575  0.5091493722168943  0.3280224296058986   T   T   T
  0.5664439976534348  0.3574550540489768  0.4691593555205366   T   T   T
  0.3152226749154819  0.5411468190647740  0.4910733699357181   T   T   T
  0.6602381160712949  0.4297315257097276  0.4151804654106985   T   T   T
  0.5660841929594156  0.6261437171197244  0.5094829013827464   F   F   F
  0.5935435279271183  0.5285971752356111  0.6916234303623275   T   T   T
  0.4692168196206621  0.6416854458180985  0.5876345076851485   T   T   T
  0.4621242068644177  0.6031730570277744  0.4637343504271789   T   T   T
  0.7155168991121684  0.5740333462626295  0.3825559488460477   T   T   T
  0.5499310510395361  0.5822218838566187  0.4076968008106903   F   F   F
  0.4794126430662260  0.5072205383607624  0.4190535757241776   F   F   F
  0.6948042198818732  0.4801304729997252  0.3235242424561440   T   T   T
  0.7512915794616204  0.4289107401715712  0.4860336554375733   T   T   T
  0.7479856944144567  0.5386201892370377  0.4849228506568083   T   T   T
  0.7496816422554062  0.4879685510702387  0.5704591104942494   T   T   T
  0.6478977480100091  0.4372721677522207  0.7086891258099145   T   T   T
  0.5770387690917526  0.7433549864584194  0.4928678751824816   T   T   T
  0.6192554540844384  0.5183157687966542  0.3801816896793397   F   F   F
  0.5043075599560589  0.5607892755609319  0.6502366338426149   T   T   T
  0.4922009500451665  0.4366758245867572  0.4933013002826740   F   F   F
  0.5608844484509063  0.4404139570509003  0.6454865549417619   F   F   F
  0.5764430136356445  0.6165036180665792  0.6135482165973656   T   T   T
  0.5432836099181240  0.6169100178754675  0.3116245047435132   T   T   T
  0.6260256112821685  0.6252844307134411  0.3599493905661579   T   T   T
  0.3765332803066712  0.5564486297420601  0.4122347617234471   T   T   T
  0.4723078164089713  0.4557257050327763  0.5877273803360978   F   F   F
  0.7269291494722088  0.6355719898251957  0.4842274901247145   T   T   T
  0.5040165914504344  0.3682063770533114  0.6857076445079501   T   T   T
  0.3809958383885257  0.4421451738774383  0.6409753235129733   T   T   T
  0.5544592502646992  0.4379899399457940  0.4037542370104745   F   F   F
  0.4344889248231759  0.3647475042233466  0.6120115263054513   T   T   T
  0.5283103578042256  0.3493195993824508  0.5804905512487921   T   T   T
  0.7380770362126191  0.5245948480940177  0.6911542033964758   T   T   T
 
  0.00000000E+00  0.00000000E+00  0.00000000E+00
  0.00000000E+00  0.00000000E+00  0.00000000E+00
  0.00000000E+00  0.00000000E+00  0.00000000E+00
  0.00000000E+00  0.00000000E+00  0.00000000E+00
  0.00000000E+00  0.00000000E+00  0.00000000E+00
  0.00000000E+00  0.00000000E+00  0.00000000E+00
  0.00000000E+00  0.00000000E+00  0.00000000E+00
  0.00000000E+00  0.00000000E+00  0.00000000E+00
  0.00000000E+00  0.00000000E+00  0.00000000E+00
  0.00000000E+00  0.00000000E+00  0.00000000E+00
  0.00000000E+00  0.00000000E+00  0.00000000E+00
  0.00000000E+00  0.00000000E+00  0.00000000E+00
  0.00000000E+00  0.00000000E+00  0.00000000E+00
  0.00000000E+00  0.00000000E+00  0.00000000E+00
  0.00000000E+00  0.00000000E+00  0.00000000E+00
  0.00000000E+00  0.00000000E+00  0.00000000E+00
  0.00000000E+00  0.00000000E+00  0.00000000E+00
  0.00000000E+00  0.00000000E+00  0.00000000E+00
  0.00000000E+00  0.00000000E+00  0.00000000E+00
  0.00000000E+00  0.00000000E+00  0.00000000E+00
  0.00000000E+00  0.00000000E+00  0.00000000E+00
  0.00000000E+00  0.00000000E+00  0.00000000E+00
  0.00000000E+00  0.00000000E+00  0.00000000E+00
  0.00000000E+00  0.00000000E+00  0.00000000E+00
  0.00000000E+00  0.00000000E+00  0.00000000E+00
  0.00000000E+00  0.00000000E+00  0.00000000E+00
  0.00000000E+00  0.00000000E+00  0.00000000E+00
  0.00000000E+00  0.00000000E+00  0.00000000E+00
  0.00000000E+00  0.00000000E+00  0.00000000E+00
  0.00000000E+00  0.00000000E+00  0.00000000E+00
  0.00000000E+00  0.00000000E+00  0.00000000E+00
  0.00000000E+00  0.00000000E+00  0.00000000E+00
  0.00000000E+00  0.00000000E+00  0.00000000E+00
  0.00000000E+00  0.00000000E+00  0.00000000E+00
  0.00000000E+00  0.00000000E+00  0.00000000E+00
  0.00000000E+00  0.00000000E+00  0.00000000E+00
  0.00000000E+00  0.00000000E+00  0.00000000E+00
  0.00000000E+00  0.00000000E+00  0.00000000E+00
  0.00000000E+00  0.00000000E+00  0.00000000E+00
  0.00000000E+00  0.00000000E+00  0.00000000E+00
  0.00000000E+00  0.00000000E+00  0.00000000E+00
  0.00000000E+00  0.00000000E+00  0.00000000E+00
  0.00000000E+00  0.00000000E+00  0.00000000E+00
  0.00000000E+00  0.00000000E+00  0.00000000E+00
  0.00000000E+00  0.00000000E+00  0.00000000E+00
  0.00000000E+00  0.00000000E+00  0.00000000E+00
  0.00000000E+00  0.00000000E+00  0.00000000E+00
  0.00000000E+00  0.00000000E+00  0.00000000E+00
  0.00000000E+00  0.00000000E+00  0.00000000E+00
  0.00000000E+00  0.00000000E+00  0.00000000E+00
  0.00000000E+00  0.00000000E+00  0.00000000E+00
  0.00000000E+00  0.00000000E+00  0.00000000E+00
  0.00000000E+00  0.00000000E+00  0.00000000E+00
  0.00000000E+00  0.00000000E+00  0.00000000E+00
  0.00000000E+00  0.00000000E+00  0.00000000E+00
  0.00000000E+00  0.00000000E+00  0.00000000E+00
  0.00000000E+00  0.00000000E+00  0.00000000E+00
  0.00000000E+00  0.00000000E+00  0.00000000E+00
  0.00000000E+00  0.00000000E+00  0.00000000E+00
  0.00000000E+00  0.00000000E+00  0.00000000E+00
  0.00000000E+00  0.00000000E+00  0.00000000E+00
  0.00000000E+00  0.00000000E+00  0.00000000E+00
  0.00000000E+00  0.00000000E+00  0.00000000E+00
  0.00000000E+00  0.00000000E+00  0.00000000E+00
  0.00000000E+00  0.00000000E+00  0.00000000E+00
  0.00000000E+00  0.00000000E+00  0.00000000E+00
  0.00000000E+00  0.00000000E+00  0.00000000E+00
  0.00000000E+00  0.00000000E+00  0.00000000E+00
  0.00000000E+00  0.00000000E+00  0.00000000E+00
