Bi La Sn H                              
   1.00000000000000     
    29.0000000000000000    0.0000000000000000    0.0000000000000000
     0.2488180851000000   28.9989325590000000    0.0000000000000000
    -0.0631677343000000   -0.4515975666000000   28.9964147692999994
   Bi   La   Sn   H 
    22    23    23     1
Selective dynamics
Direct
  0.7580466907685901  0.4780206965264887  0.3996658540881011   T   T   T
  0.6466574269021812  0.6838589124331956  0.5524667252682892   T   T   T
  0.3572660272119800  0.4584464243212816  0.4295610437683930   T   T   T
  0.5504702070646235  0.7131403619887476  0.5844877432284559   T   T   T
  0.5915029568994470  0.5209714444905416  0.5841479689498996   F   F   F
  0.6405126770601414  0.6803768113278109  0.4462794480218688   T   T   T
  0.6957782975686649  0.5214788820052708  0.6546533085803005   T   T   T
  0.4861222832916366  0.7007984694171135  0.5000683743778972   T   T   T
  0.5004839460855024  0.5502791173970252  0.5477141156400123   F   F   F
  0.3243843249538480  0.4872397044421964  0.5739817371630593   T   T   T
  0.3824567025631385  0.6115152861153612  0.5343191404683917   T   T   T
  0.6667129484492236  0.4827404655721850  0.5105018184570156   F   F   F
  0.5763997220267569  0.4263140504383500  0.5448328182496311   F   F   F
  0.6691384193900359  0.3731149475736637  0.5061409512427782   T   T   T
  0.4627308687319067  0.3379743438918884  0.4994949951874065   T   T   T
  0.6484934028780529  0.5775373212088155  0.4602701624361103   F   F   F
  0.5572641015558834  0.4372867286510962  0.7498566770627362   T   T   T
  0.6040560101813413  0.3511839211854271  0.6689684249532578   T   T   T
  0.4966681933962491  0.3025508096148049  0.4040844167272896   T   T   T
  0.6601293824475548  0.6183958461825210  0.6658920385851314   T   T   T
  0.4972348339358431  0.4075827191429839  0.3157529533648111   T   T   T
  0.6205286335197090  0.3166343467449272  0.5725940704234672   T   T   T
  0.5386988225474232  0.6835029855589846  0.4049617507636306   T   T   T
  0.3906055362568739  0.4158429960368853  0.5279842899557007   T   T   T
  0.6300328068829399  0.5533350137651966  0.2830347523800968   T   T   T
  0.4710863510069520  0.4706734727448170  0.6917750798631083   T   T   T
  0.5683115009887700  0.5094300495444983  0.4784716241115703   F   F   F
  0.4203210565129183  0.5084107200613417  0.5018573595042781   F   F   F
  0.4497520329967143  0.4008388290958401  0.4100106267490593   T   T   T
  0.5795807665915276  0.3485105541557821  0.3557375954712892   T   T   T
  0.4105902921852048  0.5410055957956770  0.6088058274697380   T   T   T
  0.5980761836178595  0.4443143316779297  0.3030985367704727   T   T   T
  0.4549938833768021  0.6000055190302335  0.3636881977168481   T   T   T
  0.4190358831179262  0.4845198807133440  0.3413006484646606   T   T   T
  0.6610321609969588  0.4284566246347399  0.6038481872424522   T   T   T
  0.6736823598449976  0.5782338185515823  0.5640005563239536   T   T   T
  0.5264163671316552  0.5109116459315749  0.3270747657462235   T   T   T
  0.5657340171235555  0.3563285124845108  0.4704063707863225   T   T   T
  0.3151314471569200  0.5433021378506935  0.4909937482416747   T   T   T
  0.6586137953143121  0.4289227448443744  0.4159984551749535   T   T   T
  0.5660841929594156  0.6261437171197244  0.5094829013827464   F   F   F
  0.5956693905154995  0.5289031689228072  0.6896223407466784   T   T   T
  0.4700245690910892  0.6415217974416774  0.5887445820793885   T   T   T
  0.4628389368780966  0.6029168524750864  0.4633984635102186   T   T   T
  0.7158242106956271  0.5740671950423499  0.3828100241755621   T   T   T
  0.5499310510395361  0.5822218838566187  0.4076968008106903   F   F   F
  0.4794126430662260  0.5072205383607624  0.4190535757241776   F   F   F
  0.6947045032819890  0.4792824617336148  0.3247480534585389   T   T   T
  0.7515039518475183  0.4297002586132362  0.4888865325212982   T   T   T
  0.7485972504353831  0.5380488650154863  0.4850323586651458   T   T   T
  0.7488313191262059  0.4915492938024699  0.5731746221512969   T   T   T
  0.6474949129211319  0.4368033841345850  0.7087741359102476   T   T   T
  0.5766703950727953  0.7431465985128670  0.4931272999561471   T   T   T
  0.6192554540844384  0.5183157687966542  0.3801816896793397   F   F   F
  0.5048076954329647  0.5590626391866691  0.6497433344723779   T   T   T
  0.4922009500451665  0.4366758245867572  0.4933013002826740   F   F   F
  0.5608844484509063  0.4404139570509003  0.6454865549417619   F   F   F
  0.5769564563768845  0.6162499863676216  0.6139307980070152   T   T   T
  0.5438780107480036  0.6179663887908611  0.3114769008445925   T   T   T
  0.6259813506805217  0.6256646931646891  0.3613362107932300   T   T   T
  0.3769786634869164  0.5558050047633959  0.4118086077221764   T   T   T
  0.4723078164089713  0.4557257050327763  0.5877273803360978   F   F   F
  0.7277830767418367  0.6344626791934181  0.4847296950520620   T   T   T
  0.5045787114794154  0.3682011502319952  0.6848018558446481   T   T   T
  0.3807341107362358  0.4431875813929546  0.6398567661029576   T   T   T
  0.5544592502646992  0.4379899399457940  0.4037542370104745   F   F   F
  0.4337139812220310  0.3645714825974522  0.6121504621263981   T   T   T
  0.5264376558341445  0.3502091799809251  0.5791210137392652   T   T   T
  0.5233914880916910  0.3013939112330922  0.3399938646833794   T   T   T
 
  0.00000000E+00  0.00000000E+00  0.00000000E+00
  0.00000000E+00  0.00000000E+00  0.00000000E+00
  0.00000000E+00  0.00000000E+00  0.00000000E+00
  0.00000000E+00  0.00000000E+00  0.00000000E+00
  0.00000000E+00  0.00000000E+00  0.00000000E+00
  0.00000000E+00  0.00000000E+00  0.00000000E+00
  0.00000000E+00  0.00000000E+00  0.00000000E+00
  0.00000000E+00  0.00000000E+00  0.00000000E+00
  0.00000000E+00  0.00000000E+00  0.00000000E+00
  0.00000000E+00  0.00000000E+00  0.00000000E+00
  0.00000000E+00  0.00000000E+00  0.00000000E+00
  0.00000000E+00  0.00000000E+00  0.00000000E+00
  0.00000000E+00  0.00000000E+00  0.00000000E+00
  0.00000000E+00  0.00000000E+00  0.00000000E+00
  0.00000000E+00  0.00000000E+00  0.00000000E+00
  0.00000000E+00  0.00000000E+00  0.00000000E+00
  0.00000000E+00  0.00000000E+00  0.00000000E+00
  0.00000000E+00  0.00000000E+00  0.00000000E+00
  0.00000000E+00  0.00000000E+00  0.00000000E+00
  0.00000000E+00  0.00000000E+00  0.00000000E+00
  0.00000000E+00  0.00000000E+00  0.00000000E+00
  0.00000000E+00  0.00000000E+00  0.00000000E+00
  0.00000000E+00  0.00000000E+00  0.00000000E+00
  0.00000000E+00  0.00000000E+00  0.00000000E+00
  0.00000000E+00  0.00000000E+00  0.00000000E+00
  0.00000000E+00  0.00000000E+00  0.00000000E+00
  0.00000000E+00  0.00000000E+00  0.00000000E+00
  0.00000000E+00  0.00000000E+00  0.00000000E+00
  0.00000000E+00  0.00000000E+00  0.00000000E+00
  0.00000000E+00  0.00000000E+00  0.00000000E+00
  0.00000000E+00  0.00000000E+00  0.00000000E+00
  0.00000000E+00  0.00000000E+00  0.00000000E+00
  0.00000000E+00  0.00000000E+00  0.00000000E+00
  0.00000000E+00  0.00000000E+00  0.00000000E+00
  0.00000000E+00  0.00000000E+00  0.00000000E+00
  0.00000000E+00  0.00000000E+00  0.00000000E+00
  0.00000000E+00  0.00000000E+00  0.00000000E+00
  0.00000000E+00  0.00000000E+00  0.00000000E+00
  0.00000000E+00  0.00000000E+00  0.00000000E+00
  0.00000000E+00  0.00000000E+00  0.00000000E+00
  0.00000000E+00  0.00000000E+00  0.00000000E+00
  0.00000000E+00  0.00000000E+00  0.00000000E+00
  0.00000000E+00  0.00000000E+00  0.00000000E+00
  0.00000000E+00  0.00000000E+00  0.00000000E+00
  0.00000000E+00  0.00000000E+00  0.00000000E+00
  0.00000000E+00  0.00000000E+00  0.00000000E+00
  0.00000000E+00  0.00000000E+00  0.00000000E+00
  0.00000000E+00  0.00000000E+00  0.00000000E+00
  0.00000000E+00  0.00000000E+00  0.00000000E+00
  0.00000000E+00  0.00000000E+00  0.00000000E+00
  0.00000000E+00  0.00000000E+00  0.00000000E+00
  0.00000000E+00  0.00000000E+00  0.00000000E+00
  0.00000000E+00  0.00000000E+00  0.00000000E+00
  0.00000000E+00  0.00000000E+00  0.00000000E+00
  0.00000000E+00  0.00000000E+00  0.00000000E+00
  0.00000000E+00  0.00000000E+00  0.00000000E+00
  0.00000000E+00  0.00000000E+00  0.00000000E+00
  0.00000000E+00  0.00000000E+00  0.00000000E+00
  0.00000000E+00  0.00000000E+00  0.00000000E+00
  0.00000000E+00  0.00000000E+00  0.00000000E+00
  0.00000000E+00  0.00000000E+00  0.00000000E+00
  0.00000000E+00  0.00000000E+00  0.00000000E+00
  0.00000000E+00  0.00000000E+00  0.00000000E+00
  0.00000000E+00  0.00000000E+00  0.00000000E+00
  0.00000000E+00  0.00000000E+00  0.00000000E+00
  0.00000000E+00  0.00000000E+00  0.00000000E+00
  0.00000000E+00  0.00000000E+00  0.00000000E+00
  0.00000000E+00  0.00000000E+00  0.00000000E+00
  0.00000000E+00  0.00000000E+00  0.00000000E+00
