Bi La Sn H                              
   1.00000000000000     
    29.0000000000000000    0.0000000000000000    0.0000000000000000
     0.2488180851000000   28.9989325590000000    0.0000000000000000
    -0.0631677343000000   -0.4515975666000000   28.9964147692999994
   Bi   La   Sn   H 
    22    23    23     1
Selective dynamics
Direct
  0.7585855995993871  0.4784429120196375  0.3990193807496706   T   T   T
  0.6461105847574625  0.6847726682357116  0.5525116177194044   T   T   T
  0.3597776574096080  0.4587594091861847  0.4286781601394162   T   T   T
  0.5495044404975127  0.7128317631659049  0.5853032429550646   T   T   T
  0.5915029568994470  0.5209714444905416  0.5841479689498996   F   F   F
  0.6397282771233244  0.6805928262096196  0.4457495780949438   T   T   T
  0.6971270883004334  0.5237681365817389  0.6549483049411208   T   T   T
  0.4859524555044087  0.7008853945613704  0.5006980458622727   T   T   T
  0.5004839460855024  0.5502791173970252  0.5477141156400123   F   F   F
  0.3250029825209294  0.4853231428754428  0.5751034637086750   T   T   T
  0.3816304906444437  0.6099990111342649  0.5352726120385541   T   T   T
  0.6667129484492236  0.4827404655721850  0.5105018184570156   F   F   F
  0.5763997220267569  0.4263140504383500  0.5448328182496311   F   F   F
  0.6700244706137095  0.3760971571793776  0.5097341042121970   T   T   T
  0.4643517636122777  0.3389623886958255  0.4990767695924590   T   T   T
  0.6484934028780529  0.5775373212088155  0.4602701624361103   F   F   F
  0.5589361969452435  0.4370422452488392  0.7494960441156574   T   T   T
  0.6045013511081098  0.3523850405687542  0.6695989862213889   T   T   T
  0.4934496471470914  0.3002399615279491  0.4086911476737189   T   T   T
  0.6597242127499580  0.6191551201986594  0.6662264209974328   T   T   T
  0.4922272493529000  0.4114230706778342  0.3073319313738346   T   T   T
  0.6229426615096988  0.3167111856731388  0.5740108008355504   T   T   T
  0.5383691169021335  0.6837882591812551  0.4054415532990625   T   T   T
  0.3906401510351899  0.4151881787084082  0.5272689725338755   T   T   T
  0.6285280074747458  0.5535251321030602  0.2826447486685417   T   T   T
  0.4717203232566312  0.4705911374595048  0.6923052038519155   T   T   T
  0.5683115009887700  0.5094300495444983  0.4784716241115703   F   F   F
  0.4203210565129183  0.5084107200613417  0.5018573595042781   F   F   F
  0.4520083804535600  0.4012140538693382  0.4062948815690008   T   T   T
  0.5654491799500903  0.3484088058369206  0.3526314757514937   T   T   T
  0.4106234478422512  0.5397053936138069  0.6096690156319422   T   T   T
  0.5976181381270207  0.4440357556869002  0.3043379734836199   T   T   T
  0.4548343327480233  0.6008173905459017  0.3636516059064537   T   T   T
  0.4179576240750718  0.4880332525119350  0.3405054052395037   T   T   T
  0.6612959932329782  0.4298669224018835  0.6058972521864303   T   T   T
  0.6730530338935918  0.5787022791029988  0.5642276350883949   T   T   T
  0.5258959845075064  0.5110421716721607  0.3278686560271382   T   T   T
  0.5681099255949653  0.3573868080055267  0.4685618888542549   T   T   T
  0.3150422007824654  0.5409959395225746  0.4916613828328623   T   T   T
  0.6596135731052261  0.4275095142361164  0.4152858333643051   T   T   T
  0.5660841929594156  0.6261437171197244  0.5094829013827464   F   F   F
  0.5962138966038080  0.5286932511862624  0.6895328073450121   T   T   T
  0.4693730357924709  0.6409581339292637  0.5887964881868371   T   T   T
  0.4629412444335117  0.6034332353660264  0.4639876989556567   T   T   T
  0.7164411588679789  0.5743731433766728  0.3833684324437278   T   T   T
  0.5499310510395361  0.5822218838566187  0.4076968008106903   F   F   F
  0.4794126430662260  0.5072205383607624  0.4190535757241776   F   F   F
  0.6944531188940106  0.4808801465803940  0.3244168254609081   T   T   T
  0.7527947164653290  0.4306055067317212  0.4881334407035356   T   T   T
  0.7482391043312095  0.5392959563464099  0.4854093495618423   T   T   T
  0.7489485285441941  0.4916700808848693  0.5725542293202194   T   T   T
  0.6491419111624047  0.4376572348260541  0.7102918485634461   T   T   T
  0.5765328663843818  0.7429920612706212  0.4939526621685288   T   T   T
  0.6192554540844384  0.5183157687966542  0.3801816896793397   F   F   F
  0.5050186581052861  0.5588059410268307  0.6500759523215974   T   T   T
  0.4922009500451665  0.4366758245867572  0.4933013002826740   F   F   F
  0.5608844484509063  0.4404139570509003  0.6454865549417619   F   F   F
  0.5766362185277868  0.6161154750658718  0.6138739461415322   T   T   T
  0.5445766018592068  0.6190292637655580  0.3127477577089718   T   T   T
  0.6274676444325584  0.6256570248974593  0.3610555484715206   T   T   T
  0.3765142399015146  0.5582131735215079  0.4133512649320641   T   T   T
  0.4723078164089713  0.4557257050327763  0.5877273803360978   F   F   F
  0.7265466973535906  0.6362376796913994  0.4854186004996126   T   T   T
  0.5039494204841991  0.3683962407768956  0.6836066480814440   T   T   T
  0.3816875386476966  0.4404799868761504  0.6406349295717150   T   T   T
  0.5544592502646992  0.4379899399457940  0.4037542370104745   F   F   F
  0.4344524250072614  0.3633173348435302  0.6097604982728274   T   T   T
  0.5289154359669531  0.3487700989624131  0.5797990041866772   T   T   T
  0.6221752855026033  0.3557939987645188  0.4075189298343094   T   T   T
 
  0.00000000E+00  0.00000000E+00  0.00000000E+00
  0.00000000E+00  0.00000000E+00  0.00000000E+00
  0.00000000E+00  0.00000000E+00  0.00000000E+00
  0.00000000E+00  0.00000000E+00  0.00000000E+00
  0.00000000E+00  0.00000000E+00  0.00000000E+00
  0.00000000E+00  0.00000000E+00  0.00000000E+00
  0.00000000E+00  0.00000000E+00  0.00000000E+00
  0.00000000E+00  0.00000000E+00  0.00000000E+00
  0.00000000E+00  0.00000000E+00  0.00000000E+00
  0.00000000E+00  0.00000000E+00  0.00000000E+00
  0.00000000E+00  0.00000000E+00  0.00000000E+00
  0.00000000E+00  0.00000000E+00  0.00000000E+00
  0.00000000E+00  0.00000000E+00  0.00000000E+00
  0.00000000E+00  0.00000000E+00  0.00000000E+00
  0.00000000E+00  0.00000000E+00  0.00000000E+00
  0.00000000E+00  0.00000000E+00  0.00000000E+00
  0.00000000E+00  0.00000000E+00  0.00000000E+00
  0.00000000E+00  0.00000000E+00  0.00000000E+00
  0.00000000E+00  0.00000000E+00  0.00000000E+00
  0.00000000E+00  0.00000000E+00  0.00000000E+00
  0.00000000E+00  0.00000000E+00  0.00000000E+00
  0.00000000E+00  0.00000000E+00  0.00000000E+00
  0.00000000E+00  0.00000000E+00  0.00000000E+00
  0.00000000E+00  0.00000000E+00  0.00000000E+00
  0.00000000E+00  0.00000000E+00  0.00000000E+00
  0.00000000E+00  0.00000000E+00  0.00000000E+00
  0.00000000E+00  0.00000000E+00  0.00000000E+00
  0.00000000E+00  0.00000000E+00  0.00000000E+00
  0.00000000E+00  0.00000000E+00  0.00000000E+00
  0.00000000E+00  0.00000000E+00  0.00000000E+00
  0.00000000E+00  0.00000000E+00  0.00000000E+00
  0.00000000E+00  0.00000000E+00  0.00000000E+00
  0.00000000E+00  0.00000000E+00  0.00000000E+00
  0.00000000E+00  0.00000000E+00  0.00000000E+00
  0.00000000E+00  0.00000000E+00  0.00000000E+00
  0.00000000E+00  0.00000000E+00  0.00000000E+00
  0.00000000E+00  0.00000000E+00  0.00000000E+00
  0.00000000E+00  0.00000000E+00  0.00000000E+00
  0.00000000E+00  0.00000000E+00  0.00000000E+00
  0.00000000E+00  0.00000000E+00  0.00000000E+00
  0.00000000E+00  0.00000000E+00  0.00000000E+00
  0.00000000E+00  0.00000000E+00  0.00000000E+00
  0.00000000E+00  0.00000000E+00  0.00000000E+00
  0.00000000E+00  0.00000000E+00  0.00000000E+00
  0.00000000E+00  0.00000000E+00  0.00000000E+00
  0.00000000E+00  0.00000000E+00  0.00000000E+00
  0.00000000E+00  0.00000000E+00  0.00000000E+00
  0.00000000E+00  0.00000000E+00  0.00000000E+00
  0.00000000E+00  0.00000000E+00  0.00000000E+00
  0.00000000E+00  0.00000000E+00  0.00000000E+00
  0.00000000E+00  0.00000000E+00  0.00000000E+00
  0.00000000E+00  0.00000000E+00  0.00000000E+00
  0.00000000E+00  0.00000000E+00  0.00000000E+00
  0.00000000E+00  0.00000000E+00  0.00000000E+00
  0.00000000E+00  0.00000000E+00  0.00000000E+00
  0.00000000E+00  0.00000000E+00  0.00000000E+00
  0.00000000E+00  0.00000000E+00  0.00000000E+00
  0.00000000E+00  0.00000000E+00  0.00000000E+00
  0.00000000E+00  0.00000000E+00  0.00000000E+00
  0.00000000E+00  0.00000000E+00  0.00000000E+00
  0.00000000E+00  0.00000000E+00  0.00000000E+00
  0.00000000E+00  0.00000000E+00  0.00000000E+00
  0.00000000E+00  0.00000000E+00  0.00000000E+00
  0.00000000E+00  0.00000000E+00  0.00000000E+00
  0.00000000E+00  0.00000000E+00  0.00000000E+00
  0.00000000E+00  0.00000000E+00  0.00000000E+00
  0.00000000E+00  0.00000000E+00  0.00000000E+00
  0.00000000E+00  0.00000000E+00  0.00000000E+00
  0.00000000E+00  0.00000000E+00  0.00000000E+00
