Bi La Sn H                              
   1.00000000000000     
    29.0000000000000000    0.0000000000000000    0.0000000000000000
     0.2488180851000000   28.9989325590000000    0.0000000000000000
    -0.0631677343000000   -0.4515975666000000   28.9964147692999994
   Bi   La   Sn   H 
    22    23    23     1
Selective dynamics
Direct
  0.7593956634604272  0.4784697689673936  0.3978773891144227   T   T   T
  0.6466500911263289  0.6846204722229042  0.5514907755073846   T   T   T
  0.3596251365905301  0.4585098674490559  0.4287307122395197   T   T   T
  0.5506692844282317  0.7135619499391411  0.5836222186811104   T   T   T
  0.5915029568994470  0.5209714444905416  0.5841479689498996   F   F   F
  0.6399977661872275  0.6797266883441341  0.4452101880364471   T   T   T
  0.6956532805683439  0.5220876719224042  0.6543345746122361   T   T   T
  0.4861665194835931  0.7010223630658072  0.4989453181184738   T   T   T
  0.5004839460855024  0.5502791173970252  0.5477141156400123   F   F   F
  0.3242291796803252  0.4868803250496133  0.5736354707957840   T   T   T
  0.3824131015156821  0.6116022003556328  0.5342399914427491   T   T   T
  0.6667129484492236  0.4827404655721850  0.5105018184570156   F   F   F
  0.5763997220267569  0.4263140504383500  0.5448328182496311   F   F   F
  0.6719052115400505  0.3703522565537817  0.5068669895458311   T   T   T
  0.4635466414161207  0.3390960495260710  0.5001102887819532   T   T   T
  0.6484934028780529  0.5775373212088155  0.4602701624361103   F   F   F
  0.5589218708012702  0.4364690260407785  0.7491445738967308   T   T   T
  0.6052730293469126  0.3519839502950418  0.6693244801184950   T   T   T
  0.4927252763096980  0.2994745000364041  0.4104526911193768   T   T   T
  0.6599452813322207  0.6184705614519368  0.6658598277871721   T   T   T
  0.4919902975324687  0.4099529409667396  0.3074644854990877   T   T   T
  0.6192395104398576  0.3160707064816065  0.5730376359259528   T   T   T
  0.5384979538374467  0.6835341674637204  0.4035698640366119   T   T   T
  0.3906984688100538  0.4155461291264004  0.5282513754084242   T   T   T
  0.6283263024975804  0.5523123444090172  0.2821610245279333   T   T   T
  0.4714028246785498  0.4701613746038141  0.6912180754893760   T   T   T
  0.5683115009887700  0.5094300495444983  0.4784716241115703   F   F   F
  0.4203210565129183  0.5084107200613417  0.5018573595042781   F   F   F
  0.4520484986742118  0.4008420484507313  0.4071728210150717   T   T   T
  0.5639678428543320  0.3484239539103510  0.3540562833077059   T   T   T
  0.4102529497697236  0.5409415457685077  0.6087422207889942   T   T   T
  0.5978560563593452  0.4428419953852779  0.3038537823201240   T   T   T
  0.4552370261238123  0.6005337538875362  0.3629870040072576   T   T   T
  0.4182480661471979  0.4868350626394988  0.3398865543927990   T   T   T
  0.6609266753988391  0.4283551773558003  0.6039675438567748   T   T   T
  0.6731509666464249  0.5783430087900329  0.5639369017364710   T   T   T
  0.5262912833032027  0.5098418559715101  0.3280242788597090   T   T   T
  0.5663960137903578  0.3572288402029329  0.4690779132778876   T   T   T
  0.3157264634414294  0.5430233945974529  0.4905186694523374   T   T   T
  0.6603651303579789  0.4299433232442716  0.4157406963720420   T   T   T
  0.5660841929594156  0.6261437171197244  0.5094829013827464   F   F   F
  0.5951249346452179  0.5291519583181226  0.6895042058828610   T   T   T
  0.4702944169049033  0.6418134690570994  0.5880207788209438   T   T   T
  0.4631534649025733  0.6029109343656301  0.4633719036543223   T   T   T
  0.7159507270217562  0.5740630465624222  0.3828527547329781   T   T   T
  0.5499310510395361  0.5822218838566187  0.4076968008106903   F   F   F
  0.4794126430662260  0.5072205383607624  0.4190535757241776   F   F   F
  0.6944675835327718  0.4802557734925268  0.3239169161267654   T   T   T
  0.7513521357586805  0.4304164299769019  0.4876491577579814   T   T   T
  0.7483414465782549  0.5375997709225643  0.4849915575544058   T   T   T
  0.7489498736311502  0.4910060505675377  0.5728037183232219   T   T   T
  0.6492855436581167  0.4386286005353592  0.7087206862587212   T   T   T
  0.5762988600949677  0.7430201474603204  0.4918309939355444   T   T   T
  0.6192554540844384  0.5183157687966542  0.3801816896793397   F   F   F
  0.5038246489299922  0.5600808496427917  0.6505463205177275   T   T   T
  0.4922009500451665  0.4366758245867572  0.4933013002826740   F   F   F
  0.5608844484509063  0.4404139570509003  0.6454865549417619   F   F   F
  0.5767441372501323  0.6161703056260418  0.6138936197056183   T   T   T
  0.5437770717393348  0.6174776410274636  0.3109958961849776   T   T   T
  0.6262650382483986  0.6249433623018558  0.3600512126174827   T   T   T
  0.3774367451028257  0.5567083029425702  0.4119193437074813   T   T   T
  0.4723078164089713  0.4557257050327763  0.5877273803360978   F   F   F
  0.7273252387629613  0.6346270809070370  0.4846993924263511   T   T   T
  0.5055730505549679  0.3675661240983152  0.6866608562951728   T   T   T
  0.3802478700175493  0.4430058389237476  0.6399244586322623   T   T   T
  0.5544592502646992  0.4379899399457940  0.4037542370104745   F   F   F
  0.4345730450873536  0.3654280355890375  0.6133202249170534   T   T   T
  0.5272354831218732  0.3505417451244323  0.5808177481992746   T   T   T
  0.7033381246695093  0.3150416139424316  0.4980240587044652   T   T   T
 
  0.00000000E+00  0.00000000E+00  0.00000000E+00
  0.00000000E+00  0.00000000E+00  0.00000000E+00
  0.00000000E+00  0.00000000E+00  0.00000000E+00
  0.00000000E+00  0.00000000E+00  0.00000000E+00
  0.00000000E+00  0.00000000E+00  0.00000000E+00
  0.00000000E+00  0.00000000E+00  0.00000000E+00
  0.00000000E+00  0.00000000E+00  0.00000000E+00
  0.00000000E+00  0.00000000E+00  0.00000000E+00
  0.00000000E+00  0.00000000E+00  0.00000000E+00
  0.00000000E+00  0.00000000E+00  0.00000000E+00
  0.00000000E+00  0.00000000E+00  0.00000000E+00
  0.00000000E+00  0.00000000E+00  0.00000000E+00
  0.00000000E+00  0.00000000E+00  0.00000000E+00
  0.00000000E+00  0.00000000E+00  0.00000000E+00
  0.00000000E+00  0.00000000E+00  0.00000000E+00
  0.00000000E+00  0.00000000E+00  0.00000000E+00
  0.00000000E+00  0.00000000E+00  0.00000000E+00
  0.00000000E+00  0.00000000E+00  0.00000000E+00
  0.00000000E+00  0.00000000E+00  0.00000000E+00
  0.00000000E+00  0.00000000E+00  0.00000000E+00
  0.00000000E+00  0.00000000E+00  0.00000000E+00
  0.00000000E+00  0.00000000E+00  0.00000000E+00
  0.00000000E+00  0.00000000E+00  0.00000000E+00
  0.00000000E+00  0.00000000E+00  0.00000000E+00
  0.00000000E+00  0.00000000E+00  0.00000000E+00
  0.00000000E+00  0.00000000E+00  0.00000000E+00
  0.00000000E+00  0.00000000E+00  0.00000000E+00
  0.00000000E+00  0.00000000E+00  0.00000000E+00
  0.00000000E+00  0.00000000E+00  0.00000000E+00
  0.00000000E+00  0.00000000E+00  0.00000000E+00
  0.00000000E+00  0.00000000E+00  0.00000000E+00
  0.00000000E+00  0.00000000E+00  0.00000000E+00
  0.00000000E+00  0.00000000E+00  0.00000000E+00
  0.00000000E+00  0.00000000E+00  0.00000000E+00
  0.00000000E+00  0.00000000E+00  0.00000000E+00
  0.00000000E+00  0.00000000E+00  0.00000000E+00
  0.00000000E+00  0.00000000E+00  0.00000000E+00
  0.00000000E+00  0.00000000E+00  0.00000000E+00
  0.00000000E+00  0.00000000E+00  0.00000000E+00
  0.00000000E+00  0.00000000E+00  0.00000000E+00
  0.00000000E+00  0.00000000E+00  0.00000000E+00
  0.00000000E+00  0.00000000E+00  0.00000000E+00
  0.00000000E+00  0.00000000E+00  0.00000000E+00
  0.00000000E+00  0.00000000E+00  0.00000000E+00
  0.00000000E+00  0.00000000E+00  0.00000000E+00
  0.00000000E+00  0.00000000E+00  0.00000000E+00
  0.00000000E+00  0.00000000E+00  0.00000000E+00
  0.00000000E+00  0.00000000E+00  0.00000000E+00
  0.00000000E+00  0.00000000E+00  0.00000000E+00
  0.00000000E+00  0.00000000E+00  0.00000000E+00
  0.00000000E+00  0.00000000E+00  0.00000000E+00
  0.00000000E+00  0.00000000E+00  0.00000000E+00
  0.00000000E+00  0.00000000E+00  0.00000000E+00
  0.00000000E+00  0.00000000E+00  0.00000000E+00
  0.00000000E+00  0.00000000E+00  0.00000000E+00
  0.00000000E+00  0.00000000E+00  0.00000000E+00
  0.00000000E+00  0.00000000E+00  0.00000000E+00
  0.00000000E+00  0.00000000E+00  0.00000000E+00
  0.00000000E+00  0.00000000E+00  0.00000000E+00
  0.00000000E+00  0.00000000E+00  0.00000000E+00
  0.00000000E+00  0.00000000E+00  0.00000000E+00
  0.00000000E+00  0.00000000E+00  0.00000000E+00
  0.00000000E+00  0.00000000E+00  0.00000000E+00
  0.00000000E+00  0.00000000E+00  0.00000000E+00
  0.00000000E+00  0.00000000E+00  0.00000000E+00
  0.00000000E+00  0.00000000E+00  0.00000000E+00
  0.00000000E+00  0.00000000E+00  0.00000000E+00
  0.00000000E+00  0.00000000E+00  0.00000000E+00
  0.00000000E+00  0.00000000E+00  0.00000000E+00
