Bi La Sn H                              
   1.00000000000000     
    29.0000000000000000    0.0000000000000000    0.0000000000000000
     0.2488180851000000   28.9989325590000000    0.0000000000000000
    -0.0631677343000000   -0.4515975666000000   28.9964147692999994
   Bi   La   Sn   H 
    22    23    23     1
Selective dynamics
Direct
  0.7587608848865636  0.4779936872016846  0.3990806713307452   T   T   T
  0.6472312294308231  0.6846410179144996  0.5511339055518453   T   T   T
  0.3592712304143694  0.4582748467176940  0.4281071735908447   T   T   T
  0.5496998582968606  0.7132234907571091  0.5841620888160306   T   T   T
  0.5915029568994470  0.5209714444905416  0.5841479689498996   F   F   F
  0.6402756870531573  0.6796884071515037  0.4450850720748458   T   T   T
  0.6963872299230577  0.5219566406797633  0.6537608490015796   T   T   T
  0.4867311292900364  0.7017227496517682  0.4991147042723317   T   T   T
  0.5004839460855024  0.5502791173970252  0.5477141156400123   F   F   F
  0.3267437484871346  0.4943407944898584  0.5752106401180402   T   T   T
  0.3791455749644534  0.6060167526622670  0.5377870897102093   T   T   T
  0.6667129484492236  0.4827404655721850  0.5105018184570156   F   F   F
  0.5763997220267569  0.4263140504383500  0.5448328182496311   F   F   F
  0.6677941576724133  0.3739517570119314  0.5070095351681850   T   T   T
  0.4612962454199994  0.3391488941104769  0.4988140619293426   T   T   T
  0.6484934028780529  0.5775373212088155  0.4602701624361103   F   F   F
  0.5585342601954605  0.4376446470620974  0.7495814322227498   T   T   T
  0.6007895986234438  0.3512079836364828  0.6693520376566428   T   T   T
  0.4916958974332641  0.3003464617124416  0.4086183306665735   T   T   T
  0.6604117884040859  0.6184132846645077  0.6663133287888980   T   T   T
  0.4919469322686956  0.4098818068614205  0.3062075854090779   T   T   T
  0.6213924740306530  0.3161463723267660  0.5738632539862792   T   T   T
  0.5389412093505642  0.6834374737739923  0.4041362384371292   T   T   T
  0.3891601401913604  0.4167739817170947  0.5281070070622159   T   T   T
  0.6288695336889767  0.5521779031386408  0.2825386570512053   T   T   T
  0.4727948055648275  0.4750352256039292  0.6924819447092313   T   T   T
  0.5683115009887700  0.5094300495444983  0.4784716241115703   F   F   F
  0.4203210565129183  0.5084107200613417  0.5018573595042781   F   F   F
  0.4518345501731948  0.4015202125603998  0.4062274494526555   T   T   T
  0.5642203183900814  0.3488279547242424  0.3539824611456598   T   T   T
  0.4148393341284334  0.5397308963921600  0.6136593624866746   T   T   T
  0.5983666294038531  0.4419691699863726  0.3044961087555773   T   T   T
  0.4558851407180599  0.6006702085302776  0.3632913561366416   T   T   T
  0.4187087247938367  0.4866078751310109  0.3396065762750439   T   T   T
  0.6611043360741164  0.4276196992444322  0.6045857880292308   T   T   T
  0.6735036607547119  0.5786489916132570  0.5638546051132245   T   T   T
  0.5261800347432478  0.5095019302359617  0.3278296687796800   T   T   T
  0.5648759157614984  0.3568701727899810  0.4695264951823583   T   T   T
  0.3129546260697189  0.5423803899913222  0.4850974473645971   T   T   T
  0.6596222592762403  0.4293091038337446  0.4154628939417743   T   T   T
  0.5660841929594156  0.6261437171197244  0.5094829013827464   F   F   F
  0.5969625576937689  0.5282582915042948  0.6896203578180586   T   T   T
  0.4689654844633619  0.6413103462499102  0.5876585963258212   T   T   T
  0.4622126174768151  0.6036721876182073  0.4646636360176772   T   T   T
  0.7160527223371258  0.5734945108512594  0.3830959524680915   T   T   T
  0.5499310510395361  0.5822218838566187  0.4076968008106903   F   F   F
  0.4794126430662260  0.5072205383607624  0.4190535757241776   F   F   F
  0.6946830334422062  0.4797706824764946  0.3241459314096973   T   T   T
  0.7508793620810854  0.4289252323498190  0.4877908549827424   T   T   T
  0.7483368992550646  0.5382178474669107  0.4854712731272493   T   T   T
  0.7489095641140838  0.4897041184243325  0.5725117788958719   T   T   T
  0.6483862064097938  0.4353991148529706  0.7089050198420495   T   T   T
  0.5776506859903918  0.7431550261084064  0.4929840312988497   T   T   T
  0.6192554540844384  0.5183157687966542  0.3801816896793397   F   F   F
  0.5073930519781191  0.5630274944955296  0.6512042875797636   T   T   T
  0.4922009500451665  0.4366758245867572  0.4933013002826740   F   F   F
  0.5608844484509063  0.4404139570509003  0.6454865549417619   F   F   F
  0.5782620002948610  0.6172192963177245  0.6130658517246678   T   T   T
  0.5443037886737467  0.6172792409171581  0.3115121533714484   T   T   T
  0.6267107457242109  0.6249134391018815  0.3603154025854328   T   T   T
  0.3784247695491527  0.5567450908949175  0.4114334136080028   T   T   T
  0.4723078164089713  0.4557257050327763  0.5877273803360978   F   F   F
  0.7273500630144376  0.6350360283125634  0.4848064917631660   T   T   T
  0.5005288513406344  0.3716507347026326  0.6833002923538940   T   T   T
  0.3829412247833036  0.4406362146723692  0.6401707570921509   T   T   T
  0.5544592502646992  0.4379899399457940  0.4037542370104745   F   F   F
  0.4333029944945760  0.3617863758211296  0.6081345213921154   T   T   T
  0.5274118100428562  0.3489447896405528  0.5783284706639938   T   T   T
  0.3079926035101315  0.4379477132132950  0.5486639184971174   T   T   T
 
  0.00000000E+00  0.00000000E+00  0.00000000E+00
  0.00000000E+00  0.00000000E+00  0.00000000E+00
  0.00000000E+00  0.00000000E+00  0.00000000E+00
  0.00000000E+00  0.00000000E+00  0.00000000E+00
  0.00000000E+00  0.00000000E+00  0.00000000E+00
  0.00000000E+00  0.00000000E+00  0.00000000E+00
  0.00000000E+00  0.00000000E+00  0.00000000E+00
  0.00000000E+00  0.00000000E+00  0.00000000E+00
  0.00000000E+00  0.00000000E+00  0.00000000E+00
  0.00000000E+00  0.00000000E+00  0.00000000E+00
  0.00000000E+00  0.00000000E+00  0.00000000E+00
  0.00000000E+00  0.00000000E+00  0.00000000E+00
  0.00000000E+00  0.00000000E+00  0.00000000E+00
  0.00000000E+00  0.00000000E+00  0.00000000E+00
  0.00000000E+00  0.00000000E+00  0.00000000E+00
  0.00000000E+00  0.00000000E+00  0.00000000E+00
  0.00000000E+00  0.00000000E+00  0.00000000E+00
  0.00000000E+00  0.00000000E+00  0.00000000E+00
  0.00000000E+00  0.00000000E+00  0.00000000E+00
  0.00000000E+00  0.00000000E+00  0.00000000E+00
  0.00000000E+00  0.00000000E+00  0.00000000E+00
  0.00000000E+00  0.00000000E+00  0.00000000E+00
  0.00000000E+00  0.00000000E+00  0.00000000E+00
  0.00000000E+00  0.00000000E+00  0.00000000E+00
  0.00000000E+00  0.00000000E+00  0.00000000E+00
  0.00000000E+00  0.00000000E+00  0.00000000E+00
  0.00000000E+00  0.00000000E+00  0.00000000E+00
  0.00000000E+00  0.00000000E+00  0.00000000E+00
  0.00000000E+00  0.00000000E+00  0.00000000E+00
  0.00000000E+00  0.00000000E+00  0.00000000E+00
  0.00000000E+00  0.00000000E+00  0.00000000E+00
  0.00000000E+00  0.00000000E+00  0.00000000E+00
  0.00000000E+00  0.00000000E+00  0.00000000E+00
  0.00000000E+00  0.00000000E+00  0.00000000E+00
  0.00000000E+00  0.00000000E+00  0.00000000E+00
  0.00000000E+00  0.00000000E+00  0.00000000E+00
  0.00000000E+00  0.00000000E+00  0.00000000E+00
  0.00000000E+00  0.00000000E+00  0.00000000E+00
  0.00000000E+00  0.00000000E+00  0.00000000E+00
  0.00000000E+00  0.00000000E+00  0.00000000E+00
  0.00000000E+00  0.00000000E+00  0.00000000E+00
  0.00000000E+00  0.00000000E+00  0.00000000E+00
  0.00000000E+00  0.00000000E+00  0.00000000E+00
  0.00000000E+00  0.00000000E+00  0.00000000E+00
  0.00000000E+00  0.00000000E+00  0.00000000E+00
  0.00000000E+00  0.00000000E+00  0.00000000E+00
  0.00000000E+00  0.00000000E+00  0.00000000E+00
  0.00000000E+00  0.00000000E+00  0.00000000E+00
  0.00000000E+00  0.00000000E+00  0.00000000E+00
  0.00000000E+00  0.00000000E+00  0.00000000E+00
  0.00000000E+00  0.00000000E+00  0.00000000E+00
  0.00000000E+00  0.00000000E+00  0.00000000E+00
  0.00000000E+00  0.00000000E+00  0.00000000E+00
  0.00000000E+00  0.00000000E+00  0.00000000E+00
  0.00000000E+00  0.00000000E+00  0.00000000E+00
  0.00000000E+00  0.00000000E+00  0.00000000E+00
  0.00000000E+00  0.00000000E+00  0.00000000E+00
  0.00000000E+00  0.00000000E+00  0.00000000E+00
  0.00000000E+00  0.00000000E+00  0.00000000E+00
  0.00000000E+00  0.00000000E+00  0.00000000E+00
  0.00000000E+00  0.00000000E+00  0.00000000E+00
  0.00000000E+00  0.00000000E+00  0.00000000E+00
  0.00000000E+00  0.00000000E+00  0.00000000E+00
  0.00000000E+00  0.00000000E+00  0.00000000E+00
  0.00000000E+00  0.00000000E+00  0.00000000E+00
  0.00000000E+00  0.00000000E+00  0.00000000E+00
  0.00000000E+00  0.00000000E+00  0.00000000E+00
  0.00000000E+00  0.00000000E+00  0.00000000E+00
  0.00000000E+00  0.00000000E+00  0.00000000E+00
