Bi La Sn H                              
   1.00000000000000     
    29.0000000000000000    0.0000000000000000    0.0000000000000000
     0.2488180851000000   28.9989325590000000    0.0000000000000000
    -0.0631677343000000   -0.4515975666000000   28.9964147692999994
   Bi   La   Sn   H 
    22    23    23     1
Selective dynamics
Direct
  0.7591482569165350  0.4780823589504508  0.3986420496462010   T   T   T
  0.6464648249698566  0.6849084459703502  0.5519332864719110   T   T   T
  0.3595075308093096  0.4583487186738212  0.4286717182056109   T   T   T
  0.5501877499305703  0.7138479327798872  0.5846727460348481   T   T   T
  0.5915029568994470  0.5209714444905416  0.5841479689498996   F   F   F
  0.6400378774561896  0.6802726424861892  0.4458210861652409   T   T   T
  0.6951416599758070  0.5181388205559980  0.6535212718627232   T   T   T
  0.4865583503064505  0.7010837667960171  0.5002003644659035   T   T   T
  0.5004839460855024  0.5502791173970252  0.5477141156400123   F   F   F
  0.3250163952273310  0.4858468331589975  0.5754181558850853   T   T   T
  0.3813295003476436  0.6100138161429526  0.5352381883381173   T   T   T
  0.6667129484492236  0.4827404655721850  0.5105018184570156   F   F   F
  0.5763997220267569  0.4263140504383500  0.5448328182496311   F   F   F
  0.6691975014685415  0.3737861994334785  0.5048554602160155   T   T   T
  0.4631841632535523  0.3387488465789533  0.4989997946771715   T   T   T
  0.6484934028780529  0.5775373212088155  0.4602701624361103   F   F   F
  0.5594811333329481  0.4367835610797451  0.7487564101874877   T   T   T
  0.6017458215169080  0.3511303658147822  0.6681764611460198   T   T   T
  0.4930094544396147  0.2999111772147065  0.4089037855175949   T   T   T
  0.6568378073557161  0.6230546991165139  0.6667696717694857   T   T   T
  0.4918911500725949  0.4103091788683951  0.3067621628522560   T   T   T
  0.6229695667975689  0.3159619551878677  0.5725380381790789   T   T   T
  0.5385634126184293  0.6833391226744088  0.4049185927183351   T   T   T
  0.3907022474151388  0.4157411612234094  0.5274680707626570   T   T   T
  0.6282640202707825  0.5525188983940813  0.2830411928965988   T   T   T
  0.4719740180526023  0.4723918593716872  0.6922102016247105   T   T   T
  0.5683115009887700  0.5094300495444983  0.4784716241115703   F   F   F
  0.4203210565129183  0.5084107200613417  0.5018573595042781   F   F   F
  0.4517316410577797  0.4009631161503543  0.4065473763896446   T   T   T
  0.5642615309586546  0.3491349882587140  0.3535322453301841   T   T   T
  0.4108603643657964  0.5398131014464379  0.6096055085148852   T   T   T
  0.5981544849755804  0.4429049170954754  0.3035290139020507   T   T   T
  0.4548768928709785  0.5998976481062045  0.3634800949062437   T   T   T
  0.4179357319296958  0.4872652170191017  0.3403326248030654   T   T   T
  0.6619759563844571  0.4258025566105129  0.6027996242925800   T   T   T
  0.6730392766745036  0.5793133881658631  0.5652549638309710   T   T   T
  0.5257771826321079  0.5096470926899466  0.3280069287893460   T   T   T
  0.5659528251065992  0.3572055607201914  0.4694128975615283   T   T   T
  0.3149320889921383  0.5408507318493357  0.4915847579732585   T   T   T
  0.6601209993653478  0.4299335083057895  0.4150324719552569   T   T   T
  0.5660841929594156  0.6261437171197244  0.5094829013827464   F   F   F
  0.5962835452038090  0.5299898088502506  0.6893479271339330   T   T   T
  0.4690813984985309  0.6415354131125663  0.5881087993749136   T   T   T
  0.4627109809872543  0.6032775729577717  0.4641487659868269   T   T   T
  0.7160668507374818  0.5736197294065041  0.3830300690139754   T   T   T
  0.5499310510395361  0.5822218838566187  0.4076968008106903   F   F   F
  0.4794126430662260  0.5072205383607624  0.4190535757241776   F   F   F
  0.6948207960817968  0.4802240066718256  0.3239678516227041   T   T   T
  0.7525040999579083  0.4302730352614759  0.4887059981552570   T   T   T
  0.7480870927318224  0.5375329688903741  0.4850513749399413   T   T   T
  0.7483396726335535  0.4907804537662802  0.5739023495928852   T   T   T
  0.6495666119153416  0.4369956126396629  0.7071238319360152   T   T   T
  0.5769668096862116  0.7434164563424220  0.4932231996158513   T   T   T
  0.6192554540844384  0.5183157687966542  0.3801816896793397   F   F   F
  0.5048744864739999  0.5604075561463726  0.6502068630428839   T   T   T
  0.4922009500451665  0.4366758245867572  0.4933013002826740   F   F   F
  0.5608844484509063  0.4404139570509003  0.6454865549417619   F   F   F
  0.5758477309960205  0.6161979344449230  0.6125138116852190   T   T   T
  0.5439184649704207  0.6178439024436734  0.3125784120189933   T   T   T
  0.6270371406772556  0.6254254709898556  0.3605128261771378   T   T   T
  0.3767896155634128  0.5572637653289297  0.4133204637477009   T   T   T
  0.4723078164089713  0.4557257050327763  0.5877273803360978   F   F   F
  0.7270983474204485  0.6347412293338165  0.4850407878351324   T   T   T
  0.5026254800362795  0.3694759057330664  0.6851513534016812   T   T   T
  0.3822741121197041  0.4404598330446611  0.6401054907695167   T   T   T
  0.5544592502646992  0.4379899399457940  0.4037542370104745   F   F   F
  0.4359638324114353  0.3628719967136553  0.6097249531878285   T   T   T
  0.5292284635534793  0.3480262404658754  0.5787641425031139   T   T   T
  0.6251434653230039  0.6803282444151607  0.6661025873671109   T   T   T
 
  0.00000000E+00  0.00000000E+00  0.00000000E+00
  0.00000000E+00  0.00000000E+00  0.00000000E+00
  0.00000000E+00  0.00000000E+00  0.00000000E+00
  0.00000000E+00  0.00000000E+00  0.00000000E+00
  0.00000000E+00  0.00000000E+00  0.00000000E+00
  0.00000000E+00  0.00000000E+00  0.00000000E+00
  0.00000000E+00  0.00000000E+00  0.00000000E+00
  0.00000000E+00  0.00000000E+00  0.00000000E+00
  0.00000000E+00  0.00000000E+00  0.00000000E+00
  0.00000000E+00  0.00000000E+00  0.00000000E+00
  0.00000000E+00  0.00000000E+00  0.00000000E+00
  0.00000000E+00  0.00000000E+00  0.00000000E+00
  0.00000000E+00  0.00000000E+00  0.00000000E+00
  0.00000000E+00  0.00000000E+00  0.00000000E+00
  0.00000000E+00  0.00000000E+00  0.00000000E+00
  0.00000000E+00  0.00000000E+00  0.00000000E+00
  0.00000000E+00  0.00000000E+00  0.00000000E+00
  0.00000000E+00  0.00000000E+00  0.00000000E+00
  0.00000000E+00  0.00000000E+00  0.00000000E+00
  0.00000000E+00  0.00000000E+00  0.00000000E+00
  0.00000000E+00  0.00000000E+00  0.00000000E+00
  0.00000000E+00  0.00000000E+00  0.00000000E+00
  0.00000000E+00  0.00000000E+00  0.00000000E+00
  0.00000000E+00  0.00000000E+00  0.00000000E+00
  0.00000000E+00  0.00000000E+00  0.00000000E+00
  0.00000000E+00  0.00000000E+00  0.00000000E+00
  0.00000000E+00  0.00000000E+00  0.00000000E+00
  0.00000000E+00  0.00000000E+00  0.00000000E+00
  0.00000000E+00  0.00000000E+00  0.00000000E+00
  0.00000000E+00  0.00000000E+00  0.00000000E+00
  0.00000000E+00  0.00000000E+00  0.00000000E+00
  0.00000000E+00  0.00000000E+00  0.00000000E+00
  0.00000000E+00  0.00000000E+00  0.00000000E+00
  0.00000000E+00  0.00000000E+00  0.00000000E+00
  0.00000000E+00  0.00000000E+00  0.00000000E+00
  0.00000000E+00  0.00000000E+00  0.00000000E+00
  0.00000000E+00  0.00000000E+00  0.00000000E+00
  0.00000000E+00  0.00000000E+00  0.00000000E+00
  0.00000000E+00  0.00000000E+00  0.00000000E+00
  0.00000000E+00  0.00000000E+00  0.00000000E+00
  0.00000000E+00  0.00000000E+00  0.00000000E+00
  0.00000000E+00  0.00000000E+00  0.00000000E+00
  0.00000000E+00  0.00000000E+00  0.00000000E+00
  0.00000000E+00  0.00000000E+00  0.00000000E+00
  0.00000000E+00  0.00000000E+00  0.00000000E+00
  0.00000000E+00  0.00000000E+00  0.00000000E+00
  0.00000000E+00  0.00000000E+00  0.00000000E+00
  0.00000000E+00  0.00000000E+00  0.00000000E+00
  0.00000000E+00  0.00000000E+00  0.00000000E+00
  0.00000000E+00  0.00000000E+00  0.00000000E+00
  0.00000000E+00  0.00000000E+00  0.00000000E+00
  0.00000000E+00  0.00000000E+00  0.00000000E+00
  0.00000000E+00  0.00000000E+00  0.00000000E+00
  0.00000000E+00  0.00000000E+00  0.00000000E+00
  0.00000000E+00  0.00000000E+00  0.00000000E+00
  0.00000000E+00  0.00000000E+00  0.00000000E+00
  0.00000000E+00  0.00000000E+00  0.00000000E+00
  0.00000000E+00  0.00000000E+00  0.00000000E+00
  0.00000000E+00  0.00000000E+00  0.00000000E+00
  0.00000000E+00  0.00000000E+00  0.00000000E+00
  0.00000000E+00  0.00000000E+00  0.00000000E+00
  0.00000000E+00  0.00000000E+00  0.00000000E+00
  0.00000000E+00  0.00000000E+00  0.00000000E+00
  0.00000000E+00  0.00000000E+00  0.00000000E+00
  0.00000000E+00  0.00000000E+00  0.00000000E+00
  0.00000000E+00  0.00000000E+00  0.00000000E+00
  0.00000000E+00  0.00000000E+00  0.00000000E+00
  0.00000000E+00  0.00000000E+00  0.00000000E+00
  0.00000000E+00  0.00000000E+00  0.00000000E+00
