Bi La Sn H                              
   1.00000000000000     
    29.0000000000000000    0.0000000000000000    0.0000000000000000
     0.2488180851000000   28.9989325590000000    0.0000000000000000
    -0.0631677343000000   -0.4515975666000000   28.9964147692999994
   Bi   La   Sn   H 
    22    23    23     1
Selective dynamics
Direct
  0.7581057395511613  0.4790865039923243  0.3995374760954653   T   T   T
  0.6479528840546447  0.6849461435005973  0.5498783396138092   T   T   T
  0.3555458644137655  0.4593570851485619  0.4289598375305264   T   T   T
  0.5513556246017915  0.7136087844098555  0.5834118940962919   T   T   T
  0.5915029568994470  0.5209714444905416  0.5841479689498996   F   F   F
  0.6400270823561043  0.6793543984035717  0.4445604604358345   T   T   T
  0.6952044928896652  0.5196654500867155  0.6534202611511271   T   T   T
  0.4861838633411960  0.7004613033517010  0.4988512709984445   T   T   T
  0.5004839460855024  0.5502791173970252  0.5477141156400123   F   F   F
  0.3280001726005927  0.4859462985367798  0.5766349065374297   T   T   T
  0.3834970706861915  0.6094950457119684  0.5375274188168505   T   T   T
  0.6667129484492236  0.4827404655721850  0.5105018184570156   F   F   F
  0.5763997220267569  0.4263140504383500  0.5448328182496311   F   F   F
  0.6681377634062555  0.3727509662360410  0.5049851001251259   T   T   T
  0.4618122471422617  0.3370220759461275  0.4938522128535973   T   T   T
  0.6484934028780529  0.5775373212088155  0.4602701624361103   F   F   F
  0.5544140744956761  0.4346481910168827  0.7493369546571320   T   T   T
  0.5933963081241943  0.3487097207155507  0.6678273697982300   T   T   T
  0.5011901724213684  0.3117124815720496  0.3897337370808857   T   T   T
  0.6609556902172004  0.6160446783629335  0.6678183226122081   T   T   T
  0.4991064426541394  0.4035338123193007  0.3170001818397993   T   T   T
  0.6216949781825295  0.3160873539345935  0.5730737832193212   T   T   T
  0.5382162506968216  0.6834549068006021  0.4037405334752575   T   T   T
  0.3899185269240223  0.4161530625751090  0.5242718849038803   T   T   T
  0.6298510477128183  0.5531683479921787  0.2830602727578261   T   T   T
  0.4726505841448911  0.4784665824542759  0.6924083135049385   T   T   T
  0.5683115009887700  0.5094300495444983  0.4784716241115703   F   F   F
  0.4203210565129183  0.5084107200613417  0.5018573595042781   F   F   F
  0.4477684145866297  0.4037988744169616  0.4100770369573218   T   T   T
  0.5889383959850268  0.3536725447518874  0.3531855161325496   T   T   T
  0.4131560451125608  0.5391448894103954  0.6119770474581590   T   T   T
  0.5978990898133054  0.4443707386263932  0.3034312899145549   T   T   T
  0.4545817215544620  0.5983324623668080  0.3635646955979746   T   T   T
  0.4198684753881492  0.4830580842828043  0.3418489921400280   T   T   T
  0.6603246806938541  0.4260501109361921  0.6040690312967404   T   T   T
  0.6740611390815169  0.5788900394681847  0.5640345398674814   T   T   T
  0.5254628887190078  0.5096218979303695  0.3272286069776243   T   T   T
  0.5653067814363766  0.3551213505319571  0.4689436255014977   T   T   T
  0.3157896969145974  0.5425890469016356  0.4932893400753669   T   T   T
  0.6587063338231155  0.4301260130400599  0.4160932447138734   T   T   T
  0.5660841929594156  0.6261437171197244  0.5094829013827464   F   F   F
  0.5963811014824674  0.5265945440182707  0.6902060216843258   T   T   T
  0.4713232859521237  0.6426360258122086  0.5884854795546077   T   T   T
  0.4612790512725542  0.6029138573454342  0.4628957020475299   T   T   T
  0.7149018077494946  0.5742243859994683  0.3820787865186429   T   T   T
  0.5499310510395361  0.5822218838566187  0.4076968008106903   F   F   F
  0.4794126430662260  0.5072205383607624  0.4190535757241776   F   F   F
  0.6944429038189259  0.4782912652337956  0.3240988725327597   T   T   T
  0.7510495740650073  0.4289476050912133  0.4876714470285096   T   T   T
  0.7480533938625287  0.5386919960638001  0.4852578265028298   T   T   T
  0.7483309997205672  0.4898070528781270  0.5725186819592333   T   T   T
  0.6446759038230343  0.4309765414796195  0.7087342463753858   T   T   T
  0.5771733668468659  0.7427850708074865  0.4920741562775209   T   T   T
  0.6192554540844384  0.5183157687966542  0.3801816896793397   F   F   F
  0.5079858415783797  0.5638094403366836  0.6499292192980379   T   T   T
  0.4922009500451665  0.4366758245867572  0.4933013002826740   F   F   F
  0.5608844484509063  0.4404139570509003  0.6454865549417619   F   F   F
  0.5796166360203943  0.6177537156457563  0.6134570236675594   T   T   T
  0.5428286876880730  0.6171709640873242  0.3108820954797714   T   T   T
  0.6250294913165269  0.6257833611068223  0.3600650432843465   T   T   T
  0.3751856974776660  0.5557536017800649  0.4114349665866730   T   T   T
  0.4723078164089713  0.4557257050327763  0.5877273803360978   F   F   F
  0.7279684479398357  0.6349344080943571  0.4843903675479911   T   T   T
  0.4939606365759651  0.3753740563823437  0.6769100229307394   T   T   T
  0.3865798801971333  0.4357526825042557  0.6384434529716158   T   T   T
  0.5544592502646992  0.4379899399457940  0.4037542370104745   F   F   F
  0.4327635786752748  0.3553198187127409  0.5989364763245740   T   T   T
  0.5273165276197773  0.3478905833852627  0.5751090770366017   T   T   T
  0.5323539787069134  0.2821872355800176  0.4420499659815025   T   T   T
 
  0.00000000E+00  0.00000000E+00  0.00000000E+00
  0.00000000E+00  0.00000000E+00  0.00000000E+00
  0.00000000E+00  0.00000000E+00  0.00000000E+00
  0.00000000E+00  0.00000000E+00  0.00000000E+00
  0.00000000E+00  0.00000000E+00  0.00000000E+00
  0.00000000E+00  0.00000000E+00  0.00000000E+00
  0.00000000E+00  0.00000000E+00  0.00000000E+00
  0.00000000E+00  0.00000000E+00  0.00000000E+00
  0.00000000E+00  0.00000000E+00  0.00000000E+00
  0.00000000E+00  0.00000000E+00  0.00000000E+00
  0.00000000E+00  0.00000000E+00  0.00000000E+00
  0.00000000E+00  0.00000000E+00  0.00000000E+00
  0.00000000E+00  0.00000000E+00  0.00000000E+00
  0.00000000E+00  0.00000000E+00  0.00000000E+00
  0.00000000E+00  0.00000000E+00  0.00000000E+00
  0.00000000E+00  0.00000000E+00  0.00000000E+00
  0.00000000E+00  0.00000000E+00  0.00000000E+00
  0.00000000E+00  0.00000000E+00  0.00000000E+00
  0.00000000E+00  0.00000000E+00  0.00000000E+00
  0.00000000E+00  0.00000000E+00  0.00000000E+00
  0.00000000E+00  0.00000000E+00  0.00000000E+00
  0.00000000E+00  0.00000000E+00  0.00000000E+00
  0.00000000E+00  0.00000000E+00  0.00000000E+00
  0.00000000E+00  0.00000000E+00  0.00000000E+00
  0.00000000E+00  0.00000000E+00  0.00000000E+00
  0.00000000E+00  0.00000000E+00  0.00000000E+00
  0.00000000E+00  0.00000000E+00  0.00000000E+00
  0.00000000E+00  0.00000000E+00  0.00000000E+00
  0.00000000E+00  0.00000000E+00  0.00000000E+00
  0.00000000E+00  0.00000000E+00  0.00000000E+00
  0.00000000E+00  0.00000000E+00  0.00000000E+00
  0.00000000E+00  0.00000000E+00  0.00000000E+00
  0.00000000E+00  0.00000000E+00  0.00000000E+00
  0.00000000E+00  0.00000000E+00  0.00000000E+00
  0.00000000E+00  0.00000000E+00  0.00000000E+00
  0.00000000E+00  0.00000000E+00  0.00000000E+00
  0.00000000E+00  0.00000000E+00  0.00000000E+00
  0.00000000E+00  0.00000000E+00  0.00000000E+00
  0.00000000E+00  0.00000000E+00  0.00000000E+00
  0.00000000E+00  0.00000000E+00  0.00000000E+00
  0.00000000E+00  0.00000000E+00  0.00000000E+00
  0.00000000E+00  0.00000000E+00  0.00000000E+00
  0.00000000E+00  0.00000000E+00  0.00000000E+00
  0.00000000E+00  0.00000000E+00  0.00000000E+00
  0.00000000E+00  0.00000000E+00  0.00000000E+00
  0.00000000E+00  0.00000000E+00  0.00000000E+00
  0.00000000E+00  0.00000000E+00  0.00000000E+00
  0.00000000E+00  0.00000000E+00  0.00000000E+00
  0.00000000E+00  0.00000000E+00  0.00000000E+00
  0.00000000E+00  0.00000000E+00  0.00000000E+00
  0.00000000E+00  0.00000000E+00  0.00000000E+00
  0.00000000E+00  0.00000000E+00  0.00000000E+00
  0.00000000E+00  0.00000000E+00  0.00000000E+00
  0.00000000E+00  0.00000000E+00  0.00000000E+00
  0.00000000E+00  0.00000000E+00  0.00000000E+00
  0.00000000E+00  0.00000000E+00  0.00000000E+00
  0.00000000E+00  0.00000000E+00  0.00000000E+00
  0.00000000E+00  0.00000000E+00  0.00000000E+00
  0.00000000E+00  0.00000000E+00  0.00000000E+00
  0.00000000E+00  0.00000000E+00  0.00000000E+00
  0.00000000E+00  0.00000000E+00  0.00000000E+00
  0.00000000E+00  0.00000000E+00  0.00000000E+00
  0.00000000E+00  0.00000000E+00  0.00000000E+00
  0.00000000E+00  0.00000000E+00  0.00000000E+00
  0.00000000E+00  0.00000000E+00  0.00000000E+00
  0.00000000E+00  0.00000000E+00  0.00000000E+00
  0.00000000E+00  0.00000000E+00  0.00000000E+00
  0.00000000E+00  0.00000000E+00  0.00000000E+00
  0.00000000E+00  0.00000000E+00  0.00000000E+00
