Bi La Sn H                              
   1.00000000000000     
    29.0000000000000000    0.0000000000000000    0.0000000000000000
     0.2488180851000000   28.9989325590000000    0.0000000000000000
    -0.0631677343000000   -0.4515975666000000   28.9964147692999994
   Bi   La   Sn   H 
    22    23    23     1
Selective dynamics
Direct
  0.7587585993057575  0.4795485831092044  0.3992697418942200   T   T   T
  0.6468322773881882  0.6848884262234686  0.5513286755217846   T   T   T
  0.3607320785107673  0.4577114697304187  0.4287174199113601   T   T   T
  0.5501171161777328  0.7132596986275707  0.5844452677168761   T   T   T
  0.5915029568994470  0.5209714444905416  0.5841479689498996   F   F   F
  0.6401329050612523  0.6800481165541690  0.4450726777584533   T   T   T
  0.6961752754106961  0.5222066471146971  0.6543357922560542   T   T   T
  0.4866436299985640  0.7014819672629987  0.4993631528669155   T   T   T
  0.5004839460855024  0.5502791173970252  0.5477141156400123   F   F   F
  0.3253597493060861  0.4862008448640823  0.5751919262055915   T   T   T
  0.3817345558376746  0.6102770433885317  0.5351631721940832   T   T   T
  0.6667129484492236  0.4827404655721850  0.5105018184570156   F   F   F
  0.5763997220267569  0.4263140504383500  0.5448328182496311   F   F   F
  0.6687351639016682  0.3744087202165516  0.5068518084222133   T   T   T
  0.4626932393796046  0.3381153922522731  0.5006897270159244   T   T   T
  0.6484934028780529  0.5775373212088155  0.4602701624361103   F   F   F
  0.5600323843228384  0.4362988356390773  0.7500253910714654   T   T   T
  0.6040004717329791  0.3511592018253887  0.6692251051807405   T   T   T
  0.4929484179485261  0.2977825805282938  0.4117739995502347   T   T   T
  0.6599409647715091  0.6180701239680712  0.6670790252048046   T   T   T
  0.4924095526041989  0.4097096657058056  0.3075608857180461   T   T   T
  0.6216575221637072  0.3161496141587112  0.5729702027933832   T   T   T
  0.5393551382185894  0.6836863840024832  0.4045768560826892   T   T   T
  0.3901815428418733  0.4149304517055667  0.5280852438251914   T   T   T
  0.6276808306240708  0.5526629547630484  0.2816128550466697   T   T   T
  0.4723980098404446  0.4714028921235493  0.6923574196700562   T   T   T
  0.5683115009887700  0.5094300495444983  0.4784716241115703   F   F   F
  0.4203210565129183  0.5084107200613417  0.5018573595042781   F   F   F
  0.4528089460319556  0.3997654723097190  0.4072369067087417   T   T   T
  0.5646435137281767  0.3483243671429956  0.3547807307362852   T   T   T
  0.4111887464229399  0.5405208017051818  0.6099276268184427   T   T   T
  0.6000110543316635  0.4383214365576568  0.3078122394897450   T   T   T
  0.4551940765184881  0.6001762516285039  0.3633552054171554   T   T   T
  0.4189357889743941  0.4868292457365179  0.3398152527045905   T   T   T
  0.6614357436468672  0.4275722285417454  0.6040635711430747   T   T   T
  0.6729607683276870  0.5789216880279479  0.5645076446502623   T   T   T
  0.5263194008641084  0.5094284342741062  0.3272981664062920   T   T   T
  0.5651463730183194  0.3570509277006418  0.4701731660449784   T   T   T
  0.3158528113211433  0.5410283578742465  0.4911290854047545   T   T   T
  0.6604925540923345  0.4282679136388602  0.4139520401111430   T   T   T
  0.5660841929594156  0.6261437171197244  0.5094829013827464   F   F   F
  0.5960421073128473  0.5284221778470105  0.6896987475133359   T   T   T
  0.4697402264088657  0.6416447618544732  0.5881502895529654   T   T   T
  0.4628733970676327  0.6035143692030794  0.4640857664257982   T   T   T
  0.7171285732558544  0.5759559828527674  0.3840929273736013   T   T   T
  0.5499310510395361  0.5822218838566187  0.4076968008106903   F   F   F
  0.4794126430662260  0.5072205383607624  0.4190535757241776   F   F   F
  0.6950449220996977  0.4844325117654037  0.3247949934870805   T   T   T
  0.7516010747725576  0.4299499263998926  0.4876235504900423   T   T   T
  0.7483231905791234  0.5392562467865393  0.4859302380829737   T   T   T
  0.7486098534297115  0.4906503296220528  0.5722206944233227   T   T   T
  0.6490887444177375  0.4368748087747775  0.7080237367000586   T   T   T
  0.5772284452752872  0.7433883440844006  0.4932094828731506   T   T   T
  0.6192554540844384  0.5183157687966542  0.3801816896793397   F   F   F
  0.5054559405462187  0.5600289639617151  0.6500982723924156   T   T   T
  0.4922009500451665  0.4366758245867572  0.4933013002826740   F   F   F
  0.5608844484509063  0.4404139570509003  0.6454865549417619   F   F   F
  0.5774547896515664  0.6165595110377065  0.6137528283333977   T   T   T
  0.5442234571972197  0.6174965372967880  0.3121655053199384   T   T   T
  0.6271598878744388  0.6248044006242205  0.3599296465072940   T   T   T
  0.3770079446312921  0.5565963923710430  0.4121389422371702   T   T   T
  0.4723078164089713  0.4557257050327763  0.5877273803360978   F   F   F
  0.7269201838869397  0.6360461652052557  0.4855004733701955   T   T   T
  0.5045768903219796  0.3692204432414949  0.6853039482495844   T   T   T
  0.3818158028405138  0.4417936958904837  0.6409771988055700   T   T   T
  0.5544592502646992  0.4379899399457940  0.4037542370104745   F   F   F
  0.4346656954493394  0.3639029319230957  0.6118111445645252   T   T   T
  0.5281848138500810  0.3491941973666086  0.5800682473725283   T   T   T
  0.6375097413854945  0.3801411083104315  0.3514451217919030   T   T   T
 
  0.00000000E+00  0.00000000E+00  0.00000000E+00
  0.00000000E+00  0.00000000E+00  0.00000000E+00
  0.00000000E+00  0.00000000E+00  0.00000000E+00
  0.00000000E+00  0.00000000E+00  0.00000000E+00
  0.00000000E+00  0.00000000E+00  0.00000000E+00
  0.00000000E+00  0.00000000E+00  0.00000000E+00
  0.00000000E+00  0.00000000E+00  0.00000000E+00
  0.00000000E+00  0.00000000E+00  0.00000000E+00
  0.00000000E+00  0.00000000E+00  0.00000000E+00
  0.00000000E+00  0.00000000E+00  0.00000000E+00
  0.00000000E+00  0.00000000E+00  0.00000000E+00
  0.00000000E+00  0.00000000E+00  0.00000000E+00
  0.00000000E+00  0.00000000E+00  0.00000000E+00
  0.00000000E+00  0.00000000E+00  0.00000000E+00
  0.00000000E+00  0.00000000E+00  0.00000000E+00
  0.00000000E+00  0.00000000E+00  0.00000000E+00
  0.00000000E+00  0.00000000E+00  0.00000000E+00
  0.00000000E+00  0.00000000E+00  0.00000000E+00
  0.00000000E+00  0.00000000E+00  0.00000000E+00
  0.00000000E+00  0.00000000E+00  0.00000000E+00
  0.00000000E+00  0.00000000E+00  0.00000000E+00
  0.00000000E+00  0.00000000E+00  0.00000000E+00
  0.00000000E+00  0.00000000E+00  0.00000000E+00
  0.00000000E+00  0.00000000E+00  0.00000000E+00
  0.00000000E+00  0.00000000E+00  0.00000000E+00
  0.00000000E+00  0.00000000E+00  0.00000000E+00
  0.00000000E+00  0.00000000E+00  0.00000000E+00
  0.00000000E+00  0.00000000E+00  0.00000000E+00
  0.00000000E+00  0.00000000E+00  0.00000000E+00
  0.00000000E+00  0.00000000E+00  0.00000000E+00
  0.00000000E+00  0.00000000E+00  0.00000000E+00
  0.00000000E+00  0.00000000E+00  0.00000000E+00
  0.00000000E+00  0.00000000E+00  0.00000000E+00
  0.00000000E+00  0.00000000E+00  0.00000000E+00
  0.00000000E+00  0.00000000E+00  0.00000000E+00
  0.00000000E+00  0.00000000E+00  0.00000000E+00
  0.00000000E+00  0.00000000E+00  0.00000000E+00
  0.00000000E+00  0.00000000E+00  0.00000000E+00
  0.00000000E+00  0.00000000E+00  0.00000000E+00
  0.00000000E+00  0.00000000E+00  0.00000000E+00
  0.00000000E+00  0.00000000E+00  0.00000000E+00
  0.00000000E+00  0.00000000E+00  0.00000000E+00
  0.00000000E+00  0.00000000E+00  0.00000000E+00
  0.00000000E+00  0.00000000E+00  0.00000000E+00
  0.00000000E+00  0.00000000E+00  0.00000000E+00
  0.00000000E+00  0.00000000E+00  0.00000000E+00
  0.00000000E+00  0.00000000E+00  0.00000000E+00
  0.00000000E+00  0.00000000E+00  0.00000000E+00
  0.00000000E+00  0.00000000E+00  0.00000000E+00
  0.00000000E+00  0.00000000E+00  0.00000000E+00
  0.00000000E+00  0.00000000E+00  0.00000000E+00
  0.00000000E+00  0.00000000E+00  0.00000000E+00
  0.00000000E+00  0.00000000E+00  0.00000000E+00
  0.00000000E+00  0.00000000E+00  0.00000000E+00
  0.00000000E+00  0.00000000E+00  0.00000000E+00
  0.00000000E+00  0.00000000E+00  0.00000000E+00
  0.00000000E+00  0.00000000E+00  0.00000000E+00
  0.00000000E+00  0.00000000E+00  0.00000000E+00
  0.00000000E+00  0.00000000E+00  0.00000000E+00
  0.00000000E+00  0.00000000E+00  0.00000000E+00
  0.00000000E+00  0.00000000E+00  0.00000000E+00
  0.00000000E+00  0.00000000E+00  0.00000000E+00
  0.00000000E+00  0.00000000E+00  0.00000000E+00
  0.00000000E+00  0.00000000E+00  0.00000000E+00
  0.00000000E+00  0.00000000E+00  0.00000000E+00
  0.00000000E+00  0.00000000E+00  0.00000000E+00
  0.00000000E+00  0.00000000E+00  0.00000000E+00
  0.00000000E+00  0.00000000E+00  0.00000000E+00
  0.00000000E+00  0.00000000E+00  0.00000000E+00
