Bi La Sn H                              
   1.00000000000000     
    29.0000000000000000    0.0000000000000000    0.0000000000000000
     0.2488180851000000   28.9989325590000000    0.0000000000000000
    -0.0631677343000000   -0.4515975666000000   28.9964147692999994
   Bi   La   Sn   H 
    22    23    23     1
Selective dynamics
Direct
  0.7626487850890755  0.4769243653283198  0.3943750073015770   T   T   T
  0.6484048593996460  0.6823407351377163  0.5521640135628423   T   T   T
  0.3596566101719486  0.4579238832661444  0.4289204123785565   T   T   T
  0.5517016231133572  0.7128422761156922  0.5839945542872462   T   T   T
  0.5915029568994470  0.5209714444905416  0.5841479689498996   F   F   F
  0.6413583643311408  0.6797848995545536  0.4462310172987599   T   T   T
  0.6971321468052096  0.5202960028728362  0.6543586513997189   T   T   T
  0.4868362922970212  0.7010153623148373  0.4987388314851472   T   T   T
  0.5004839460855024  0.5502791173970252  0.5477141156400123   F   F   F
  0.3252945533793332  0.4859286576895220  0.5746665747197797   T   T   T
  0.3822852956466269  0.6102920676135487  0.5348976227140897   T   T   T
  0.6667129484492236  0.4827404655721850  0.5105018184570156   F   F   F
  0.5763997220267569  0.4263140504383500  0.5448328182496311   F   F   F
  0.6718863063546979  0.3750025909295554  0.5072578630401342   T   T   T
  0.4647015615890292  0.3389119485386066  0.5000835598841896   T   T   T
  0.6484934028780529  0.5775373212088155  0.4602701624361103   F   F   F
  0.5597069283559452  0.4371743711573676  0.7491825210726581   T   T   T
  0.6052520155846495  0.3522107460656882  0.6686761036939757   T   T   T
  0.4941312284208247  0.2995769705266053  0.4104464087991473   T   T   T
  0.6617784306496206  0.6168413537748398  0.6654261731788573   T   T   T
  0.4919761798855326  0.4097322534225497  0.3071433650728158   T   T   T
  0.6227017181995699  0.3169007011639847  0.5722676702207838   T   T   T
  0.5401420272422011  0.6836023737945117  0.4042713117201832   T   T   T
  0.3908255459917809  0.4148287439960424  0.5280748555899502   T   T   T
  0.6276861789125830  0.5521404314498769  0.2815087075489283   T   T   T
  0.4721593166821292  0.4708525731705264  0.6914780944565042   T   T   T
  0.5683115009887700  0.5094300495444983  0.4784716241115703   F   F   F
  0.4203210565129183  0.5084107200613417  0.5018573595042781   F   F   F
  0.4523442695906410  0.4005904813271130  0.4069646427413768   T   T   T
  0.5651850006300890  0.3487662063641491  0.3540632708617852   T   T   T
  0.4108078982157239  0.5402942328468084  0.6097347202483182   T   T   T
  0.5980642722460981  0.4422178111283744  0.3045128419619214   T   T   T
  0.4549148553543694  0.6003929109873850  0.3633988350983297   T   T   T
  0.4182505055218059  0.4866605084518611  0.3404184954233527   T   T   T
  0.6610995014403103  0.4283182861647075  0.6041695560590188   T   T   T
  0.6752607467126638  0.5763677899358857  0.5634347496559273   T   T   T
  0.5260542735120712  0.5096127850363936  0.3280057675821171   T   T   T
  0.5680941057406215  0.3578307278523263  0.4688300870460050   T   T   T
  0.3152317925791692  0.5412167856656440  0.4911457610632203   T   T   T
  0.6619446595312233  0.4300809764394837  0.4156189035977210   T   T   T
  0.5660841929594156  0.6261437171197244  0.5094829013827464   F   F   F
  0.5959275840742796  0.5292836878027360  0.6895328771440975   T   T   T
  0.4701833054960851  0.6419796988215327  0.5877206042109169   T   T   T
  0.4630259446378624  0.6032249947978845  0.4634464043451091   T   T   T
  0.7165590568084397  0.5723942245381298  0.3830926540268116   T   T   T
  0.5499310510395361  0.5822218838566187  0.4076968008106903   F   F   F
  0.4794126430662260  0.5072205383607624  0.4190535757241776   F   F   F
  0.6944715287612451  0.4809206932646017  0.3232479623216989   T   T   T
  0.7536260034581267  0.4291866419002002  0.4826773031939278   T   T   T
  0.7492780160235579  0.5350575908019438  0.4816304393797197   T   T   T
  0.7496573647292482  0.4880025282531677  0.5688060684314010   T   T   T
  0.6500865821575782  0.4381087713978126  0.7091919617586951   T   T   T
  0.5779361956999900  0.7427332863363202  0.4931219409464228   T   T   T
  0.6192554540844384  0.5183157687966542  0.3801816896793397   F   F   F
  0.5051848370480537  0.5599880303180066  0.6498234307537997   T   T   T
  0.4922009500451665  0.4366758245867572  0.4933013002826740   F   F   F
  0.5608844484509063  0.4404139570509003  0.6454865549417619   F   F   F
  0.5783646035717689  0.6160846647661382  0.6133311413827737   T   T   T
  0.5439043425254736  0.6172720321072350  0.3118351845100400   T   T   T
  0.6270103149719878  0.6238215284835821  0.3606557277992417   T   T   T
  0.3768817142762929  0.5568185015953611  0.4126804645592242   T   T   T
  0.4723078164089713  0.4557257050327763  0.5877273803360978   F   F   F
  0.7283534430391446  0.6329667803750141  0.4838330772008491   T   T   T
  0.5054269968116719  0.3680384108087235  0.6862114418063118   T   T   T
  0.3815416626835531  0.4415704977809988  0.6406292597892538   T   T   T
  0.5544592502646992  0.4379899399457940  0.4037542370104745   F   F   F
  0.4355001967828733  0.3643684322118888  0.6122234479692056   T   T   T
  0.5289453188845781  0.3489153506985413  0.5804379459169221   T   T   T
  0.8056664513960157  0.3970882311394802  0.4849384225067937   T   T   T
 
  0.00000000E+00  0.00000000E+00  0.00000000E+00
  0.00000000E+00  0.00000000E+00  0.00000000E+00
  0.00000000E+00  0.00000000E+00  0.00000000E+00
  0.00000000E+00  0.00000000E+00  0.00000000E+00
  0.00000000E+00  0.00000000E+00  0.00000000E+00
  0.00000000E+00  0.00000000E+00  0.00000000E+00
  0.00000000E+00  0.00000000E+00  0.00000000E+00
  0.00000000E+00  0.00000000E+00  0.00000000E+00
  0.00000000E+00  0.00000000E+00  0.00000000E+00
  0.00000000E+00  0.00000000E+00  0.00000000E+00
  0.00000000E+00  0.00000000E+00  0.00000000E+00
  0.00000000E+00  0.00000000E+00  0.00000000E+00
  0.00000000E+00  0.00000000E+00  0.00000000E+00
  0.00000000E+00  0.00000000E+00  0.00000000E+00
  0.00000000E+00  0.00000000E+00  0.00000000E+00
  0.00000000E+00  0.00000000E+00  0.00000000E+00
  0.00000000E+00  0.00000000E+00  0.00000000E+00
  0.00000000E+00  0.00000000E+00  0.00000000E+00
  0.00000000E+00  0.00000000E+00  0.00000000E+00
  0.00000000E+00  0.00000000E+00  0.00000000E+00
  0.00000000E+00  0.00000000E+00  0.00000000E+00
  0.00000000E+00  0.00000000E+00  0.00000000E+00
  0.00000000E+00  0.00000000E+00  0.00000000E+00
  0.00000000E+00  0.00000000E+00  0.00000000E+00
  0.00000000E+00  0.00000000E+00  0.00000000E+00
  0.00000000E+00  0.00000000E+00  0.00000000E+00
  0.00000000E+00  0.00000000E+00  0.00000000E+00
  0.00000000E+00  0.00000000E+00  0.00000000E+00
  0.00000000E+00  0.00000000E+00  0.00000000E+00
  0.00000000E+00  0.00000000E+00  0.00000000E+00
  0.00000000E+00  0.00000000E+00  0.00000000E+00
  0.00000000E+00  0.00000000E+00  0.00000000E+00
  0.00000000E+00  0.00000000E+00  0.00000000E+00
  0.00000000E+00  0.00000000E+00  0.00000000E+00
  0.00000000E+00  0.00000000E+00  0.00000000E+00
  0.00000000E+00  0.00000000E+00  0.00000000E+00
  0.00000000E+00  0.00000000E+00  0.00000000E+00
  0.00000000E+00  0.00000000E+00  0.00000000E+00
  0.00000000E+00  0.00000000E+00  0.00000000E+00
  0.00000000E+00  0.00000000E+00  0.00000000E+00
  0.00000000E+00  0.00000000E+00  0.00000000E+00
  0.00000000E+00  0.00000000E+00  0.00000000E+00
  0.00000000E+00  0.00000000E+00  0.00000000E+00
  0.00000000E+00  0.00000000E+00  0.00000000E+00
  0.00000000E+00  0.00000000E+00  0.00000000E+00
  0.00000000E+00  0.00000000E+00  0.00000000E+00
  0.00000000E+00  0.00000000E+00  0.00000000E+00
  0.00000000E+00  0.00000000E+00  0.00000000E+00
  0.00000000E+00  0.00000000E+00  0.00000000E+00
  0.00000000E+00  0.00000000E+00  0.00000000E+00
  0.00000000E+00  0.00000000E+00  0.00000000E+00
  0.00000000E+00  0.00000000E+00  0.00000000E+00
  0.00000000E+00  0.00000000E+00  0.00000000E+00
  0.00000000E+00  0.00000000E+00  0.00000000E+00
  0.00000000E+00  0.00000000E+00  0.00000000E+00
  0.00000000E+00  0.00000000E+00  0.00000000E+00
  0.00000000E+00  0.00000000E+00  0.00000000E+00
  0.00000000E+00  0.00000000E+00  0.00000000E+00
  0.00000000E+00  0.00000000E+00  0.00000000E+00
  0.00000000E+00  0.00000000E+00  0.00000000E+00
  0.00000000E+00  0.00000000E+00  0.00000000E+00
  0.00000000E+00  0.00000000E+00  0.00000000E+00
  0.00000000E+00  0.00000000E+00  0.00000000E+00
  0.00000000E+00  0.00000000E+00  0.00000000E+00
  0.00000000E+00  0.00000000E+00  0.00000000E+00
  0.00000000E+00  0.00000000E+00  0.00000000E+00
  0.00000000E+00  0.00000000E+00  0.00000000E+00
  0.00000000E+00  0.00000000E+00  0.00000000E+00
  0.00000000E+00  0.00000000E+00  0.00000000E+00
