Bi La Sn H                              
   1.00000000000000     
    29.0000000000000000    0.0000000000000000    0.0000000000000000
     0.2488180851000000   28.9989325590000000    0.0000000000000000
    -0.0631677343000000   -0.4515975666000000   28.9964147692999994
   Bi   La   Sn   H 
    22    23    23     1
Selective dynamics
Direct
  0.7602074384840297  0.4773056028119444  0.3988609697207294   T   T   T
  0.6465416981728761  0.6845470705643668  0.5524798275204509   T   T   T
  0.3603186258531076  0.4582395097171481  0.4285219060275761   T   T   T
  0.5498243644014910  0.7131565787972609  0.5844287976047731   T   T   T
  0.5915029568994470  0.5209714444905416  0.5841479689498996   F   F   F
  0.6401352510377115  0.6805765967845694  0.4457981232964412   T   T   T
  0.6959390613912785  0.5229326507515275  0.6536487692141482   T   T   T
  0.4867521514776040  0.7016647102025643  0.4990156797839494   T   T   T
  0.5004839460855024  0.5502791173970252  0.5477141156400123   F   F   F
  0.3250215515105671  0.4861401185357410  0.5748768884817930   T   T   T
  0.3813520343011135  0.6102158924964197  0.5349503175009187   T   T   T
  0.6667129484492236  0.4827404655721850  0.5105018184570156   F   F   F
  0.5763997220267569  0.4263140504383500  0.5448328182496311   F   F   F
  0.6684627974925849  0.3740789478247205  0.5060216636221515   T   T   T
  0.4627696958043455  0.3385523416962114  0.4988958760978848   T   T   T
  0.6484934028780529  0.5775373212088155  0.4602701624361103   F   F   F
  0.5595462712507479  0.4368377788356445  0.7492886065694678   T   T   T
  0.6044859609647033  0.3520661347320352  0.6691216214442940   T   T   T
  0.4926929739391620  0.3000602437054485  0.4082654423467098   T   T   T
  0.6596272662859209  0.6189881228147883  0.6658027844664907   T   T   T
  0.4919763319322337  0.4093703599851575  0.3048936885327300   T   T   T
  0.6216914261352636  0.3169852804791904  0.5727156105669582   T   T   T
  0.5396164141938291  0.6834915880487463  0.4044208293279500   T   T   T
  0.3904161587989968  0.4152505328729295  0.5280714748662445   T   T   T
  0.6287790807230527  0.5517773713812900  0.2821524005484847   T   T   T
  0.4716562656272085  0.4707769516885509  0.6919944325257853   T   T   T
  0.5683115009887700  0.5094300495444983  0.4784716241115703   F   F   F
  0.4203210565129183  0.5084107200613417  0.5018573595042781   F   F   F
  0.4526655330899287  0.4014198334068648  0.4070258132948836   T   T   T
  0.5655872195225127  0.3492265430866711  0.3542398428973189   T   T   T
  0.4108711754423173  0.5402906178140702  0.6095472227637788   T   T   T
  0.5998690961277092  0.4418559821682202  0.3058386247500043   T   T   T
  0.4548865702980454  0.5994304460214861  0.3629164662342089   T   T   T
  0.4177804499639682  0.4880570166858575  0.3397471208895906   T   T   T
  0.6612084784871655  0.4288333943714382  0.6040652970034706   T   T   T
  0.6728142639291197  0.5789353516628813  0.5636842778083446   T   T   T
  0.5260306014975803  0.5087992845608998  0.3284674765844321   T   T   T
  0.5656179241519385  0.3567188906721399  0.4696803764940478   T   T   T
  0.3151317747121037  0.5411242817135854  0.4912270426564010   T   T   T
  0.6609421879558617  0.4298112598255864  0.4154749083696612   T   T   T
  0.5660841929594156  0.6261437171197244  0.5094829013827464   F   F   F
  0.5958413334605985  0.5290139364225386  0.6895009020693388   T   T   T
  0.4693840272301215  0.6414099783051884  0.5877084631775525   T   T   T
  0.4630308864270775  0.6036774635119311  0.4640397907935466   T   T   T
  0.7165848793544237  0.5729953207617114  0.3834076264093836   T   T   T
  0.5499310510395361  0.5822218838566187  0.4076968008106903   F   F   F
  0.4794126430662260  0.5072205383607624  0.4190535757241776   F   F   F
  0.6957811407394839  0.4810023472732262  0.3239194979214463   T   T   T
  0.7518838880543132  0.4293269876385358  0.4884406774755145   T   T   T
  0.7483453928792466  0.5379345386550127  0.4847896810028770   T   T   T
  0.7493173271348279  0.4909554471892003  0.5720761318333953   T   T   T
  0.6495600608260663  0.4375511181187270  0.7086790517029056   T   T   T
  0.5774115748420549  0.7438626952976728  0.4935044258417826   T   T   T
  0.6192554540844384  0.5183157687966542  0.3801816896793397   F   F   F
  0.5045405320947990  0.5598593509810932  0.6503300766440983   T   T   T
  0.4922009500451665  0.4366758245867572  0.4933013002826740   F   F   F
  0.5608844484509063  0.4404139570509003  0.6454865549417619   F   F   F
  0.5765097982969911  0.6161943646909634  0.6136271259840370   T   T   T
  0.5444980128057946  0.6160139534788184  0.3122479869893381   T   T   T
  0.6275917971476669  0.6245255251567979  0.3605130001440480   T   T   T
  0.3766406541934232  0.5570855490164552  0.4128048228585839   T   T   T
  0.4723078164089713  0.4557257050327763  0.5877273803360978   F   F   F
  0.7267934980967758  0.6353406980642385  0.4839085636698394   T   T   T
  0.5044980145450231  0.3686867856227221  0.6854010511689070   T   T   T
  0.3809043883220676  0.4418132258502311  0.6409091911437182   T   T   T
  0.5544592502646992  0.4379899399457940  0.4037542370104745   F   F   F
  0.4346125793421443  0.3644541471305650  0.6117974913309063   T   T   T
  0.5274789546908399  0.3496702919833568  0.5792090862569587   T   T   T
  0.4615915103759239  0.3782664702344483  0.2582159612586994   T   T   T
 
  0.00000000E+00  0.00000000E+00  0.00000000E+00
  0.00000000E+00  0.00000000E+00  0.00000000E+00
  0.00000000E+00  0.00000000E+00  0.00000000E+00
  0.00000000E+00  0.00000000E+00  0.00000000E+00
  0.00000000E+00  0.00000000E+00  0.00000000E+00
  0.00000000E+00  0.00000000E+00  0.00000000E+00
  0.00000000E+00  0.00000000E+00  0.00000000E+00
  0.00000000E+00  0.00000000E+00  0.00000000E+00
  0.00000000E+00  0.00000000E+00  0.00000000E+00
  0.00000000E+00  0.00000000E+00  0.00000000E+00
  0.00000000E+00  0.00000000E+00  0.00000000E+00
  0.00000000E+00  0.00000000E+00  0.00000000E+00
  0.00000000E+00  0.00000000E+00  0.00000000E+00
  0.00000000E+00  0.00000000E+00  0.00000000E+00
  0.00000000E+00  0.00000000E+00  0.00000000E+00
  0.00000000E+00  0.00000000E+00  0.00000000E+00
  0.00000000E+00  0.00000000E+00  0.00000000E+00
  0.00000000E+00  0.00000000E+00  0.00000000E+00
  0.00000000E+00  0.00000000E+00  0.00000000E+00
  0.00000000E+00  0.00000000E+00  0.00000000E+00
  0.00000000E+00  0.00000000E+00  0.00000000E+00
  0.00000000E+00  0.00000000E+00  0.00000000E+00
  0.00000000E+00  0.00000000E+00  0.00000000E+00
  0.00000000E+00  0.00000000E+00  0.00000000E+00
  0.00000000E+00  0.00000000E+00  0.00000000E+00
  0.00000000E+00  0.00000000E+00  0.00000000E+00
  0.00000000E+00  0.00000000E+00  0.00000000E+00
  0.00000000E+00  0.00000000E+00  0.00000000E+00
  0.00000000E+00  0.00000000E+00  0.00000000E+00
  0.00000000E+00  0.00000000E+00  0.00000000E+00
  0.00000000E+00  0.00000000E+00  0.00000000E+00
  0.00000000E+00  0.00000000E+00  0.00000000E+00
  0.00000000E+00  0.00000000E+00  0.00000000E+00
  0.00000000E+00  0.00000000E+00  0.00000000E+00
  0.00000000E+00  0.00000000E+00  0.00000000E+00
  0.00000000E+00  0.00000000E+00  0.00000000E+00
  0.00000000E+00  0.00000000E+00  0.00000000E+00
  0.00000000E+00  0.00000000E+00  0.00000000E+00
  0.00000000E+00  0.00000000E+00  0.00000000E+00
  0.00000000E+00  0.00000000E+00  0.00000000E+00
  0.00000000E+00  0.00000000E+00  0.00000000E+00
  0.00000000E+00  0.00000000E+00  0.00000000E+00
  0.00000000E+00  0.00000000E+00  0.00000000E+00
  0.00000000E+00  0.00000000E+00  0.00000000E+00
  0.00000000E+00  0.00000000E+00  0.00000000E+00
  0.00000000E+00  0.00000000E+00  0.00000000E+00
  0.00000000E+00  0.00000000E+00  0.00000000E+00
  0.00000000E+00  0.00000000E+00  0.00000000E+00
  0.00000000E+00  0.00000000E+00  0.00000000E+00
  0.00000000E+00  0.00000000E+00  0.00000000E+00
  0.00000000E+00  0.00000000E+00  0.00000000E+00
  0.00000000E+00  0.00000000E+00  0.00000000E+00
  0.00000000E+00  0.00000000E+00  0.00000000E+00
  0.00000000E+00  0.00000000E+00  0.00000000E+00
  0.00000000E+00  0.00000000E+00  0.00000000E+00
  0.00000000E+00  0.00000000E+00  0.00000000E+00
  0.00000000E+00  0.00000000E+00  0.00000000E+00
  0.00000000E+00  0.00000000E+00  0.00000000E+00
  0.00000000E+00  0.00000000E+00  0.00000000E+00
  0.00000000E+00  0.00000000E+00  0.00000000E+00
  0.00000000E+00  0.00000000E+00  0.00000000E+00
  0.00000000E+00  0.00000000E+00  0.00000000E+00
  0.00000000E+00  0.00000000E+00  0.00000000E+00
  0.00000000E+00  0.00000000E+00  0.00000000E+00
  0.00000000E+00  0.00000000E+00  0.00000000E+00
  0.00000000E+00  0.00000000E+00  0.00000000E+00
  0.00000000E+00  0.00000000E+00  0.00000000E+00
  0.00000000E+00  0.00000000E+00  0.00000000E+00
  0.00000000E+00  0.00000000E+00  0.00000000E+00
