Bi La Sn H                              
   1.00000000000000     
    29.0000000000000000    0.0000000000000000    0.0000000000000000
     0.2488180851000000   28.9989325590000000    0.0000000000000000
    -0.0631677343000000   -0.4515975666000000   28.9964147692999994
   Bi   La   Sn   H 
    22    23    23     1
Selective dynamics
Direct
  0.7592265377963359  0.4798326860124436  0.3989418151595729   T   T   T
  0.6481412471278478  0.6852964057182778  0.5495486515527330   T   T   T
  0.3603569314082677  0.4580584100384145  0.4277699416391250   T   T   T
  0.5506244789927387  0.7135927005280731  0.5834473804306175   T   T   T
  0.5915029568994470  0.5209714444905416  0.5841479689498996   F   F   F
  0.6396388557426690  0.6797730559385965  0.4444447763026630   T   T   T
  0.6946696595466235  0.5198110180378036  0.6534884058496201   T   T   T
  0.4868747532963432  0.7018460751916855  0.4987358518529934   T   T   T
  0.5004839460855024  0.5502791173970252  0.5477141156400123   F   F   F
  0.3277013152069781  0.4849947354287736  0.5772393722858628   T   T   T
  0.3818334321446265  0.6091640470550346  0.5362685187047810   T   T   T
  0.6667129484492236  0.4827404655721850  0.5105018184570156   F   F   F
  0.5763997220267569  0.4263140504383500  0.5448328182496311   F   F   F
  0.6693354620250760  0.3744503962330881  0.5055087964695072   T   T   T
  0.4616499397152921  0.3380898495685306  0.4953805511566574   T   T   T
  0.6484934028780529  0.5775373212088155  0.4602701624361103   F   F   F
  0.5547644000992332  0.4341089937122337  0.7501165090489371   T   T   T
  0.5916597121237600  0.3477087174948814  0.6636004014435110   T   T   T
  0.4936835874215684  0.2998397052667894  0.4067877682652521   T   T   T
  0.6600278818799654  0.6154348183376323  0.6684671719850532   T   T   T
  0.4915093461105888  0.4104091094899393  0.3038901601027614   T   T   T
  0.6226844125038131  0.3153497959441621  0.5705814720771410   T   T   T
  0.5386681101027886  0.6836880315482606  0.4038507685952278   T   T   T
  0.3901506725427893  0.4147723612784756  0.5256966799617914   T   T   T
  0.6265938872043814  0.5520114242216747  0.2821951883453138   T   T   T
  0.4735605541060021  0.4794606661423154  0.6934767060668106   T   T   T
  0.5683115009887700  0.5094300495444983  0.4784716241115703   F   F   F
  0.4203210565129183  0.5084107200613417  0.5018573595042781   F   F   F
  0.4527877776329867  0.4016541757762777  0.4043388195839598   T   T   T
  0.5633709158687369  0.3505045544712920  0.3516815892967796   T   T   T
  0.4129484503097549  0.5400139015504127  0.6112683541878833   T   T   T
  0.6001677866561339  0.4407398813605071  0.3048563986716199   T   T   T
  0.4545912095457864  0.5995275666635235  0.3640769384966157   T   T   T
  0.4185244603474824  0.4876579083609617  0.3396531481181704   T   T   T
  0.6614331547968890  0.4255862777031016  0.6037451416140646   T   T   T
  0.6736338706724372  0.5793987509997017  0.5642476579739294   T   T   T
  0.5255322512246166  0.5091822160069009  0.3281126055266774   T   T   T
  0.5661845560327449  0.3568677750968694  0.4692234268484875   T   T   T
  0.3155345627441268  0.5397505010894988  0.4929298216940479   T   T   T
  0.6607082362830694  0.4294546942926428  0.4145081355363703   T   T   T
  0.5660841929594156  0.6261437171197244  0.5094829013827464   F   F   F
  0.5955710039107451  0.5259727826749808  0.6901379830027073   T   T   T
  0.4696996663296630  0.6428480223098654  0.5871162186690414   T   T   T
  0.4628086351897199  0.6035517648306735  0.4645566468475932   T   T   T
  0.7158827103956295  0.5750624048624452  0.3832307024187266   T   T   T
  0.5499310510395361  0.5822218838566187  0.4076968008106903   F   F   F
  0.4794126430662260  0.5072205383607624  0.4190535757241776   F   F   F
  0.6951362959955641  0.4824217149531292  0.3237277741705347   T   T   T
  0.7520889473143445  0.4301924717975751  0.4868479610950880   T   T   T
  0.7482988393858365  0.5390117709127658  0.4858673496905149   T   T   T
  0.7484047592359798  0.4899090061024121  0.5723074900939764   T   T   T
  0.6430188248957498  0.4284805934440319  0.7077275136710512   T   T   T
  0.5776431649645155  0.7439092371054178  0.4925525531497674   T   T   T
  0.6192554540844384  0.5183157687966542  0.3801816896793397   F   F   F
  0.5074763617238710  0.5656805039618533  0.6501389737407055   T   T   T
  0.4922009500451665  0.4366758245867572  0.4933013002826740   F   F   F
  0.5608844484509063  0.4404139570509003  0.6454865549417619   F   F   F
  0.5790265634650144  0.6176579274052633  0.6129954244286840   T   T   T
  0.5426911415619406  0.6172009367404158  0.3115329641914897   T   T   T
  0.6260196809354178  0.6254144864292337  0.3593645540456342   T   T   T
  0.3757598061427110  0.5570269354174039  0.4133844037529918   T   T   T
  0.4723078164089713  0.4557257050327763  0.5877273803360978   F   F   F
  0.7269463786252525  0.6358350267519538  0.4840883581233348   T   T   T
  0.4910762629243057  0.3763734343441723  0.6828442857276295   T   T   T
  0.3867504217605554  0.4385819196851156  0.6407447371515348   T   T   T
  0.5544592502646992  0.4379899399457940  0.4037542370104745   F   F   F
  0.4338207041615004  0.3593614656057499  0.6038504957394553   T   T   T
  0.5275261017576508  0.3483832816726821  0.5753330999699093   T   T   T
  0.4464883079054138  0.4094739461276591  0.7213624060456862   T   T   T
 
  0.00000000E+00  0.00000000E+00  0.00000000E+00
  0.00000000E+00  0.00000000E+00  0.00000000E+00
  0.00000000E+00  0.00000000E+00  0.00000000E+00
  0.00000000E+00  0.00000000E+00  0.00000000E+00
  0.00000000E+00  0.00000000E+00  0.00000000E+00
  0.00000000E+00  0.00000000E+00  0.00000000E+00
  0.00000000E+00  0.00000000E+00  0.00000000E+00
  0.00000000E+00  0.00000000E+00  0.00000000E+00
  0.00000000E+00  0.00000000E+00  0.00000000E+00
  0.00000000E+00  0.00000000E+00  0.00000000E+00
  0.00000000E+00  0.00000000E+00  0.00000000E+00
  0.00000000E+00  0.00000000E+00  0.00000000E+00
  0.00000000E+00  0.00000000E+00  0.00000000E+00
  0.00000000E+00  0.00000000E+00  0.00000000E+00
  0.00000000E+00  0.00000000E+00  0.00000000E+00
  0.00000000E+00  0.00000000E+00  0.00000000E+00
  0.00000000E+00  0.00000000E+00  0.00000000E+00
  0.00000000E+00  0.00000000E+00  0.00000000E+00
  0.00000000E+00  0.00000000E+00  0.00000000E+00
  0.00000000E+00  0.00000000E+00  0.00000000E+00
  0.00000000E+00  0.00000000E+00  0.00000000E+00
  0.00000000E+00  0.00000000E+00  0.00000000E+00
  0.00000000E+00  0.00000000E+00  0.00000000E+00
  0.00000000E+00  0.00000000E+00  0.00000000E+00
  0.00000000E+00  0.00000000E+00  0.00000000E+00
  0.00000000E+00  0.00000000E+00  0.00000000E+00
  0.00000000E+00  0.00000000E+00  0.00000000E+00
  0.00000000E+00  0.00000000E+00  0.00000000E+00
  0.00000000E+00  0.00000000E+00  0.00000000E+00
  0.00000000E+00  0.00000000E+00  0.00000000E+00
  0.00000000E+00  0.00000000E+00  0.00000000E+00
  0.00000000E+00  0.00000000E+00  0.00000000E+00
  0.00000000E+00  0.00000000E+00  0.00000000E+00
  0.00000000E+00  0.00000000E+00  0.00000000E+00
  0.00000000E+00  0.00000000E+00  0.00000000E+00
  0.00000000E+00  0.00000000E+00  0.00000000E+00
  0.00000000E+00  0.00000000E+00  0.00000000E+00
  0.00000000E+00  0.00000000E+00  0.00000000E+00
  0.00000000E+00  0.00000000E+00  0.00000000E+00
  0.00000000E+00  0.00000000E+00  0.00000000E+00
  0.00000000E+00  0.00000000E+00  0.00000000E+00
  0.00000000E+00  0.00000000E+00  0.00000000E+00
  0.00000000E+00  0.00000000E+00  0.00000000E+00
  0.00000000E+00  0.00000000E+00  0.00000000E+00
  0.00000000E+00  0.00000000E+00  0.00000000E+00
  0.00000000E+00  0.00000000E+00  0.00000000E+00
  0.00000000E+00  0.00000000E+00  0.00000000E+00
  0.00000000E+00  0.00000000E+00  0.00000000E+00
  0.00000000E+00  0.00000000E+00  0.00000000E+00
  0.00000000E+00  0.00000000E+00  0.00000000E+00
  0.00000000E+00  0.00000000E+00  0.00000000E+00
  0.00000000E+00  0.00000000E+00  0.00000000E+00
  0.00000000E+00  0.00000000E+00  0.00000000E+00
  0.00000000E+00  0.00000000E+00  0.00000000E+00
  0.00000000E+00  0.00000000E+00  0.00000000E+00
  0.00000000E+00  0.00000000E+00  0.00000000E+00
  0.00000000E+00  0.00000000E+00  0.00000000E+00
  0.00000000E+00  0.00000000E+00  0.00000000E+00
  0.00000000E+00  0.00000000E+00  0.00000000E+00
  0.00000000E+00  0.00000000E+00  0.00000000E+00
  0.00000000E+00  0.00000000E+00  0.00000000E+00
  0.00000000E+00  0.00000000E+00  0.00000000E+00
  0.00000000E+00  0.00000000E+00  0.00000000E+00
  0.00000000E+00  0.00000000E+00  0.00000000E+00
  0.00000000E+00  0.00000000E+00  0.00000000E+00
  0.00000000E+00  0.00000000E+00  0.00000000E+00
  0.00000000E+00  0.00000000E+00  0.00000000E+00
  0.00000000E+00  0.00000000E+00  0.00000000E+00
  0.00000000E+00  0.00000000E+00  0.00000000E+00
