Bi La Sn H                              
   1.00000000000000     
    29.0000000000000000    0.0000000000000000    0.0000000000000000
     0.2488180851000000   28.9989325590000000    0.0000000000000000
    -0.0631677343000000   -0.4515975666000000   28.9964147692999994
   Bi   La   Sn   H 
    22    23    23     1
Selective dynamics
Direct
  0.7595413889172953  0.4791552363557051  0.3987185658126692   T   T   T
  0.6467422049610145  0.6866408680629312  0.5492642164809379   T   T   T
  0.3604613177305979  0.4587837677033838  0.4282717804333572   T   T   T
  0.5493058512227277  0.7123181562267006  0.5835443076146177   T   T   T
  0.5915029568994470  0.5209714444905416  0.5841479689498996   F   F   F
  0.6398893029761720  0.6798471665066705  0.4434188292343380   T   T   T
  0.6951476015318768  0.5221563554333098  0.6536099151913003   T   T   T
  0.4844963125626551  0.7019046513300471  0.4999776988658355   T   T   T
  0.5004839460855024  0.5502791173970252  0.5477141156400123   F   F   F
  0.3254683239888860  0.4864279632584240  0.5748304502184579   T   T   T
  0.3821178304960978  0.6105481751802483  0.5344952990977173   T   T   T
  0.6667129484492236  0.4827404655721850  0.5105018184570156   F   F   F
  0.5763997220267569  0.4263140504383500  0.5448328182496311   F   F   F
  0.6696140150584945  0.3742089964296985  0.5056900163667174   T   T   T
  0.4639049948583046  0.3392535077579720  0.5003960061604795   T   T   T
  0.6484934028780529  0.5775373212088155  0.4602701624361103   F   F   F
  0.5587341508041375  0.4358218110520268  0.7499085905405440   T   T   T
  0.6022286431880152  0.3511121684999537  0.6690857248741058   T   T   T
  0.4921773015828474  0.2991603426712525  0.4109078137256611   T   T   T
  0.6590025171744567  0.6178962667541265  0.6674112868761932   T   T   T
  0.4914724058764937  0.4098309696093656  0.3060351701259822   T   T   T
  0.6220512383407156  0.3175608038683657  0.5725250077286785   T   T   T
  0.5389643412047106  0.6833192102075322  0.4039669087653602   T   T   T
  0.3903682237424936  0.4152144148510639  0.5277618758859948   T   T   T
  0.6280673354942268  0.5506964842084084  0.2815150594668077   T   T   T
  0.4718789995528702  0.4724875347916733  0.6920320371477315   T   T   T
  0.5683115009887700  0.5094300495444983  0.4784716241115703   F   F   F
  0.4203210565129183  0.5084107200613417  0.5018573595042781   F   F   F
  0.4523073107582347  0.4008043294383952  0.4065542285117964   T   T   T
  0.5624765547848589  0.3485369533110309  0.3544301613472777   T   T   T
  0.4110590313318485  0.5406931030000860  0.6094018514591665   T   T   T
  0.5989677313039963  0.4414032003528021  0.3043708374164263   T   T   T
  0.4550127077524754  0.6003309782290932  0.3625515474187556   T   T   T
  0.4186022015031026  0.4873573018943247  0.3394360886641164   T   T   T
  0.6612814477240725  0.4277323132454787  0.6040451825654469   T   T   T
  0.6725208020604949  0.5804331642904194  0.5642089059257839   T   T   T
  0.5262764077167206  0.5089666066233556  0.3280079103641723   T   T   T
  0.5665427198256281  0.3579608144681496  0.4690586726080018   T   T   T
  0.3156056109155521  0.5416629602705909  0.4911194610079129   T   T   T
  0.6604903323424006  0.4300853736536936  0.4150610934542802   T   T   T
  0.5660841929594156  0.6261437171197244  0.5094829013827464   F   F   F
  0.5952643759000371  0.5283682274747603  0.6900499067575910   T   T   T
  0.4697115467404820  0.6415877290565656  0.5884236457850470   T   T   T
  0.4640994762501763  0.6036609363816272  0.4642080820541352   T   T   T
  0.7161468835613249  0.5743669152996539  0.3827634309236392   T   T   T
  0.5499310510395361  0.5822218838566187  0.4076968008106903   F   F   F
  0.4794126430662260  0.5072205383607624  0.4190535757241776   F   F   F
  0.6953506052140216  0.4808530992754785  0.3236096927910502   T   T   T
  0.7519349503406098  0.4303875273216067  0.4876771141375578   T   T   T
  0.7475390577925022  0.5392842958235655  0.4848246537311903   T   T   T
  0.7484839809084889  0.4920251051011523  0.5721193956395614   T   T   T
  0.6482107346787731  0.4363868619535785  0.7083051404200525   T   T   T
  0.5750201908272898  0.7428808123377774  0.4888826276142424   T   T   T
  0.6192554540844384  0.5183157687966542  0.3801816896793397   F   F   F
  0.5048956856019042  0.5609163020471679  0.6503958732063239   T   T   T
  0.4922009500451665  0.4366758245867572  0.4933013002826740   F   F   F
  0.5608844484509063  0.4404139570509003  0.6454865549417619   F   F   F
  0.5770304696039942  0.6167295110956417  0.6138876020325772   T   T   T
  0.5435353498123775  0.6162480297076073  0.3110650381234983   T   T   T
  0.6265306751275763  0.6236299533219254  0.3588222805380385   T   T   T
  0.3774833212730607  0.5570063772283089  0.4126882870354429   T   T   T
  0.4723078164089713  0.4557257050327763  0.5877273803360978   F   F   F
  0.7262479316836786  0.6363626564864495  0.4843219490913654   T   T   T
  0.5027132305179666  0.3699352406697448  0.6860116053549665   T   T   T
  0.3812841625149180  0.4419947161664682  0.6411079120567174   T   T   T
  0.5544592502646992  0.4379899399457940  0.4037542370104745   F   F   F
  0.4341210568799708  0.3643821937696033  0.6115352063187336   T   T   T
  0.5280439717577091  0.3495848720619983  0.5805404610838776   T   T   T
  0.5843130081212055  0.7961440487162936  0.5170487502531971   T   T   T
 
  0.00000000E+00  0.00000000E+00  0.00000000E+00
  0.00000000E+00  0.00000000E+00  0.00000000E+00
  0.00000000E+00  0.00000000E+00  0.00000000E+00
  0.00000000E+00  0.00000000E+00  0.00000000E+00
  0.00000000E+00  0.00000000E+00  0.00000000E+00
  0.00000000E+00  0.00000000E+00  0.00000000E+00
  0.00000000E+00  0.00000000E+00  0.00000000E+00
  0.00000000E+00  0.00000000E+00  0.00000000E+00
  0.00000000E+00  0.00000000E+00  0.00000000E+00
  0.00000000E+00  0.00000000E+00  0.00000000E+00
  0.00000000E+00  0.00000000E+00  0.00000000E+00
  0.00000000E+00  0.00000000E+00  0.00000000E+00
  0.00000000E+00  0.00000000E+00  0.00000000E+00
  0.00000000E+00  0.00000000E+00  0.00000000E+00
  0.00000000E+00  0.00000000E+00  0.00000000E+00
  0.00000000E+00  0.00000000E+00  0.00000000E+00
  0.00000000E+00  0.00000000E+00  0.00000000E+00
  0.00000000E+00  0.00000000E+00  0.00000000E+00
  0.00000000E+00  0.00000000E+00  0.00000000E+00
  0.00000000E+00  0.00000000E+00  0.00000000E+00
  0.00000000E+00  0.00000000E+00  0.00000000E+00
  0.00000000E+00  0.00000000E+00  0.00000000E+00
  0.00000000E+00  0.00000000E+00  0.00000000E+00
  0.00000000E+00  0.00000000E+00  0.00000000E+00
  0.00000000E+00  0.00000000E+00  0.00000000E+00
  0.00000000E+00  0.00000000E+00  0.00000000E+00
  0.00000000E+00  0.00000000E+00  0.00000000E+00
  0.00000000E+00  0.00000000E+00  0.00000000E+00
  0.00000000E+00  0.00000000E+00  0.00000000E+00
  0.00000000E+00  0.00000000E+00  0.00000000E+00
  0.00000000E+00  0.00000000E+00  0.00000000E+00
  0.00000000E+00  0.00000000E+00  0.00000000E+00
  0.00000000E+00  0.00000000E+00  0.00000000E+00
  0.00000000E+00  0.00000000E+00  0.00000000E+00
  0.00000000E+00  0.00000000E+00  0.00000000E+00
  0.00000000E+00  0.00000000E+00  0.00000000E+00
  0.00000000E+00  0.00000000E+00  0.00000000E+00
  0.00000000E+00  0.00000000E+00  0.00000000E+00
  0.00000000E+00  0.00000000E+00  0.00000000E+00
  0.00000000E+00  0.00000000E+00  0.00000000E+00
  0.00000000E+00  0.00000000E+00  0.00000000E+00
  0.00000000E+00  0.00000000E+00  0.00000000E+00
  0.00000000E+00  0.00000000E+00  0.00000000E+00
  0.00000000E+00  0.00000000E+00  0.00000000E+00
  0.00000000E+00  0.00000000E+00  0.00000000E+00
  0.00000000E+00  0.00000000E+00  0.00000000E+00
  0.00000000E+00  0.00000000E+00  0.00000000E+00
  0.00000000E+00  0.00000000E+00  0.00000000E+00
  0.00000000E+00  0.00000000E+00  0.00000000E+00
  0.00000000E+00  0.00000000E+00  0.00000000E+00
  0.00000000E+00  0.00000000E+00  0.00000000E+00
  0.00000000E+00  0.00000000E+00  0.00000000E+00
  0.00000000E+00  0.00000000E+00  0.00000000E+00
  0.00000000E+00  0.00000000E+00  0.00000000E+00
  0.00000000E+00  0.00000000E+00  0.00000000E+00
  0.00000000E+00  0.00000000E+00  0.00000000E+00
  0.00000000E+00  0.00000000E+00  0.00000000E+00
  0.00000000E+00  0.00000000E+00  0.00000000E+00
  0.00000000E+00  0.00000000E+00  0.00000000E+00
  0.00000000E+00  0.00000000E+00  0.00000000E+00
  0.00000000E+00  0.00000000E+00  0.00000000E+00
  0.00000000E+00  0.00000000E+00  0.00000000E+00
  0.00000000E+00  0.00000000E+00  0.00000000E+00
  0.00000000E+00  0.00000000E+00  0.00000000E+00
  0.00000000E+00  0.00000000E+00  0.00000000E+00
  0.00000000E+00  0.00000000E+00  0.00000000E+00
  0.00000000E+00  0.00000000E+00  0.00000000E+00
  0.00000000E+00  0.00000000E+00  0.00000000E+00
  0.00000000E+00  0.00000000E+00  0.00000000E+00
