Bi La Sn H                              
   1.00000000000000     
    29.0000000000000000    0.0000000000000000    0.0000000000000000
     0.2488180851000000   28.9989325590000000    0.0000000000000000
    -0.0631677343000000   -0.4515975666000000   28.9964147692999994
   Bi   La   Sn   H 
    22    23    23     1
Selective dynamics
Direct
  0.7572055611777786  0.4819182017693141  0.3994349466408101   T   T   T
  0.6464983987806194  0.6862294218752243  0.5480141021394564   T   T   T
  0.3618449125202754  0.4582584691795098  0.4271731747794229   T   T   T
  0.5493841796989477  0.7138708934077569  0.5842170803800366   T   T   T
  0.5915029568994470  0.5209714444905416  0.5841479689498996   F   F   F
  0.6363634702819135  0.6756218811067399  0.4378527891112291   T   T   T
  0.6966138804847239  0.5231142068228416  0.6526517979974460   T   T   T
  0.4857782789611554  0.7016045634729851  0.5010838846910641   T   T   T
  0.5004839460855024  0.5502791173970252  0.5477141156400123   F   F   F
  0.3257242577789092  0.4857985468019851  0.5764406464388020   T   T   T
  0.3820774730358869  0.6096536984626114  0.5362025312870642   T   T   T
  0.6667129484492236  0.4827404655721850  0.5105018184570156   F   F   F
  0.5763997220267569  0.4263140504383500  0.5448328182496311   F   F   F
  0.6688192505528157  0.3748129393938770  0.5068505833917146   T   T   T
  0.4628839081402659  0.3388249095982852  0.4988929834117570   T   T   T
  0.6484934028780529  0.5775373212088155  0.4602701624361103   F   F   F
  0.5573364705441551  0.4367563487142864  0.7497421883384023   T   T   T
  0.6000003874672117  0.3508468141517775  0.6707885839867496   T   T   T
  0.4924225411247634  0.2988361342315227  0.4090791482622896   T   T   T
  0.6603548538983020  0.6185685961908307  0.6662512109750550   T   T   T
  0.4905767148617372  0.4104707993493076  0.3057452558895253   T   T   T
  0.6238751910525960  0.3176895460794385  0.5753886270949846   T   T   T
  0.5337164888823162  0.6842813777087254  0.4032476476236908   T   T   T
  0.3900422983656035  0.4156733492708979  0.5266519572697386   T   T   T
  0.6275096575636936  0.5517069955407250  0.2849096642754432   T   T   T
  0.4720218704959226  0.4740324338748325  0.6925207928618148   T   T   T
  0.5683115009887700  0.5094300495444983  0.4784716241115703   F   F   F
  0.4203210565129183  0.5084107200613417  0.5018573595042781   F   F   F
  0.4532904978308600  0.4006153784714310  0.4062989760059564   T   T   T
  0.5626112715454580  0.3492753287730297  0.3534222924754519   T   T   T
  0.4117434604566327  0.5396004765361716  0.6106762193349697   T   T   T
  0.5982425777734304  0.4404584319979499  0.3041757239750699   T   T   T
  0.4542796158130337  0.5995125641078012  0.3624363019073243   T   T   T
  0.4185621735695546  0.4887739190905181  0.3381333308827288   T   T   T
  0.6612725589626222  0.4286071594757771  0.6046356222256716   T   T   T
  0.6728116400288701  0.5801420574714931  0.5633409431193692   T   T   T
  0.5266990934037997  0.5087721013249843  0.3279726705787004   T   T   T
  0.5656785758542654  0.3571769414404491  0.4691522896618859   T   T   T
  0.3163343133067757  0.5404943919167176  0.4921132214598763   T   T   T
  0.6596135515446162  0.4297915291177160  0.4153213345866101   T   T   T
  0.5660841929594156  0.6261437171197244  0.5094829013827464   F   F   F
  0.5970074927253696  0.5281130570094430  0.6896414803310686   T   T   T
  0.4701774415157218  0.6414325844745896  0.5891497266892760   T   T   T
  0.4628671695408481  0.6039743031100545  0.4647871202984942   T   T   T
  0.7120343887245929  0.5766810941921026  0.3804919857410926   T   T   T
  0.5499310510395361  0.5822218838566187  0.4076968008106903   F   F   F
  0.4794126430662260  0.5072205383607624  0.4190535757241776   F   F   F
  0.6940422360036539  0.4785715236700625  0.3235920902733963   T   T   T
  0.7515547969018950  0.4300931966900503  0.4865113986695236   T   T   T
  0.7470126938963471  0.5413981111311518  0.4845388404394786   T   T   T
  0.7491987294115907  0.4908724102453428  0.5708646370781816   T   T   T
  0.6471946567695795  0.4350262694081141  0.7087208765919940   T   T   T
  0.5779891250502819  0.7406420631480178  0.4911892477097521   T   T   T
  0.6192554540844384  0.5183157687966542  0.3801816896793397   F   F   F
  0.5065933417935717  0.5606425526451042  0.6500957445304552   T   T   T
  0.4922009500451665  0.4366758245867572  0.4933013002826740   F   F   F
  0.5608844484509063  0.4404139570509003  0.6454865549417619   F   F   F
  0.5776455677027700  0.6171346318138318  0.6133553421391514   T   T   T
  0.5434597793836106  0.6175402857019614  0.3137736160407383   T   T   T
  0.6308281270109186  0.6394343749594553  0.3456122779599666   T   T   T
  0.3766294581084865  0.5565275404812978  0.4126772807473867   T   T   T
  0.4723078164089713  0.4557257050327763  0.5877273803360978   F   F   F
  0.7247039265119243  0.6383292572101064  0.4834045361081301   T   T   T
  0.5000730216742599  0.3714268506997502  0.6829831958401937   T   T   T
  0.3832161928030604  0.4390740764021171  0.6398693965306632   T   T   T
  0.5544592502646992  0.4379899399457940  0.4037542370104745   F   F   F
  0.4342463108192986  0.3608904157011064  0.6069488149868066   T   T   T
  0.5289333522666441  0.3481127226706083  0.5784742466912969   T   T   T
  0.6420330411820759  0.6901248575083803  0.3130017822247783   T   T   T
 
  0.00000000E+00  0.00000000E+00  0.00000000E+00
  0.00000000E+00  0.00000000E+00  0.00000000E+00
  0.00000000E+00  0.00000000E+00  0.00000000E+00
  0.00000000E+00  0.00000000E+00  0.00000000E+00
  0.00000000E+00  0.00000000E+00  0.00000000E+00
  0.00000000E+00  0.00000000E+00  0.00000000E+00
  0.00000000E+00  0.00000000E+00  0.00000000E+00
  0.00000000E+00  0.00000000E+00  0.00000000E+00
  0.00000000E+00  0.00000000E+00  0.00000000E+00
  0.00000000E+00  0.00000000E+00  0.00000000E+00
  0.00000000E+00  0.00000000E+00  0.00000000E+00
  0.00000000E+00  0.00000000E+00  0.00000000E+00
  0.00000000E+00  0.00000000E+00  0.00000000E+00
  0.00000000E+00  0.00000000E+00  0.00000000E+00
  0.00000000E+00  0.00000000E+00  0.00000000E+00
  0.00000000E+00  0.00000000E+00  0.00000000E+00
  0.00000000E+00  0.00000000E+00  0.00000000E+00
  0.00000000E+00  0.00000000E+00  0.00000000E+00
  0.00000000E+00  0.00000000E+00  0.00000000E+00
  0.00000000E+00  0.00000000E+00  0.00000000E+00
  0.00000000E+00  0.00000000E+00  0.00000000E+00
  0.00000000E+00  0.00000000E+00  0.00000000E+00
  0.00000000E+00  0.00000000E+00  0.00000000E+00
  0.00000000E+00  0.00000000E+00  0.00000000E+00
  0.00000000E+00  0.00000000E+00  0.00000000E+00
  0.00000000E+00  0.00000000E+00  0.00000000E+00
  0.00000000E+00  0.00000000E+00  0.00000000E+00
  0.00000000E+00  0.00000000E+00  0.00000000E+00
  0.00000000E+00  0.00000000E+00  0.00000000E+00
  0.00000000E+00  0.00000000E+00  0.00000000E+00
  0.00000000E+00  0.00000000E+00  0.00000000E+00
  0.00000000E+00  0.00000000E+00  0.00000000E+00
  0.00000000E+00  0.00000000E+00  0.00000000E+00
  0.00000000E+00  0.00000000E+00  0.00000000E+00
  0.00000000E+00  0.00000000E+00  0.00000000E+00
  0.00000000E+00  0.00000000E+00  0.00000000E+00
  0.00000000E+00  0.00000000E+00  0.00000000E+00
  0.00000000E+00  0.00000000E+00  0.00000000E+00
  0.00000000E+00  0.00000000E+00  0.00000000E+00
  0.00000000E+00  0.00000000E+00  0.00000000E+00
  0.00000000E+00  0.00000000E+00  0.00000000E+00
  0.00000000E+00  0.00000000E+00  0.00000000E+00
  0.00000000E+00  0.00000000E+00  0.00000000E+00
  0.00000000E+00  0.00000000E+00  0.00000000E+00
  0.00000000E+00  0.00000000E+00  0.00000000E+00
  0.00000000E+00  0.00000000E+00  0.00000000E+00
  0.00000000E+00  0.00000000E+00  0.00000000E+00
  0.00000000E+00  0.00000000E+00  0.00000000E+00
  0.00000000E+00  0.00000000E+00  0.00000000E+00
  0.00000000E+00  0.00000000E+00  0.00000000E+00
  0.00000000E+00  0.00000000E+00  0.00000000E+00
  0.00000000E+00  0.00000000E+00  0.00000000E+00
  0.00000000E+00  0.00000000E+00  0.00000000E+00
  0.00000000E+00  0.00000000E+00  0.00000000E+00
  0.00000000E+00  0.00000000E+00  0.00000000E+00
  0.00000000E+00  0.00000000E+00  0.00000000E+00
  0.00000000E+00  0.00000000E+00  0.00000000E+00
  0.00000000E+00  0.00000000E+00  0.00000000E+00
  0.00000000E+00  0.00000000E+00  0.00000000E+00
  0.00000000E+00  0.00000000E+00  0.00000000E+00
  0.00000000E+00  0.00000000E+00  0.00000000E+00
  0.00000000E+00  0.00000000E+00  0.00000000E+00
  0.00000000E+00  0.00000000E+00  0.00000000E+00
  0.00000000E+00  0.00000000E+00  0.00000000E+00
  0.00000000E+00  0.00000000E+00  0.00000000E+00
  0.00000000E+00  0.00000000E+00  0.00000000E+00
  0.00000000E+00  0.00000000E+00  0.00000000E+00
  0.00000000E+00  0.00000000E+00  0.00000000E+00
  0.00000000E+00  0.00000000E+00  0.00000000E+00
