Bi La Sn H                              
   1.00000000000000     
    29.0000000000000000    0.0000000000000000    0.0000000000000000
     0.2488180851000000   28.9989325590000000    0.0000000000000000
    -0.0631677343000000   -0.4515975666000000   28.9964147692999994
   Bi   La   Sn   H 
    22    23    23     1
Selective dynamics
Direct
  0.7584261514904883  0.4782334184412373  0.3982071501197180   T   T   T
  0.6468856844514678  0.6853902079876102  0.5513695343272761   T   T   T
  0.3597860100500258  0.4580314383008235  0.4287874203746829   T   T   T
  0.5493445798866162  0.7132444525930152  0.5842236109544544   T   T   T
  0.5915029568994470  0.5209714444905416  0.5841479689498996   F   F   F
  0.6399909245390609  0.6799802349410781  0.4454567516889906   T   T   T
  0.6952699019741142  0.5221280950026346  0.6540747690624785   T   T   T
  0.4860739920491586  0.7008214181533801  0.4996820102832633   T   T   T
  0.5004839460855024  0.5502791173970252  0.5477141156400123   F   F   F
  0.3241654970875599  0.4866578072654313  0.5743540756557723   T   T   T
  0.3819467648981415  0.6111609157157237  0.5340819080829640   T   T   T
  0.6667129484492236  0.4827404655721850  0.5105018184570156   F   F   F
  0.5763997220267569  0.4263140504383500  0.5448328182496311   F   F   F
  0.6688175827290664  0.3744926042871184  0.5062836533771986   T   T   T
  0.4627665759614935  0.3387080289430948  0.5008713878745111   T   T   T
  0.6484934028780529  0.5775373212088155  0.4602701624361103   F   F   F
  0.5581345503279322  0.4366465792799000  0.7496815477823040   T   T   T
  0.6051363188652369  0.3515856749400023  0.6682651066960876   T   T   T
  0.4919299269235534  0.2981198340336592  0.4113317368224557   T   T   T
  0.6593175662929089  0.6181407528714757  0.6665631675151659   T   T   T
  0.4912545225642120  0.4090825054666729  0.3074095157051353   T   T   T
  0.6213193424675734  0.3158335539222107  0.5718297852676556   T   T   T
  0.5386576941074781  0.6836053523241690  0.4045250921698285   T   T   T
  0.3901651132829738  0.4156331383227391  0.5281864138642103   T   T   T
  0.6288654487610289  0.5517033777667959  0.2829124744195553   T   T   T
  0.4711679216126953  0.4694952506834479  0.6917129817823098   T   T   T
  0.5683115009887700  0.5094300495444983  0.4784716241115703   F   F   F
  0.4203210565129183  0.5084107200613417  0.5018573595042781   F   F   F
  0.4522081786243936  0.4002198697228977  0.4074934328150405   T   T   T
  0.5624376670687752  0.3482905560206128  0.3552661350500101   T   T   T
  0.4104106068319012  0.5405914840806311  0.6087722752713264   T   T   T
  0.5993271300707372  0.4397561601152933  0.3043018917927512   T   T   T
  0.4551639967070235  0.5994981649438542  0.3631110005666774   T   T   T
  0.4180685348814081  0.4865127952248392  0.3399935461630142   T   T   T
  0.6617531160798967  0.4275906891759021  0.6038927180910372   T   T   T
  0.6728671150889138  0.5792897434027060  0.5640150557170057   T   T   T
  0.5260150431100252  0.5088868889709546  0.3277626855933012   T   T   T
  0.5653895517095044  0.3573937060880605  0.4692311452321712   T   T   T
  0.3154323592128972  0.5419459973706322  0.4909489281841565   T   T   T
  0.6613002713158275  0.4304714763023141  0.4142389113845392   T   T   T
  0.5660841929594156  0.6261437171197244  0.5094829013827464   F   F   F
  0.5952347590715243  0.5288211933443301  0.6897092849584666   T   T   T
  0.4694682615497054  0.6412799826836438  0.5885800032425430   T   T   T
  0.4634265342947042  0.6028691208474124  0.4638679832886781   T   T   T
  0.7147339141986013  0.5722083277481074  0.3817079950559645   T   T   T
  0.5499310510395361  0.5822218838566187  0.4076968008106903   F   F   F
  0.4794126430662260  0.5072205383607624  0.4190535757241776   F   F   F
  0.6978009531196397  0.4781621925624901  0.3190050299171243   T   T   T
  0.7518030517394007  0.4302866626909835  0.4875043499658332   T   T   T
  0.7479706991265535  0.5386030990119329  0.4844070530055452   T   T   T
  0.7485133814760820  0.4915401860566236  0.5724444356610794   T   T   T
  0.6479748451519202  0.4374630478729100  0.7086729229584708   T   T   T
  0.5768190630487633  0.7431873147783954  0.4931540562710562   T   T   T
  0.6192554540844384  0.5183157687966542  0.3801816896793397   F   F   F
  0.5042577861487878  0.5587824446181888  0.6500602935139018   T   T   T
  0.4922009500451665  0.4366758245867572  0.4933013002826740   F   F   F
  0.5608844484509063  0.4404139570509003  0.6454865549417619   F   F   F
  0.5764539688481439  0.6161746782247898  0.6137727508217298   T   T   T
  0.5440081978184401  0.6164005505712463  0.3120983099115228   T   T   T
  0.6263910419259181  0.6258305062761025  0.3602108841070918   T   T   T
  0.3774029085069445  0.5563386615339649  0.4124733558322304   T   T   T
  0.4723078164089713  0.4557257050327763  0.5877273803360978   F   F   F
  0.7268916296391513  0.6353186250167777  0.4847461975658670   T   T   T
  0.5057307190608654  0.3673830147728349  0.6853069816967622   T   T   T
  0.3802844156127024  0.4424883415547995  0.6404930925453614   T   T   T
  0.5544592502646992  0.4379899399457940  0.4037542370104745   F   F   F
  0.4347136034075211  0.3652641940887192  0.6124916518511644   T   T   T
  0.5280784822350574  0.3493317375407674  0.5800072310376555   T   T   T
  0.7397503559122072  0.4558700898822926  0.2792322882493344   T   T   T
 
  0.00000000E+00  0.00000000E+00  0.00000000E+00
  0.00000000E+00  0.00000000E+00  0.00000000E+00
  0.00000000E+00  0.00000000E+00  0.00000000E+00
  0.00000000E+00  0.00000000E+00  0.00000000E+00
  0.00000000E+00  0.00000000E+00  0.00000000E+00
  0.00000000E+00  0.00000000E+00  0.00000000E+00
  0.00000000E+00  0.00000000E+00  0.00000000E+00
  0.00000000E+00  0.00000000E+00  0.00000000E+00
  0.00000000E+00  0.00000000E+00  0.00000000E+00
  0.00000000E+00  0.00000000E+00  0.00000000E+00
  0.00000000E+00  0.00000000E+00  0.00000000E+00
  0.00000000E+00  0.00000000E+00  0.00000000E+00
  0.00000000E+00  0.00000000E+00  0.00000000E+00
  0.00000000E+00  0.00000000E+00  0.00000000E+00
  0.00000000E+00  0.00000000E+00  0.00000000E+00
  0.00000000E+00  0.00000000E+00  0.00000000E+00
  0.00000000E+00  0.00000000E+00  0.00000000E+00
  0.00000000E+00  0.00000000E+00  0.00000000E+00
  0.00000000E+00  0.00000000E+00  0.00000000E+00
  0.00000000E+00  0.00000000E+00  0.00000000E+00
  0.00000000E+00  0.00000000E+00  0.00000000E+00
  0.00000000E+00  0.00000000E+00  0.00000000E+00
  0.00000000E+00  0.00000000E+00  0.00000000E+00
  0.00000000E+00  0.00000000E+00  0.00000000E+00
  0.00000000E+00  0.00000000E+00  0.00000000E+00
  0.00000000E+00  0.00000000E+00  0.00000000E+00
  0.00000000E+00  0.00000000E+00  0.00000000E+00
  0.00000000E+00  0.00000000E+00  0.00000000E+00
  0.00000000E+00  0.00000000E+00  0.00000000E+00
  0.00000000E+00  0.00000000E+00  0.00000000E+00
  0.00000000E+00  0.00000000E+00  0.00000000E+00
  0.00000000E+00  0.00000000E+00  0.00000000E+00
  0.00000000E+00  0.00000000E+00  0.00000000E+00
  0.00000000E+00  0.00000000E+00  0.00000000E+00
  0.00000000E+00  0.00000000E+00  0.00000000E+00
  0.00000000E+00  0.00000000E+00  0.00000000E+00
  0.00000000E+00  0.00000000E+00  0.00000000E+00
  0.00000000E+00  0.00000000E+00  0.00000000E+00
  0.00000000E+00  0.00000000E+00  0.00000000E+00
  0.00000000E+00  0.00000000E+00  0.00000000E+00
  0.00000000E+00  0.00000000E+00  0.00000000E+00
  0.00000000E+00  0.00000000E+00  0.00000000E+00
  0.00000000E+00  0.00000000E+00  0.00000000E+00
  0.00000000E+00  0.00000000E+00  0.00000000E+00
  0.00000000E+00  0.00000000E+00  0.00000000E+00
  0.00000000E+00  0.00000000E+00  0.00000000E+00
  0.00000000E+00  0.00000000E+00  0.00000000E+00
  0.00000000E+00  0.00000000E+00  0.00000000E+00
  0.00000000E+00  0.00000000E+00  0.00000000E+00
  0.00000000E+00  0.00000000E+00  0.00000000E+00
  0.00000000E+00  0.00000000E+00  0.00000000E+00
  0.00000000E+00  0.00000000E+00  0.00000000E+00
  0.00000000E+00  0.00000000E+00  0.00000000E+00
  0.00000000E+00  0.00000000E+00  0.00000000E+00
  0.00000000E+00  0.00000000E+00  0.00000000E+00
  0.00000000E+00  0.00000000E+00  0.00000000E+00
  0.00000000E+00  0.00000000E+00  0.00000000E+00
  0.00000000E+00  0.00000000E+00  0.00000000E+00
  0.00000000E+00  0.00000000E+00  0.00000000E+00
  0.00000000E+00  0.00000000E+00  0.00000000E+00
  0.00000000E+00  0.00000000E+00  0.00000000E+00
  0.00000000E+00  0.00000000E+00  0.00000000E+00
  0.00000000E+00  0.00000000E+00  0.00000000E+00
  0.00000000E+00  0.00000000E+00  0.00000000E+00
  0.00000000E+00  0.00000000E+00  0.00000000E+00
  0.00000000E+00  0.00000000E+00  0.00000000E+00
  0.00000000E+00  0.00000000E+00  0.00000000E+00
  0.00000000E+00  0.00000000E+00  0.00000000E+00
  0.00000000E+00  0.00000000E+00  0.00000000E+00
