Bi La Sn H                              
   1.00000000000000     
    29.0000000000000000    0.0000000000000000    0.0000000000000000
     0.2488180851000000   28.9989325590000000    0.0000000000000000
    -0.0631677343000000   -0.4515975666000000   28.9964147692999994
   Bi   La   Sn   H 
    22    23    23     1
Selective dynamics
Direct
  0.7590880466828056  0.4778458370444092  0.3996108190573238   T   T   T
  0.6471908481978071  0.6843504907061445  0.5515465808035187   T   T   T
  0.3618282953958210  0.4582325637077555  0.4275638462916179   T   T   T
  0.5504272976829919  0.7134283343299954  0.5840506687817676   T   T   T
  0.5915029568994470  0.5209714444905416  0.5841479689498996   F   F   F
  0.6403547621494261  0.6798201764463697  0.4451472282192369   T   T   T
  0.6963375508561764  0.5214534547838517  0.6540582126764460   T   T   T
  0.4867074401904180  0.7014629474719367  0.4990632772867279   T   T   T
  0.5004839460855024  0.5502791173970252  0.5477141156400123   F   F   F
  0.3255266371378273  0.4863076110465901  0.5759603475139741   T   T   T
  0.3821783892040095  0.6102287282163297  0.5360442328400568   T   T   T
  0.6667129484492236  0.4827404655721850  0.5105018184570156   F   F   F
  0.5763997220267569  0.4263140504383500  0.5448328182496311   F   F   F
  0.6667397998052583  0.3737510516268757  0.5069770745045642   T   T   T
  0.4581333474600435  0.3335985634693514  0.5000204404137765   T   T   T
  0.6484934028780529  0.5775373212088155  0.4602701624361103   F   F   F
  0.5587118592293076  0.4361974396483329  0.7496882880559523   T   T   T
  0.6005845306793081  0.3503828951075923  0.6676208884263931   T   T   T
  0.4919580228265056  0.2981058806400645  0.4095211178898995   T   T   T
  0.6605117699751646  0.6174879940700423  0.6664715743163195   T   T   T
  0.4902576061696242  0.4117998294616977  0.3049370690099134   T   T   T
  0.6188679898276470  0.3152022741427961  0.5719296015668396   T   T   T
  0.5395713816479842  0.6837003470728397  0.4040161324058250   T   T   T
  0.3905080358240047  0.4160123261018889  0.5273081471628958   T   T   T
  0.6285189505527438  0.5519246195581846  0.2822469543251227   T   T   T
  0.4723293461343183  0.4733179874821726  0.6927013743119996   T   T   T
  0.5683115009887700  0.5094300495444983  0.4784716241115703   F   F   F
  0.4203210565129183  0.5084107200613417  0.5018573595042781   F   F   F
  0.4539588476721079  0.4005931529880440  0.4062026116883999   T   T   T
  0.5603472184853868  0.3495342364741891  0.3525238262565835   T   T   T
  0.4117827773809195  0.5401939709194267  0.6104343795262045   T   T   T
  0.5991314778448863  0.4415314778977756  0.3049448754005671   T   T   T
  0.4550810347926903  0.6008603964550135  0.3635533371200145   T   T   T
  0.4178883759339504  0.4891239669051692  0.3378956976154360   T   T   T
  0.6612400129568109  0.4272199249226235  0.6042678612172837   T   T   T
  0.6733859511059703  0.5783132848426370  0.5640335815429757   T   T   T
  0.5262557328364386  0.5094652445314707  0.3281898024267257   T   T   T
  0.5628292069649896  0.3566083097077629  0.4696839151670207   T   T   T
  0.3167729952807867  0.5410410844918713  0.4916202412772486   T   T   T
  0.6598553163232062  0.4293681318627173  0.4156231409339742   T   T   T
  0.5660841929594156  0.6261437171197244  0.5094829013827464   F   F   F
  0.5962715159422810  0.5280450201095186  0.6897062760219596   T   T   T
  0.4704241843857526  0.6416846538891560  0.5882216108869737   T   T   T
  0.4622845526886791  0.6033801049497826  0.4640613394565439   T   T   T
  0.7165909019729021  0.5737080782188786  0.3835456745463084   T   T   T
  0.5499310510395361  0.5822218838566187  0.4076968008106903   F   F   F
  0.4794126430662260  0.5072205383607624  0.4190535757241776   F   F   F
  0.6949432789823359  0.4808047240360391  0.3246226044314144   T   T   T
  0.7507201628959506  0.4281639510920511  0.4881609594267581   T   T   T
  0.7485830107396756  0.5378498245935034  0.4855061407137634   T   T   T
  0.7490692702230456  0.4895849400335620  0.5722276328275477   T   T   T
  0.6477076004073596  0.4350391561609886  0.7080558506179310   T   T   T
  0.5776063591521262  0.7429705413720746  0.4930862737527375   T   T   T
  0.6192554540844384  0.5183157687966542  0.3801816896793397   F   F   F
  0.5060809271469366  0.5606223533019888  0.6502683426666080   T   T   T
  0.4922009500451665  0.4366758245867572  0.4933013002826740   F   F   F
  0.5608844484509063  0.4404139570509003  0.6454865549417619   F   F   F
  0.5777481452671487  0.6165373094170532  0.6134896917653612   T   T   T
  0.5443173069285943  0.6170344507535669  0.3121013480505790   T   T   T
  0.6274490985888265  0.6247169323276222  0.3600916011079237   T   T   T
  0.3769476428148087  0.5568809570219452  0.4119773057808041   T   T   T
  0.4723078164089713  0.4557257050327763  0.5877273803360978   F   F   F
  0.7272568105562179  0.6349690921028172  0.4848772586756136   T   T   T
  0.5009531340779079  0.3707969868557255  0.6826300948069483   T   T   T
  0.3823634225277714  0.4412672663098905  0.6411105578133905   T   T   T
  0.5544592502646992  0.4379899399457940  0.4037542370104745   F   F   F
  0.4317043487146137  0.3620457605079594  0.6095326353722066   T   T   T
  0.5248851068905130  0.3500454803987676  0.5771662086922180   T   T   T
  0.4469592273164545  0.2734428486375295  0.5176534360202630   T   T   T
 
  0.00000000E+00  0.00000000E+00  0.00000000E+00
  0.00000000E+00  0.00000000E+00  0.00000000E+00
  0.00000000E+00  0.00000000E+00  0.00000000E+00
  0.00000000E+00  0.00000000E+00  0.00000000E+00
  0.00000000E+00  0.00000000E+00  0.00000000E+00
  0.00000000E+00  0.00000000E+00  0.00000000E+00
  0.00000000E+00  0.00000000E+00  0.00000000E+00
  0.00000000E+00  0.00000000E+00  0.00000000E+00
  0.00000000E+00  0.00000000E+00  0.00000000E+00
  0.00000000E+00  0.00000000E+00  0.00000000E+00
  0.00000000E+00  0.00000000E+00  0.00000000E+00
  0.00000000E+00  0.00000000E+00  0.00000000E+00
  0.00000000E+00  0.00000000E+00  0.00000000E+00
  0.00000000E+00  0.00000000E+00  0.00000000E+00
  0.00000000E+00  0.00000000E+00  0.00000000E+00
  0.00000000E+00  0.00000000E+00  0.00000000E+00
  0.00000000E+00  0.00000000E+00  0.00000000E+00
  0.00000000E+00  0.00000000E+00  0.00000000E+00
  0.00000000E+00  0.00000000E+00  0.00000000E+00
  0.00000000E+00  0.00000000E+00  0.00000000E+00
  0.00000000E+00  0.00000000E+00  0.00000000E+00
  0.00000000E+00  0.00000000E+00  0.00000000E+00
  0.00000000E+00  0.00000000E+00  0.00000000E+00
  0.00000000E+00  0.00000000E+00  0.00000000E+00
  0.00000000E+00  0.00000000E+00  0.00000000E+00
  0.00000000E+00  0.00000000E+00  0.00000000E+00
  0.00000000E+00  0.00000000E+00  0.00000000E+00
  0.00000000E+00  0.00000000E+00  0.00000000E+00
  0.00000000E+00  0.00000000E+00  0.00000000E+00
  0.00000000E+00  0.00000000E+00  0.00000000E+00
  0.00000000E+00  0.00000000E+00  0.00000000E+00
  0.00000000E+00  0.00000000E+00  0.00000000E+00
  0.00000000E+00  0.00000000E+00  0.00000000E+00
  0.00000000E+00  0.00000000E+00  0.00000000E+00
  0.00000000E+00  0.00000000E+00  0.00000000E+00
  0.00000000E+00  0.00000000E+00  0.00000000E+00
  0.00000000E+00  0.00000000E+00  0.00000000E+00
  0.00000000E+00  0.00000000E+00  0.00000000E+00
  0.00000000E+00  0.00000000E+00  0.00000000E+00
  0.00000000E+00  0.00000000E+00  0.00000000E+00
  0.00000000E+00  0.00000000E+00  0.00000000E+00
  0.00000000E+00  0.00000000E+00  0.00000000E+00
  0.00000000E+00  0.00000000E+00  0.00000000E+00
  0.00000000E+00  0.00000000E+00  0.00000000E+00
  0.00000000E+00  0.00000000E+00  0.00000000E+00
  0.00000000E+00  0.00000000E+00  0.00000000E+00
  0.00000000E+00  0.00000000E+00  0.00000000E+00
  0.00000000E+00  0.00000000E+00  0.00000000E+00
  0.00000000E+00  0.00000000E+00  0.00000000E+00
  0.00000000E+00  0.00000000E+00  0.00000000E+00
  0.00000000E+00  0.00000000E+00  0.00000000E+00
  0.00000000E+00  0.00000000E+00  0.00000000E+00
  0.00000000E+00  0.00000000E+00  0.00000000E+00
  0.00000000E+00  0.00000000E+00  0.00000000E+00
  0.00000000E+00  0.00000000E+00  0.00000000E+00
  0.00000000E+00  0.00000000E+00  0.00000000E+00
  0.00000000E+00  0.00000000E+00  0.00000000E+00
  0.00000000E+00  0.00000000E+00  0.00000000E+00
  0.00000000E+00  0.00000000E+00  0.00000000E+00
  0.00000000E+00  0.00000000E+00  0.00000000E+00
  0.00000000E+00  0.00000000E+00  0.00000000E+00
  0.00000000E+00  0.00000000E+00  0.00000000E+00
  0.00000000E+00  0.00000000E+00  0.00000000E+00
  0.00000000E+00  0.00000000E+00  0.00000000E+00
  0.00000000E+00  0.00000000E+00  0.00000000E+00
  0.00000000E+00  0.00000000E+00  0.00000000E+00
  0.00000000E+00  0.00000000E+00  0.00000000E+00
  0.00000000E+00  0.00000000E+00  0.00000000E+00
  0.00000000E+00  0.00000000E+00  0.00000000E+00
