Bi La Sn H                              
   1.00000000000000     
    29.0000000000000000    0.0000000000000000    0.0000000000000000
     0.2488180851000000   28.9989325590000000    0.0000000000000000
    -0.0631677343000000   -0.4515975666000000   28.9964147692999994
   Bi   La   Sn   H 
    22    23    23     1
Selective dynamics
Direct
  0.7588699152734291  0.4798026662978931  0.3987641875915992   T   T   T
  0.6465465626146895  0.6849862461979027  0.5516251459767747   T   T   T
  0.3606068716182651  0.4583288614568826  0.4281296635208086   T   T   T
  0.5497612116260844  0.7133966994549709  0.5845249235529628   T   T   T
  0.5915029568994470  0.5209714444905416  0.5841479689498996   F   F   F
  0.6393785922743007  0.6799797770993554  0.4454584935119730   T   T   T
  0.6959245598154077  0.5223083121086297  0.6540218499715152   T   T   T
  0.4865280308369886  0.7013743214751220  0.4997909205278387   T   T   T
  0.5004839460855024  0.5502791173970252  0.5477141156400123   F   F   F
  0.3253845851248019  0.4856207712196156  0.5757752629653515   T   T   T
  0.3817798439575310  0.6099825300957068  0.5353701744242589   T   T   T
  0.6667129484492236  0.4827404655721850  0.5105018184570156   F   F   F
  0.5763997220267569  0.4263140504383500  0.5448328182496311   F   F   F
  0.6689139900321265  0.3750261891808857  0.5070852437487248   T   T   T
  0.4634787629262657  0.3383944276831031  0.4991579764858623   T   T   T
  0.6484934028780529  0.5775373212088155  0.4602701624361103   F   F   F
  0.5578040132244190  0.4371590281305181  0.7499043513476370   T   T   T
  0.6028163794994383  0.3511480342413770  0.6685663475176774   T   T   T
  0.4925060423723249  0.2994233506612174  0.4086768667648606   T   T   T
  0.6601276853005094  0.6182758587711673  0.6666183174987966   T   T   T
  0.4923993698586940  0.4100743511422516  0.3070882420093105   T   T   T
  0.6227817540366378  0.3162587561194102  0.5730196785891405   T   T   T
  0.5383177951241318  0.6837651066686004  0.4046594191632187   T   T   T
  0.3906723942696235  0.4155710048360658  0.5269674140687994   T   T   T
  0.6282054127684754  0.5532999322768029  0.2814044480172101   T   T   T
  0.4720917155619840  0.4723991326114201  0.6923226760541422   T   T   T
  0.5683115009887700  0.5094300495444983  0.4784716241115703   F   F   F
  0.4203210565129183  0.5084107200613417  0.5018573595042781   F   F   F
  0.4523504270435485  0.4008818840685373  0.4062787806176760   T   T   T
  0.5644460433131850  0.3488596864701048  0.3546062271990109   T   T   T
  0.4112309567370114  0.5398480249171790  0.6099799388012546   T   T   T
  0.6002904936259652  0.4378429769429188  0.3057728396505842   T   T   T
  0.4547994375400061  0.6001930876707906  0.3639242828138118   T   T   T
  0.4183508923240366  0.4876786734682080  0.3392480528728681   T   T   T
  0.6613672447643074  0.4282118255639689  0.6046493241310043   T   T   T
  0.6729607128742964  0.5790181275376536  0.5639790199193595   T   T   T
  0.5257688705472633  0.5099284418093665  0.3276455828059625   T   T   T
  0.5662093592206396  0.3572140425190703  0.4691131267185746   T   T   T
  0.3155528016220051  0.5406084342689351  0.4918358945049119   T   T   T
  0.6607816030808671  0.4295513296440489  0.4147461230129041   T   T   T
  0.5660841929594156  0.6261437171197244  0.5094829013827464   F   F   F
  0.5960275682470045  0.5285120274122311  0.6896332266312075   T   T   T
  0.4696143995701356  0.6415313129843980  0.5883014444402807   T   T   T
  0.4631766443504490  0.6032884682750410  0.4643674740860363   T   T   T
  0.7162378915214139  0.5751166262421359  0.3834360652365847   T   T   T
  0.5499310510395361  0.5822218838566187  0.4076968008106903   F   F   F
  0.4794126430662260  0.5072205383607624  0.4190535757241776   F   F   F
  0.6948258034163809  0.4825511256275379  0.3237895105580812   T   T   T
  0.7521647211926715  0.4302350168533185  0.4871721906970837   T   T   T
  0.7482846374367705  0.5392774560429453  0.4853786910334998   T   T   T
  0.7485713380965056  0.4909511535606413  0.5720854404361084   T   T   T
  0.6475415455218422  0.4361195056224994  0.7090069999389678   T   T   T
  0.5769114465702827  0.7436829796944653  0.4932933976725387   T   T   T
  0.6192554540844384  0.5183157687966542  0.3801816896793397   F   F   F
  0.5055358685771691  0.5602240758301226  0.6499193095405110   T   T   T
  0.4922009500451665  0.4366758245867572  0.4933013002826740   F   F   F
  0.5608844484509063  0.4404139570509003  0.6454865549417619   F   F   F
  0.5773222171440726  0.6165865036321410  0.6135981693381554   T   T   T
  0.5432582949834684  0.6175910324058064  0.3119786702669173   T   T   T
  0.6261973149044965  0.6256440607070196  0.3602299554312664   T   T   T
  0.3766181663726696  0.5570916388540692  0.4130106232370649   T   T   T
  0.4723078164089713  0.4557257050327763  0.5877273803360978   F   F   F
  0.7264782122709219  0.6360353066276544  0.4850237835430232   T   T   T
  0.5029005846368270  0.3692931792020289  0.6839379020971385   T   T   T
  0.3827307402363956  0.4401528999832630  0.6401351210670057   T   T   T
  0.5544592502646992  0.4379899399457940  0.4037542370104745   F   F   F
  0.4349257515702922  0.3622341765102069  0.6089029732132709   T   T   T
  0.5288827419758985  0.3484545448837404  0.5789053997001695   T   T   T
  0.5764258386365074  0.4984995079749903  0.2619803973102132   T   T   T
 
  0.00000000E+00  0.00000000E+00  0.00000000E+00
  0.00000000E+00  0.00000000E+00  0.00000000E+00
  0.00000000E+00  0.00000000E+00  0.00000000E+00
  0.00000000E+00  0.00000000E+00  0.00000000E+00
  0.00000000E+00  0.00000000E+00  0.00000000E+00
  0.00000000E+00  0.00000000E+00  0.00000000E+00
  0.00000000E+00  0.00000000E+00  0.00000000E+00
  0.00000000E+00  0.00000000E+00  0.00000000E+00
  0.00000000E+00  0.00000000E+00  0.00000000E+00
  0.00000000E+00  0.00000000E+00  0.00000000E+00
  0.00000000E+00  0.00000000E+00  0.00000000E+00
  0.00000000E+00  0.00000000E+00  0.00000000E+00
  0.00000000E+00  0.00000000E+00  0.00000000E+00
  0.00000000E+00  0.00000000E+00  0.00000000E+00
  0.00000000E+00  0.00000000E+00  0.00000000E+00
  0.00000000E+00  0.00000000E+00  0.00000000E+00
  0.00000000E+00  0.00000000E+00  0.00000000E+00
  0.00000000E+00  0.00000000E+00  0.00000000E+00
  0.00000000E+00  0.00000000E+00  0.00000000E+00
  0.00000000E+00  0.00000000E+00  0.00000000E+00
  0.00000000E+00  0.00000000E+00  0.00000000E+00
  0.00000000E+00  0.00000000E+00  0.00000000E+00
  0.00000000E+00  0.00000000E+00  0.00000000E+00
  0.00000000E+00  0.00000000E+00  0.00000000E+00
  0.00000000E+00  0.00000000E+00  0.00000000E+00
  0.00000000E+00  0.00000000E+00  0.00000000E+00
  0.00000000E+00  0.00000000E+00  0.00000000E+00
  0.00000000E+00  0.00000000E+00  0.00000000E+00
  0.00000000E+00  0.00000000E+00  0.00000000E+00
  0.00000000E+00  0.00000000E+00  0.00000000E+00
  0.00000000E+00  0.00000000E+00  0.00000000E+00
  0.00000000E+00  0.00000000E+00  0.00000000E+00
  0.00000000E+00  0.00000000E+00  0.00000000E+00
  0.00000000E+00  0.00000000E+00  0.00000000E+00
  0.00000000E+00  0.00000000E+00  0.00000000E+00
  0.00000000E+00  0.00000000E+00  0.00000000E+00
  0.00000000E+00  0.00000000E+00  0.00000000E+00
  0.00000000E+00  0.00000000E+00  0.00000000E+00
  0.00000000E+00  0.00000000E+00  0.00000000E+00
  0.00000000E+00  0.00000000E+00  0.00000000E+00
  0.00000000E+00  0.00000000E+00  0.00000000E+00
  0.00000000E+00  0.00000000E+00  0.00000000E+00
  0.00000000E+00  0.00000000E+00  0.00000000E+00
  0.00000000E+00  0.00000000E+00  0.00000000E+00
  0.00000000E+00  0.00000000E+00  0.00000000E+00
  0.00000000E+00  0.00000000E+00  0.00000000E+00
  0.00000000E+00  0.00000000E+00  0.00000000E+00
  0.00000000E+00  0.00000000E+00  0.00000000E+00
  0.00000000E+00  0.00000000E+00  0.00000000E+00
  0.00000000E+00  0.00000000E+00  0.00000000E+00
  0.00000000E+00  0.00000000E+00  0.00000000E+00
  0.00000000E+00  0.00000000E+00  0.00000000E+00
  0.00000000E+00  0.00000000E+00  0.00000000E+00
  0.00000000E+00  0.00000000E+00  0.00000000E+00
  0.00000000E+00  0.00000000E+00  0.00000000E+00
  0.00000000E+00  0.00000000E+00  0.00000000E+00
  0.00000000E+00  0.00000000E+00  0.00000000E+00
  0.00000000E+00  0.00000000E+00  0.00000000E+00
  0.00000000E+00  0.00000000E+00  0.00000000E+00
  0.00000000E+00  0.00000000E+00  0.00000000E+00
  0.00000000E+00  0.00000000E+00  0.00000000E+00
  0.00000000E+00  0.00000000E+00  0.00000000E+00
  0.00000000E+00  0.00000000E+00  0.00000000E+00
  0.00000000E+00  0.00000000E+00  0.00000000E+00
  0.00000000E+00  0.00000000E+00  0.00000000E+00
  0.00000000E+00  0.00000000E+00  0.00000000E+00
  0.00000000E+00  0.00000000E+00  0.00000000E+00
  0.00000000E+00  0.00000000E+00  0.00000000E+00
  0.00000000E+00  0.00000000E+00  0.00000000E+00
