Bi La Sn H                              
   1.00000000000000     
    29.0000000000000000    0.0000000000000000    0.0000000000000000
     0.2488180851000000   28.9989325590000000    0.0000000000000000
    -0.0631677343000000   -0.4515975666000000   28.9964147692999994
   Bi   La   Sn   H 
    22    23    23     1
Selective dynamics
Direct
  0.7597688850472787  0.4769524738783270  0.3965338457444195   T   T   T
  0.6498177219956792  0.6794004583396247  0.5488883085519378   T   T   T
  0.3594932680081507  0.4579276144220976  0.4291201326672415   T   T   T
  0.5497839515775678  0.7122665233455864  0.5828354378931058   T   T   T
  0.5915029568994470  0.5209714444905416  0.5841479689498996   F   F   F
  0.6414347238514404  0.6790419230435493  0.4424871106298786   T   T   T
  0.6969264837368530  0.5209915073527221  0.6553179187582097   T   T   T
  0.4857379049558249  0.7013433568353226  0.4994152349491243   T   T   T
  0.5004839460855024  0.5502791173970252  0.5477141156400123   F   F   F
  0.3251251553503148  0.4859898184094104  0.5759062052881205   T   T   T
  0.3811148406337528  0.6099739540996375  0.5352349225685002   T   T   T
  0.6667129484492236  0.4827404655721850  0.5105018184570156   F   F   F
  0.5763997220267569  0.4263140504383500  0.5448328182496311   F   F   F
  0.6682250827600060  0.3745280506339712  0.5071862272879877   T   T   T
  0.4624333570655976  0.3384590179404733  0.4999853574070021   T   T   T
  0.6484934028780529  0.5775373212088155  0.4602701624361103   F   F   F
  0.5592536561281376  0.4363594687048793  0.7494204602231017   T   T   T
  0.6039682830413802  0.3521421803147508  0.6692181661818947   T   T   T
  0.4918548406284052  0.2984590939233973  0.4106574673784216   T   T   T
  0.6606108986914522  0.6172102466737065  0.6661952209349170   T   T   T
  0.4901394663906946  0.4100743023966800  0.3066415941747079   T   T   T
  0.6214498886863432  0.3159980844725713  0.5729209037787184   T   T   T
  0.5384778456559307  0.6830936892286946  0.4044846430374969   T   T   T
  0.3903142864476888  0.4155015239237168  0.5282670022560344   T   T   T
  0.6272724194735828  0.5513109683465983  0.2822873695062019   T   T   T
  0.4719603084171665  0.4706050151192543  0.6924177336052054   T   T   T
  0.5683115009887700  0.5094300495444983  0.4784716241115703   F   F   F
  0.4203210565129183  0.5084107200613417  0.5018573595042781   F   F   F
  0.4518217710925895  0.4004974772444108  0.4072063428260706   T   T   T
  0.5614650962965922  0.3488830440324647  0.3539512544892769   T   T   T
  0.4110906839552854  0.5401006475424605  0.6096517075920603   T   T   T
  0.5981166231923218  0.4410501257395961  0.3041913023422184   T   T   T
  0.4544567576096114  0.5995162936554130  0.3640855051419382   T   T   T
  0.4173109548630833  0.4871708148595520  0.3406715145850352   T   T   T
  0.6613601978297617  0.4280810267604845  0.6045384933169783   T   T   T
  0.6749488187835625  0.5773610865327151  0.5645653390871268   T   T   T
  0.5257880523326798  0.5090295584230552  0.3282999361973379   T   T   T
  0.5653093133773687  0.3573795041174644  0.4690851099483650   T   T   T
  0.3146978257557070  0.5406106597547856  0.4919863835982716   T   T   T
  0.6605514968113226  0.4304945607670881  0.4154706706794451   T   T   T
  0.5660841929594156  0.6261437171197244  0.5094829013827464   F   F   F
  0.5961361459001518  0.5282696067177393  0.6895014695447264   T   T   T
  0.4692441847893272  0.6412566850402335  0.5882759332078412   T   T   T
  0.4622061445057640  0.6037447087973897  0.4643367758455136   T   T   T
  0.7154806617245385  0.5724107829876245  0.3817132497258490   T   T   T
  0.5499310510395361  0.5822218838566187  0.4076968008106903   F   F   F
  0.4794126430662260  0.5072205383607624  0.4190535757241776   F   F   F
  0.6941175814096745  0.4792813314326549  0.3226283556141161   T   T   T
  0.7517601934423360  0.4291111551604593  0.4867705156524434   T   T   T
  0.7484072464763885  0.5356667252732202  0.4832176996419234   T   T   T
  0.7492496249801788  0.4899998912915937  0.5721191295734822   T   T   T
  0.6494089851824176  0.4369327868571639  0.7093168083493594   T   T   T
  0.5774381109565254  0.7415075893526926  0.4921555975309149   T   T   T
  0.6192554540844384  0.5183157687966542  0.3801816896793397   F   F   F
  0.5049497877432043  0.5593018517090316  0.6504262530043587   T   T   T
  0.4922009500451665  0.4366758245867572  0.4933013002826740   F   F   F
  0.5608844484509063  0.4404139570509003  0.6454865549417619   F   F   F
  0.5769550473269068  0.6155629466386572  0.6142015868553743   T   T   T
  0.5428052132598205  0.6168519902729329  0.3121622555248462   T   T   T
  0.6264301863193397  0.6243851748100193  0.3590600571616929   T   T   T
  0.3761606228544209  0.5570298498376067  0.4136158910851101   T   T   T
  0.4723078164089713  0.4557257050327763  0.5877273803360978   F   F   F
  0.7296881643522261  0.6324423557889846  0.4825387201046381   T   T   T
  0.5039623423301716  0.3682319749280917  0.6846563536489763   T   T   T
  0.3818060564635818  0.4413367482336777  0.6412462346791049   T   T   T
  0.5544592502646992  0.4379899399457940  0.4037542370104745   F   F   F
  0.4344097191124593  0.3636683734697869  0.6112174879639202   T   T   T
  0.5278399319820137  0.3491345788502437  0.5790415655604025   T   T   T
  0.6541157900935646  0.7344164888471824  0.5798704767969469   T   T   T
 
  0.00000000E+00  0.00000000E+00  0.00000000E+00
  0.00000000E+00  0.00000000E+00  0.00000000E+00
  0.00000000E+00  0.00000000E+00  0.00000000E+00
  0.00000000E+00  0.00000000E+00  0.00000000E+00
  0.00000000E+00  0.00000000E+00  0.00000000E+00
  0.00000000E+00  0.00000000E+00  0.00000000E+00
  0.00000000E+00  0.00000000E+00  0.00000000E+00
  0.00000000E+00  0.00000000E+00  0.00000000E+00
  0.00000000E+00  0.00000000E+00  0.00000000E+00
  0.00000000E+00  0.00000000E+00  0.00000000E+00
  0.00000000E+00  0.00000000E+00  0.00000000E+00
  0.00000000E+00  0.00000000E+00  0.00000000E+00
  0.00000000E+00  0.00000000E+00  0.00000000E+00
  0.00000000E+00  0.00000000E+00  0.00000000E+00
  0.00000000E+00  0.00000000E+00  0.00000000E+00
  0.00000000E+00  0.00000000E+00  0.00000000E+00
  0.00000000E+00  0.00000000E+00  0.00000000E+00
  0.00000000E+00  0.00000000E+00  0.00000000E+00
  0.00000000E+00  0.00000000E+00  0.00000000E+00
  0.00000000E+00  0.00000000E+00  0.00000000E+00
  0.00000000E+00  0.00000000E+00  0.00000000E+00
  0.00000000E+00  0.00000000E+00  0.00000000E+00
  0.00000000E+00  0.00000000E+00  0.00000000E+00
  0.00000000E+00  0.00000000E+00  0.00000000E+00
  0.00000000E+00  0.00000000E+00  0.00000000E+00
  0.00000000E+00  0.00000000E+00  0.00000000E+00
  0.00000000E+00  0.00000000E+00  0.00000000E+00
  0.00000000E+00  0.00000000E+00  0.00000000E+00
  0.00000000E+00  0.00000000E+00  0.00000000E+00
  0.00000000E+00  0.00000000E+00  0.00000000E+00
  0.00000000E+00  0.00000000E+00  0.00000000E+00
  0.00000000E+00  0.00000000E+00  0.00000000E+00
  0.00000000E+00  0.00000000E+00  0.00000000E+00
  0.00000000E+00  0.00000000E+00  0.00000000E+00
  0.00000000E+00  0.00000000E+00  0.00000000E+00
  0.00000000E+00  0.00000000E+00  0.00000000E+00
  0.00000000E+00  0.00000000E+00  0.00000000E+00
  0.00000000E+00  0.00000000E+00  0.00000000E+00
  0.00000000E+00  0.00000000E+00  0.00000000E+00
  0.00000000E+00  0.00000000E+00  0.00000000E+00
  0.00000000E+00  0.00000000E+00  0.00000000E+00
  0.00000000E+00  0.00000000E+00  0.00000000E+00
  0.00000000E+00  0.00000000E+00  0.00000000E+00
  0.00000000E+00  0.00000000E+00  0.00000000E+00
  0.00000000E+00  0.00000000E+00  0.00000000E+00
  0.00000000E+00  0.00000000E+00  0.00000000E+00
  0.00000000E+00  0.00000000E+00  0.00000000E+00
  0.00000000E+00  0.00000000E+00  0.00000000E+00
  0.00000000E+00  0.00000000E+00  0.00000000E+00
  0.00000000E+00  0.00000000E+00  0.00000000E+00
  0.00000000E+00  0.00000000E+00  0.00000000E+00
  0.00000000E+00  0.00000000E+00  0.00000000E+00
  0.00000000E+00  0.00000000E+00  0.00000000E+00
  0.00000000E+00  0.00000000E+00  0.00000000E+00
  0.00000000E+00  0.00000000E+00  0.00000000E+00
  0.00000000E+00  0.00000000E+00  0.00000000E+00
  0.00000000E+00  0.00000000E+00  0.00000000E+00
  0.00000000E+00  0.00000000E+00  0.00000000E+00
  0.00000000E+00  0.00000000E+00  0.00000000E+00
  0.00000000E+00  0.00000000E+00  0.00000000E+00
  0.00000000E+00  0.00000000E+00  0.00000000E+00
  0.00000000E+00  0.00000000E+00  0.00000000E+00
  0.00000000E+00  0.00000000E+00  0.00000000E+00
  0.00000000E+00  0.00000000E+00  0.00000000E+00
  0.00000000E+00  0.00000000E+00  0.00000000E+00
  0.00000000E+00  0.00000000E+00  0.00000000E+00
  0.00000000E+00  0.00000000E+00  0.00000000E+00
  0.00000000E+00  0.00000000E+00  0.00000000E+00
  0.00000000E+00  0.00000000E+00  0.00000000E+00
