Bi La Sn H                              
   1.00000000000000     
    29.0000000000000000    0.0000000000000000    0.0000000000000000
     0.2488180851000000   28.9989325590000000    0.0000000000000000
    -0.0631677343000000   -0.4515975666000000   28.9964147692999994
   Bi   La   Sn   H 
    22    23    23     1
Selective dynamics
Direct
  0.7593408733541149  0.4791746025266847  0.3988764386590662   T   T   T
  0.6475382493369612  0.6848619932868303  0.5503594044644207   T   T   T
  0.3598143866552967  0.4587255532961062  0.4280330443616178   T   T   T
  0.5511450452596310  0.7134317642429080  0.5838284076471982   T   T   T
  0.5915029568994470  0.5209714444905416  0.5841479689498996   F   F   F
  0.6400949305967171  0.6801183582193902  0.4452067872750561   T   T   T
  0.6955638880204928  0.5194452177231799  0.6553955085224420   T   T   T
  0.4865612921549000  0.7012018781864111  0.4987968502287106   T   T   T
  0.5004839460855024  0.5502791173970252  0.5477141156400123   F   F   F
  0.3262450857120701  0.4850164907970747  0.5769205709898847   T   T   T
  0.3819428939000127  0.6100220436334495  0.5358650503661299   T   T   T
  0.6667129484492236  0.4827404655721850  0.5105018184570156   F   F   F
  0.5763997220267569  0.4263140504383500  0.5448328182496311   F   F   F
  0.6688642112565709  0.3741655645565909  0.5067312654716969   T   T   T
  0.4617574936691622  0.3379822524953432  0.4953939131201762   T   T   T
  0.6484934028780529  0.5775373212088155  0.4602701624361103   F   F   F
  0.5567819492661539  0.4272841953595322  0.7485049637297719   T   T   T
  0.5954863489144521  0.3496159137947322  0.6660215686024477   T   T   T
  0.4929132856587032  0.3009164727302958  0.4052729559388302   T   T   T
  0.6600399663386727  0.6151103801002338  0.6683346870881319   T   T   T
  0.4922872338099531  0.4106761779555184  0.3050460519552766   T   T   T
  0.6197193292369823  0.3148750760940728  0.5697633185677249   T   T   T
  0.5389663720398175  0.6836506255659358  0.4043175495889366   T   T   T
  0.3896650673295954  0.4153977002318532  0.5259754914997180   T   T   T
  0.6274586841892866  0.5526396494715046  0.2822816147800480   T   T   T
  0.4752243897015381  0.4782207247482622  0.6952233630334479   T   T   T
  0.5683115009887700  0.5094300495444983  0.4784716241115703   F   F   F
  0.4203210565129183  0.5084107200613417  0.5018573595042781   F   F   F
  0.4522524880457570  0.4019827564582579  0.4047829128237865   T   T   T
  0.5650186614420459  0.3498684055288024  0.3517903864240155   T   T   T
  0.4117172980370964  0.5395516798372653  0.6102947412426331   T   T   T
  0.5989736993049027  0.4428078308367229  0.3045199444131818   T   T   T
  0.4544975467665451  0.6000979640186966  0.3637999079238914   T   T   T
  0.4186427052155716  0.4876952034871616  0.3398119573277172   T   T   T
  0.6610325573843867  0.4263818817833543  0.6043903376118321   T   T   T
  0.6737538191873289  0.5783585737412675  0.5647823629659495   T   T   T
  0.5257472716869083  0.5098538613296947  0.3279334269136023   T   T   T
  0.5657501673068335  0.3569277681066418  0.4685158195264931   T   T   T
  0.3152129582558160  0.5410176411992015  0.4931888979638230   T   T   T
  0.6604375302172396  0.4296159091227555  0.4154521211447227   T   T   T
  0.5660841929594156  0.6261437171197244  0.5094829013827464   F   F   F
  0.5928653343985634  0.5277117112829752  0.6910985331315204   T   T   T
  0.4700567616637293  0.6425791027820777  0.5874259714779617   T   T   T
  0.4624225332049661  0.6030664304947293  0.4638250402665850   T   T   T
  0.7162747011214868  0.5748830815484921  0.3832121704876006   T   T   T
  0.5499310510395361  0.5822218838566187  0.4076968008106903   F   F   F
  0.4794126430662260  0.5072205383607624  0.4190535757241776   F   F   F
  0.6949465349642279  0.4819478720878993  0.3242020105584253   T   T   T
  0.7519463978520269  0.4300214229653773  0.4878325201841959   T   T   T
  0.7483535152116527  0.5380502219401203  0.4852810430268603   T   T   T
  0.7485858238652590  0.4905169485303205  0.5728894456057340   T   T   T
  0.6460475556905838  0.4348564051577629  0.7081207844218647   T   T   T
  0.5769234883405399  0.7436070842518286  0.4925025641097634   T   T   T
  0.6192554540844384  0.5183157687966542  0.3801816896793397   F   F   F
  0.5060336768680503  0.5626447771678238  0.6486060519925005   T   T   T
  0.4922009500451665  0.4366758245867572  0.4933013002826740   F   F   F
  0.5608844484509063  0.4404139570509003  0.6454865549417619   F   F   F
  0.5785540575471897  0.6169953098444156  0.6133426418598906   T   T   T
  0.5434463993866804  0.6177395585726477  0.3122452524371387   T   T   T
  0.6265745167369832  0.6252172807744614  0.3603728906784322   T   T   T
  0.3760506072315442  0.5571626243203706  0.4135316050485573   T   T   T
  0.4723078164089713  0.4557257050327763  0.5877273803360978   F   F   F
  0.7274068031137921  0.6349477598171307  0.4845340311295678   T   T   T
  0.4956168102378002  0.3739592551499093  0.6778406435615747   T   T   T
  0.3867514002944987  0.4387073180684057  0.6397610593941266   T   T   T
  0.5544592502646992  0.4379899399457940  0.4037542370104745   F   F   F
  0.4316834450155901  0.3576246791715067  0.6033677786266972   T   T   T
  0.5263166909212109  0.3486035745689012  0.5756168613842627   T   T   T
  0.5244838884019452  0.5269645613487716  0.7305399655241399   T   T   T
 
  0.00000000E+00  0.00000000E+00  0.00000000E+00
  0.00000000E+00  0.00000000E+00  0.00000000E+00
  0.00000000E+00  0.00000000E+00  0.00000000E+00
  0.00000000E+00  0.00000000E+00  0.00000000E+00
  0.00000000E+00  0.00000000E+00  0.00000000E+00
  0.00000000E+00  0.00000000E+00  0.00000000E+00
  0.00000000E+00  0.00000000E+00  0.00000000E+00
  0.00000000E+00  0.00000000E+00  0.00000000E+00
  0.00000000E+00  0.00000000E+00  0.00000000E+00
  0.00000000E+00  0.00000000E+00  0.00000000E+00
  0.00000000E+00  0.00000000E+00  0.00000000E+00
  0.00000000E+00  0.00000000E+00  0.00000000E+00
  0.00000000E+00  0.00000000E+00  0.00000000E+00
  0.00000000E+00  0.00000000E+00  0.00000000E+00
  0.00000000E+00  0.00000000E+00  0.00000000E+00
  0.00000000E+00  0.00000000E+00  0.00000000E+00
  0.00000000E+00  0.00000000E+00  0.00000000E+00
  0.00000000E+00  0.00000000E+00  0.00000000E+00
  0.00000000E+00  0.00000000E+00  0.00000000E+00
  0.00000000E+00  0.00000000E+00  0.00000000E+00
  0.00000000E+00  0.00000000E+00  0.00000000E+00
  0.00000000E+00  0.00000000E+00  0.00000000E+00
  0.00000000E+00  0.00000000E+00  0.00000000E+00
  0.00000000E+00  0.00000000E+00  0.00000000E+00
  0.00000000E+00  0.00000000E+00  0.00000000E+00
  0.00000000E+00  0.00000000E+00  0.00000000E+00
  0.00000000E+00  0.00000000E+00  0.00000000E+00
  0.00000000E+00  0.00000000E+00  0.00000000E+00
  0.00000000E+00  0.00000000E+00  0.00000000E+00
  0.00000000E+00  0.00000000E+00  0.00000000E+00
  0.00000000E+00  0.00000000E+00  0.00000000E+00
  0.00000000E+00  0.00000000E+00  0.00000000E+00
  0.00000000E+00  0.00000000E+00  0.00000000E+00
  0.00000000E+00  0.00000000E+00  0.00000000E+00
  0.00000000E+00  0.00000000E+00  0.00000000E+00
  0.00000000E+00  0.00000000E+00  0.00000000E+00
  0.00000000E+00  0.00000000E+00  0.00000000E+00
  0.00000000E+00  0.00000000E+00  0.00000000E+00
  0.00000000E+00  0.00000000E+00  0.00000000E+00
  0.00000000E+00  0.00000000E+00  0.00000000E+00
  0.00000000E+00  0.00000000E+00  0.00000000E+00
  0.00000000E+00  0.00000000E+00  0.00000000E+00
  0.00000000E+00  0.00000000E+00  0.00000000E+00
  0.00000000E+00  0.00000000E+00  0.00000000E+00
  0.00000000E+00  0.00000000E+00  0.00000000E+00
  0.00000000E+00  0.00000000E+00  0.00000000E+00
  0.00000000E+00  0.00000000E+00  0.00000000E+00
  0.00000000E+00  0.00000000E+00  0.00000000E+00
  0.00000000E+00  0.00000000E+00  0.00000000E+00
  0.00000000E+00  0.00000000E+00  0.00000000E+00
  0.00000000E+00  0.00000000E+00  0.00000000E+00
  0.00000000E+00  0.00000000E+00  0.00000000E+00
  0.00000000E+00  0.00000000E+00  0.00000000E+00
  0.00000000E+00  0.00000000E+00  0.00000000E+00
  0.00000000E+00  0.00000000E+00  0.00000000E+00
  0.00000000E+00  0.00000000E+00  0.00000000E+00
  0.00000000E+00  0.00000000E+00  0.00000000E+00
  0.00000000E+00  0.00000000E+00  0.00000000E+00
  0.00000000E+00  0.00000000E+00  0.00000000E+00
  0.00000000E+00  0.00000000E+00  0.00000000E+00
  0.00000000E+00  0.00000000E+00  0.00000000E+00
  0.00000000E+00  0.00000000E+00  0.00000000E+00
  0.00000000E+00  0.00000000E+00  0.00000000E+00
  0.00000000E+00  0.00000000E+00  0.00000000E+00
  0.00000000E+00  0.00000000E+00  0.00000000E+00
  0.00000000E+00  0.00000000E+00  0.00000000E+00
  0.00000000E+00  0.00000000E+00  0.00000000E+00
  0.00000000E+00  0.00000000E+00  0.00000000E+00
  0.00000000E+00  0.00000000E+00  0.00000000E+00
