Bi La Sn H                              
   1.00000000000000     
    29.0000000000000000    0.0000000000000000    0.0000000000000000
     0.2488180851000000   28.9989325590000000    0.0000000000000000
    -0.0631677343000000   -0.4515975666000000   28.9964147692999994
   Bi   La   Sn   H 
    22    23    23     1
Selective dynamics
Direct
  0.7594743663355302  0.4779641654241539  0.3983551689701773   T   T   T
  0.6466047395464832  0.6852486661033070  0.5515611479314902   T   T   T
  0.3599686029549511  0.4583754917730681  0.4290537610284665   T   T   T
  0.5490395978108829  0.7136666547972493  0.5838845004871889   T   T   T
  0.5915029568994470  0.5209714444905416  0.5841479689498996   F   F   F
  0.6415802661706984  0.6786065900669034  0.4449245841127107   T   T   T
  0.6962740952063308  0.5228266261707172  0.6530167597977746   T   T   T
  0.4857352190211324  0.7013740029083887  0.4997122502044511   T   T   T
  0.5004839460855024  0.5502791173970252  0.5477141156400123   F   F   F
  0.3246929551855814  0.4865677977304066  0.5743899928670330   T   T   T
  0.3818731647333203  0.6105319946542216  0.5348158704558699   T   T   T
  0.6667129484492236  0.4827404655721850  0.5105018184570156   F   F   F
  0.5763997220267569  0.4263140504383500  0.5448328182496311   F   F   F
  0.6687098111168192  0.3746175314839481  0.5064480323691786   T   T   T
  0.4636637257129054  0.3390285794118402  0.5009172703639645   T   T   T
  0.6484934028780529  0.5775373212088155  0.4602701624361103   F   F   F
  0.5590295869535754  0.4366846186117675  0.7495121942485561   T   T   T
  0.6047271085082677  0.3519472451862771  0.6681506388696846   T   T   T
  0.4913744409200257  0.2988732687222019  0.4110793039547833   T   T   T
  0.6600304371721414  0.6187108607539139  0.6660834584286963   T   T   T
  0.4922238200364203  0.4104639997659071  0.3076739153611491   T   T   T
  0.6217674630760440  0.3165737193245886  0.5722876922329831   T   T   T
  0.5390224992363887  0.6836669686167538  0.4046667650024036   T   T   T
  0.3901953524722555  0.4149957961126369  0.5286159135029026   T   T   T
  0.6292409025135066  0.5516527037121424  0.2821058951343702   T   T   T
  0.4714254376537551  0.4694594795291501  0.6918975803607865   T   T   T
  0.5683115009887700  0.5094300495444983  0.4784716241115703   F   F   F
  0.4203210565129183  0.5084107200613417  0.5018573595042781   F   F   F
  0.4519296299937909  0.4008447518803446  0.4074310979752362   T   T   T
  0.5627544704984079  0.3480816398607025  0.3551010032744200   T   T   T
  0.4105995433003048  0.5404057808737004  0.6094554553541649   T   T   T
  0.5989299463678757  0.4420329037974503  0.3044499712068637   T   T   T
  0.4551752306584933  0.5999913742426239  0.3623730597221062   T   T   T
  0.4182473343293609  0.4872456189746929  0.3398927743332517   T   T   T
  0.6615262904857301  0.4287182161636758  0.6043448487382731   T   T   T
  0.6734354960598422  0.5798650325683837  0.5635374974403196   T   T   T
  0.5270708832973133  0.5097189525635323  0.3281527376913029   T   T   T
  0.5656931094823113  0.3577372949140130  0.4687030089566050   T   T   T
  0.3153461032496384  0.5420646356436120  0.4908219281029004   T   T   T
  0.6603514926180905  0.4299800012448260  0.4153935305922650   T   T   T
  0.5660841929594156  0.6261437171197244  0.5094829013827464   F   F   F
  0.5963048606063558  0.5288001705882128  0.6893753560001549   T   T   T
  0.4700188241156309  0.6411573233416422  0.5882394667144066   T   T   T
  0.4632596222720626  0.6035432517140565  0.4639732870583770   T   T   T
  0.7166219299043050  0.5735319400645135  0.3838345833957057   T   T   T
  0.5499310510395361  0.5822218838566187  0.4076968008106903   F   F   F
  0.4794126430662260  0.5072205383607624  0.4190535757241776   F   F   F
  0.6954095654542873  0.4799717500081518  0.3236025689429663   T   T   T
  0.7515711201020753  0.4299827082915288  0.4874921085442203   T   T   T
  0.7471900308243248  0.5406608783654716  0.4842943486092978   T   T   T
  0.7492387034261858  0.4915686395505204  0.5713255700985644   T   T   T
  0.6487451076903534  0.4373454699613719  0.7088504309921504   T   T   T
  0.5772586203678767  0.7415599512148978  0.4923388108701401   T   T   T
  0.6192554540844384  0.5183157687966542  0.3801816896793397   F   F   F
  0.5049942447497840  0.5584568132032154  0.6498607815741743   T   T   T
  0.4922009500451665  0.4366758245867572  0.4933013002826740   F   F   F
  0.5608844484509063  0.4404139570509003  0.6454865549417619   F   F   F
  0.5769341193378985  0.6163980747058008  0.6138380790764124   T   T   T
  0.5451269738929114  0.6174807738578096  0.3122629659484894   T   T   T
  0.6282641567540498  0.6246580676844503  0.3596153411440339   T   T   T
  0.3771741043468564  0.5568141200158325  0.4123664559818132   T   T   T
  0.4723078164089713  0.4557257050327763  0.5877273803360978   F   F   F
  0.7288004651176657  0.6396025352988773  0.4873413419296365   T   T   T
  0.5052419614291059  0.3667531083896851  0.6877514343623748   T   T   T
  0.3801318686789338  0.4424012832474683  0.6408934618935208   T   T   T
  0.5544592502646992  0.4379899399457940  0.4037542370104745   F   F   F
  0.4352643085828650  0.3655940896023003  0.6137685429845382   T   T   T
  0.5280637936153952  0.3496178509994708  0.5808906920985178   T   T   T
  0.7762360637846326  0.6786465784944752  0.4886943081812771   T   T   T
 
  0.00000000E+00  0.00000000E+00  0.00000000E+00
  0.00000000E+00  0.00000000E+00  0.00000000E+00
  0.00000000E+00  0.00000000E+00  0.00000000E+00
  0.00000000E+00  0.00000000E+00  0.00000000E+00
  0.00000000E+00  0.00000000E+00  0.00000000E+00
  0.00000000E+00  0.00000000E+00  0.00000000E+00
  0.00000000E+00  0.00000000E+00  0.00000000E+00
  0.00000000E+00  0.00000000E+00  0.00000000E+00
  0.00000000E+00  0.00000000E+00  0.00000000E+00
  0.00000000E+00  0.00000000E+00  0.00000000E+00
  0.00000000E+00  0.00000000E+00  0.00000000E+00
  0.00000000E+00  0.00000000E+00  0.00000000E+00
  0.00000000E+00  0.00000000E+00  0.00000000E+00
  0.00000000E+00  0.00000000E+00  0.00000000E+00
  0.00000000E+00  0.00000000E+00  0.00000000E+00
  0.00000000E+00  0.00000000E+00  0.00000000E+00
  0.00000000E+00  0.00000000E+00  0.00000000E+00
  0.00000000E+00  0.00000000E+00  0.00000000E+00
  0.00000000E+00  0.00000000E+00  0.00000000E+00
  0.00000000E+00  0.00000000E+00  0.00000000E+00
  0.00000000E+00  0.00000000E+00  0.00000000E+00
  0.00000000E+00  0.00000000E+00  0.00000000E+00
  0.00000000E+00  0.00000000E+00  0.00000000E+00
  0.00000000E+00  0.00000000E+00  0.00000000E+00
  0.00000000E+00  0.00000000E+00  0.00000000E+00
  0.00000000E+00  0.00000000E+00  0.00000000E+00
  0.00000000E+00  0.00000000E+00  0.00000000E+00
  0.00000000E+00  0.00000000E+00  0.00000000E+00
  0.00000000E+00  0.00000000E+00  0.00000000E+00
  0.00000000E+00  0.00000000E+00  0.00000000E+00
  0.00000000E+00  0.00000000E+00  0.00000000E+00
  0.00000000E+00  0.00000000E+00  0.00000000E+00
  0.00000000E+00  0.00000000E+00  0.00000000E+00
  0.00000000E+00  0.00000000E+00  0.00000000E+00
  0.00000000E+00  0.00000000E+00  0.00000000E+00
  0.00000000E+00  0.00000000E+00  0.00000000E+00
  0.00000000E+00  0.00000000E+00  0.00000000E+00
  0.00000000E+00  0.00000000E+00  0.00000000E+00
  0.00000000E+00  0.00000000E+00  0.00000000E+00
  0.00000000E+00  0.00000000E+00  0.00000000E+00
  0.00000000E+00  0.00000000E+00  0.00000000E+00
  0.00000000E+00  0.00000000E+00  0.00000000E+00
  0.00000000E+00  0.00000000E+00  0.00000000E+00
  0.00000000E+00  0.00000000E+00  0.00000000E+00
  0.00000000E+00  0.00000000E+00  0.00000000E+00
  0.00000000E+00  0.00000000E+00  0.00000000E+00
  0.00000000E+00  0.00000000E+00  0.00000000E+00
  0.00000000E+00  0.00000000E+00  0.00000000E+00
  0.00000000E+00  0.00000000E+00  0.00000000E+00
  0.00000000E+00  0.00000000E+00  0.00000000E+00
  0.00000000E+00  0.00000000E+00  0.00000000E+00
  0.00000000E+00  0.00000000E+00  0.00000000E+00
  0.00000000E+00  0.00000000E+00  0.00000000E+00
  0.00000000E+00  0.00000000E+00  0.00000000E+00
  0.00000000E+00  0.00000000E+00  0.00000000E+00
  0.00000000E+00  0.00000000E+00  0.00000000E+00
  0.00000000E+00  0.00000000E+00  0.00000000E+00
  0.00000000E+00  0.00000000E+00  0.00000000E+00
  0.00000000E+00  0.00000000E+00  0.00000000E+00
  0.00000000E+00  0.00000000E+00  0.00000000E+00
  0.00000000E+00  0.00000000E+00  0.00000000E+00
  0.00000000E+00  0.00000000E+00  0.00000000E+00
  0.00000000E+00  0.00000000E+00  0.00000000E+00
  0.00000000E+00  0.00000000E+00  0.00000000E+00
  0.00000000E+00  0.00000000E+00  0.00000000E+00
  0.00000000E+00  0.00000000E+00  0.00000000E+00
  0.00000000E+00  0.00000000E+00  0.00000000E+00
  0.00000000E+00  0.00000000E+00  0.00000000E+00
  0.00000000E+00  0.00000000E+00  0.00000000E+00
