Bi La Sn H                              
   1.00000000000000     
    29.0000000000000000    0.0000000000000000    0.0000000000000000
     0.2488180851000000   28.9989325590000000    0.0000000000000000
    -0.0631677343000000   -0.4515975666000000   28.9964147692999994
   Bi   La   Sn   H 
    22    23    23     1
Selective dynamics
Direct
  0.7605681943629692  0.4777845058935413  0.3989338254156983   T   T   T
  0.6467724567085158  0.6846785780574808  0.5514306086326274   T   T   T
  0.3623787195257564  0.4572386543218296  0.4272574066237634   T   T   T
  0.5507724277333971  0.7131174644306270  0.5842830124731239   T   T   T
  0.5915029568994470  0.5209714444905416  0.5841479689498996   F   F   F
  0.6395258726966883  0.6804052456294882  0.4452747790001492   T   T   T
  0.6965453319640459  0.5223355637628246  0.6538186548941175   T   T   T
  0.4857425710388905  0.7007708080602579  0.5001290624835365   T   T   T
  0.5004839460855024  0.5502791173970252  0.5477141156400123   F   F   F
  0.3262058166717178  0.4859258588465158  0.5756643060260049   T   T   T
  0.3832360452558247  0.6098217954016252  0.5358018845503679   T   T   T
  0.6667129484492236  0.4827404655721850  0.5105018184570156   F   F   F
  0.5763997220267569  0.4263140504383500  0.5448328182496311   F   F   F
  0.6693097238911433  0.3741495318014502  0.5064925256561694   T   T   T
  0.4640749052206835  0.3389611287099492  0.5001445872781110   T   T   T
  0.6484934028780529  0.5775373212088155  0.4602701624361103   F   F   F
  0.5596289163933322  0.4362210012335459  0.7495617353163945   T   T   T
  0.6041762580197668  0.3515616714449646  0.6684829002657827   T   T   T
  0.4932288112621367  0.2978872311416291  0.4109089780904349   T   T   T
  0.6604961580722949  0.6184206905843167  0.6659904617737045   T   T   T
  0.4933915987018354  0.4092617986850739  0.3065484753352279   T   T   T
  0.6216836874380535  0.3164993258179615  0.5721580464810965   T   T   T
  0.5383672336341022  0.6836823101022056  0.4044913596182872   T   T   T
  0.3908486013681043  0.4151261720237278  0.5278718433949841   T   T   T
  0.6292103797513789  0.5516185086091078  0.2826954567380142   T   T   T
  0.4720503686022995  0.4712659676442630  0.6922132997430445   T   T   T
  0.5683115009887700  0.5094300495444983  0.4784716241115703   F   F   F
  0.4203210565129183  0.5084107200613417  0.5018573595042781   F   F   F
  0.4536565881642898  0.3997488448790875  0.4063279875208499   T   T   T
  0.5640578948687113  0.3478231332677343  0.3551585845079687   T   T   T
  0.4116317795842664  0.5403585166400370  0.6107869446663718   T   T   T
  0.5997444614759495  0.4415214987089148  0.3046712082159169   T   T   T
  0.4552708780402979  0.5999329979494777  0.3623468741958498   T   T   T
  0.4197431489066821  0.4865138649645527  0.3383899448340623   T   T   T
  0.6613840856901356  0.4285126279021751  0.6040670545875098   T   T   T
  0.6734612356791720  0.5786510598020307  0.5637993556818174   T   T   T
  0.5265538560136430  0.5090202111210198  0.3280376943988575   T   T   T
  0.5665916013972916  0.3575856691482670  0.4689068710738200   T   T   T
  0.3149596744246073  0.5403504533915869  0.4905120396835562   T   T   T
  0.6605551121445994  0.4296789231898476  0.4157122861882649   T   T   T
  0.5660841929594156  0.6261437171197244  0.5094829013827464   F   F   F
  0.5966223348088264  0.5284056762731302  0.6899389005358667   T   T   T
  0.4706108857437472  0.6413603640485370  0.5889511298611334   T   T   T
  0.4628788938808682  0.6033823444046478  0.4636056399304219   T   T   T
  0.7166980635880087  0.5732674525788670  0.3832409498045788   T   T   T
  0.5499310510395361  0.5822218838566187  0.4076968008106903   F   F   F
  0.4794126430662260  0.5072205383607624  0.4190535757241776   F   F   F
  0.6956388296953764  0.4800311789557482  0.3247952304050268   T   T   T
  0.7521498445220490  0.4293052631556196  0.4880887907655951   T   T   T
  0.7483758979259366  0.5379133766830460  0.4849064944191256   T   T   T
  0.7494309962455030  0.4908020254230249  0.5721237998391343   T   T   T
  0.6492503926236348  0.4367623812474460  0.7084672829180504   T   T   T
  0.5761058795418567  0.7431457488496797  0.4927769148135655   T   T   T
  0.6192554540844384  0.5183157687966542  0.3801816896793397   F   F   F
  0.5059550268742069  0.5594337528240132  0.6507967232905238   T   T   T
  0.4922009500451665  0.4366758245867572  0.4933013002826740   F   F   F
  0.5608844484509063  0.4404139570509003  0.6454865549417619   F   F   F
  0.5773844485439982  0.6162514268181997  0.6137975043109720   T   T   T
  0.5452278509384749  0.6169120421806648  0.3125331047425806   T   T   T
  0.6281075606368920  0.6248819623146310  0.3604481396527539   T   T   T
  0.3785067940278599  0.5551840451199727  0.4112276607390463   T   T   T
  0.4723078164089713  0.4557257050327763  0.5877273803360978   F   F   F
  0.7270011120524765  0.6349845342495583  0.4841119422044947   T   T   T
  0.5043924216530171  0.3686522857186287  0.6856331663073228   T   T   T
  0.3816255351554195  0.4414070392959529  0.6412709198414271   T   T   T
  0.5544592502646992  0.4379899399457940  0.4037542370104745   F   F   F
  0.4346514448342826  0.3640019994205407  0.6118635689508303   T   T   T
  0.5281289291710599  0.3496222340168809  0.5804056463687791   T   T   T
  0.2445749956187178  0.5566184098757752  0.4818293509516207   T   T   T
 
  0.00000000E+00  0.00000000E+00  0.00000000E+00
  0.00000000E+00  0.00000000E+00  0.00000000E+00
  0.00000000E+00  0.00000000E+00  0.00000000E+00
  0.00000000E+00  0.00000000E+00  0.00000000E+00
  0.00000000E+00  0.00000000E+00  0.00000000E+00
  0.00000000E+00  0.00000000E+00  0.00000000E+00
  0.00000000E+00  0.00000000E+00  0.00000000E+00
  0.00000000E+00  0.00000000E+00  0.00000000E+00
  0.00000000E+00  0.00000000E+00  0.00000000E+00
  0.00000000E+00  0.00000000E+00  0.00000000E+00
  0.00000000E+00  0.00000000E+00  0.00000000E+00
  0.00000000E+00  0.00000000E+00  0.00000000E+00
  0.00000000E+00  0.00000000E+00  0.00000000E+00
  0.00000000E+00  0.00000000E+00  0.00000000E+00
  0.00000000E+00  0.00000000E+00  0.00000000E+00
  0.00000000E+00  0.00000000E+00  0.00000000E+00
  0.00000000E+00  0.00000000E+00  0.00000000E+00
  0.00000000E+00  0.00000000E+00  0.00000000E+00
  0.00000000E+00  0.00000000E+00  0.00000000E+00
  0.00000000E+00  0.00000000E+00  0.00000000E+00
  0.00000000E+00  0.00000000E+00  0.00000000E+00
  0.00000000E+00  0.00000000E+00  0.00000000E+00
  0.00000000E+00  0.00000000E+00  0.00000000E+00
  0.00000000E+00  0.00000000E+00  0.00000000E+00
  0.00000000E+00  0.00000000E+00  0.00000000E+00
  0.00000000E+00  0.00000000E+00  0.00000000E+00
  0.00000000E+00  0.00000000E+00  0.00000000E+00
  0.00000000E+00  0.00000000E+00  0.00000000E+00
  0.00000000E+00  0.00000000E+00  0.00000000E+00
  0.00000000E+00  0.00000000E+00  0.00000000E+00
  0.00000000E+00  0.00000000E+00  0.00000000E+00
  0.00000000E+00  0.00000000E+00  0.00000000E+00
  0.00000000E+00  0.00000000E+00  0.00000000E+00
  0.00000000E+00  0.00000000E+00  0.00000000E+00
  0.00000000E+00  0.00000000E+00  0.00000000E+00
  0.00000000E+00  0.00000000E+00  0.00000000E+00
  0.00000000E+00  0.00000000E+00  0.00000000E+00
  0.00000000E+00  0.00000000E+00  0.00000000E+00
  0.00000000E+00  0.00000000E+00  0.00000000E+00
  0.00000000E+00  0.00000000E+00  0.00000000E+00
  0.00000000E+00  0.00000000E+00  0.00000000E+00
  0.00000000E+00  0.00000000E+00  0.00000000E+00
  0.00000000E+00  0.00000000E+00  0.00000000E+00
  0.00000000E+00  0.00000000E+00  0.00000000E+00
  0.00000000E+00  0.00000000E+00  0.00000000E+00
  0.00000000E+00  0.00000000E+00  0.00000000E+00
  0.00000000E+00  0.00000000E+00  0.00000000E+00
  0.00000000E+00  0.00000000E+00  0.00000000E+00
  0.00000000E+00  0.00000000E+00  0.00000000E+00
  0.00000000E+00  0.00000000E+00  0.00000000E+00
  0.00000000E+00  0.00000000E+00  0.00000000E+00
  0.00000000E+00  0.00000000E+00  0.00000000E+00
  0.00000000E+00  0.00000000E+00  0.00000000E+00
  0.00000000E+00  0.00000000E+00  0.00000000E+00
  0.00000000E+00  0.00000000E+00  0.00000000E+00
  0.00000000E+00  0.00000000E+00  0.00000000E+00
  0.00000000E+00  0.00000000E+00  0.00000000E+00
  0.00000000E+00  0.00000000E+00  0.00000000E+00
  0.00000000E+00  0.00000000E+00  0.00000000E+00
  0.00000000E+00  0.00000000E+00  0.00000000E+00
  0.00000000E+00  0.00000000E+00  0.00000000E+00
  0.00000000E+00  0.00000000E+00  0.00000000E+00
  0.00000000E+00  0.00000000E+00  0.00000000E+00
  0.00000000E+00  0.00000000E+00  0.00000000E+00
  0.00000000E+00  0.00000000E+00  0.00000000E+00
  0.00000000E+00  0.00000000E+00  0.00000000E+00
  0.00000000E+00  0.00000000E+00  0.00000000E+00
  0.00000000E+00  0.00000000E+00  0.00000000E+00
  0.00000000E+00  0.00000000E+00  0.00000000E+00
