Bi La Sn H                              
   1.00000000000000     
    29.0000000000000000    0.0000000000000000    0.0000000000000000
     0.2488180851000000   28.9989325590000000    0.0000000000000000
    -0.0631677343000000   -0.4515975666000000   28.9964147692999994
   Bi   La   Sn   H 
    22    23    23     1
Selective dynamics
Direct
  0.7595569266038205  0.4786225791300711  0.3989180728964546   T   T   T
  0.6475903653981425  0.6850902315753754  0.5505723605877217   T   T   T
  0.3610529055975744  0.4588747048121374  0.4256124912654991   T   T   T
  0.5510823204784232  0.7134348120578932  0.5838257747184873   T   T   T
  0.5915029568994470  0.5209714444905416  0.5841479689498996   F   F   F
  0.6401929683169805  0.6797820299831848  0.4451944690989451   T   T   T
  0.6953349782182563  0.5207335066980954  0.6541549271158420   T   T   T
  0.4870758232255338  0.7013375390869787  0.4985896324400035   T   T   T
  0.5004839460855024  0.5502791173970252  0.5477141156400123   F   F   F
  0.3262998842122225  0.4852317189727087  0.5783096970571011   T   T   T
  0.3818902920982340  0.6091146566224148  0.5363759892591677   T   T   T
  0.6667129484492236  0.4827404655721850  0.5105018184570156   F   F   F
  0.5763997220267569  0.4263140504383500  0.5448328182496311   F   F   F
  0.6680302830682034  0.3740014161067491  0.5081845401344910   T   T   T
  0.4608406449803364  0.3395101639001042  0.4961644862628323   T   T   T
  0.6484934028780529  0.5775373212088155  0.4602701624361103   F   F   F
  0.5542844738412873  0.4323572355247267  0.7481962581636172   T   T   T
  0.5962983759477599  0.3509977169370045  0.6683036967374897   T   T   T
  0.4926255565361541  0.2996233401298902  0.4077185054627489   T   T   T
  0.6600866919948747  0.6166288878569506  0.6673540953888616   T   T   T
  0.4906895336170866  0.4118423632297379  0.3035101774984998   T   T   T
  0.6171543056204726  0.3167387365479333  0.5723422568693779   T   T   T
  0.5394027615476796  0.6835365879696668  0.4039203251619760   T   T   T
  0.3883264066843127  0.4173804051592658  0.5240776965223515   T   T   T
  0.6276379906418798  0.5516716387762607  0.2822668853382848   T   T   T
  0.4727923708713772  0.4779557285592168  0.6929264916949397   T   T   T
  0.5683115009887700  0.5094300495444983  0.4784716241115703   F   F   F
  0.4203210565129183  0.5084107200613417  0.5018573595042781   F   F   F
  0.4532000732976194  0.4017550964286720  0.4043119119497253   T   T   T
  0.5618101024174685  0.3501761153686376  0.3514444142662108   T   T   T
  0.4119883450554945  0.5387147117302616  0.6109822863952673   T   T   T
  0.5987576987459849  0.4419959877139706  0.3046188679482611   T   T   T
  0.4546039104952907  0.6010852832973100  0.3643644188403756   T   T   T
  0.4187305033566338  0.4901327662076676  0.3382443111290342   T   T   T
  0.6603996166018131  0.4271666919524651  0.6050494008691678   T   T   T
  0.6735892513935549  0.5787869473092376  0.5641160167357719   T   T   T
  0.5257597646389700  0.5097726738322107  0.3283356025348348   T   T   T
  0.5652430641618023  0.3570173646697463  0.4689901020129430   T   T   T
  0.3155211636169051  0.5392121516585489  0.4930094950609012   T   T   T
  0.6602765759358704  0.4292378095403296  0.4159091166265453   T   T   T
  0.5660841929594156  0.6261437171197244  0.5094829013827464   F   F   F
  0.5953412216821835  0.5274120869351527  0.6899977185947371   T   T   T
  0.4699218840883598  0.6425370124689341  0.5872803400834269   T   T   T
  0.4630020887495703  0.6031978960094054  0.4640980562794840   T   T   T
  0.7161636225812750  0.5741273277409684  0.3830882687519461   T   T   T
  0.5499310510395361  0.5822218838566187  0.4076968008106903   F   F   F
  0.4794126430662260  0.5072205383607624  0.4190535757241776   F   F   F
  0.6947068393064333  0.4807515495901638  0.3245771964913358   T   T   T
  0.7512640423385815  0.4295020360394655  0.4874823660914835   T   T   T
  0.7482789010956856  0.5378806103760287  0.4852148866511396   T   T   T
  0.7482941760629069  0.4899832142602364  0.5727550684521949   T   T   T
  0.6458320039685791  0.4343385713290853  0.7101056953667318   T   T   T
  0.5775121400385756  0.7436583640109388  0.4925417570576520   T   T   T
  0.6192554540844384  0.5183157687966542  0.3801816896793397   F   F   F
  0.5061954108243036  0.5635643619417238  0.6497111954068441   T   T   T
  0.4922009500451665  0.4366758245867572  0.4933013002826740   F   F   F
  0.5608844484509063  0.4404139570509003  0.6454865549417619   F   F   F
  0.5784250535532962  0.6170774169080347  0.6131968355714357   T   T   T
  0.5433598820839498  0.6169508461455092  0.3116282003863369   T   T   T
  0.6265190844861394  0.6246748619728262  0.3600485909823492   T   T   T
  0.3763035442447741  0.5577759507799259  0.4137756087793061   T   T   T
  0.4723078164089713  0.4557257050327763  0.5877273803360978   F   F   F
  0.7276133368260080  0.6350395753877146  0.4840007898232737   T   T   T
  0.4943710860740492  0.3751303254810868  0.6747458102807470   T   T   T
  0.3875970334280815  0.4355056769607721  0.6386441078534448   T   T   T
  0.5544592502646992  0.4379899399457940  0.4037542370104745   F   F   F
  0.4225101684226299  0.3504329266814006  0.6007256250993021   T   T   T
  0.5224049727578053  0.3513807634660046  0.5770797338447995   T   T   T
  0.3718410955907365  0.3499881458772542  0.5551017914528907   T   T   T
 
  0.00000000E+00  0.00000000E+00  0.00000000E+00
  0.00000000E+00  0.00000000E+00  0.00000000E+00
  0.00000000E+00  0.00000000E+00  0.00000000E+00
  0.00000000E+00  0.00000000E+00  0.00000000E+00
  0.00000000E+00  0.00000000E+00  0.00000000E+00
  0.00000000E+00  0.00000000E+00  0.00000000E+00
  0.00000000E+00  0.00000000E+00  0.00000000E+00
  0.00000000E+00  0.00000000E+00  0.00000000E+00
  0.00000000E+00  0.00000000E+00  0.00000000E+00
  0.00000000E+00  0.00000000E+00  0.00000000E+00
  0.00000000E+00  0.00000000E+00  0.00000000E+00
  0.00000000E+00  0.00000000E+00  0.00000000E+00
  0.00000000E+00  0.00000000E+00  0.00000000E+00
  0.00000000E+00  0.00000000E+00  0.00000000E+00
  0.00000000E+00  0.00000000E+00  0.00000000E+00
  0.00000000E+00  0.00000000E+00  0.00000000E+00
  0.00000000E+00  0.00000000E+00  0.00000000E+00
  0.00000000E+00  0.00000000E+00  0.00000000E+00
  0.00000000E+00  0.00000000E+00  0.00000000E+00
  0.00000000E+00  0.00000000E+00  0.00000000E+00
  0.00000000E+00  0.00000000E+00  0.00000000E+00
  0.00000000E+00  0.00000000E+00  0.00000000E+00
  0.00000000E+00  0.00000000E+00  0.00000000E+00
  0.00000000E+00  0.00000000E+00  0.00000000E+00
  0.00000000E+00  0.00000000E+00  0.00000000E+00
  0.00000000E+00  0.00000000E+00  0.00000000E+00
  0.00000000E+00  0.00000000E+00  0.00000000E+00
  0.00000000E+00  0.00000000E+00  0.00000000E+00
  0.00000000E+00  0.00000000E+00  0.00000000E+00
  0.00000000E+00  0.00000000E+00  0.00000000E+00
  0.00000000E+00  0.00000000E+00  0.00000000E+00
  0.00000000E+00  0.00000000E+00  0.00000000E+00
  0.00000000E+00  0.00000000E+00  0.00000000E+00
  0.00000000E+00  0.00000000E+00  0.00000000E+00
  0.00000000E+00  0.00000000E+00  0.00000000E+00
  0.00000000E+00  0.00000000E+00  0.00000000E+00
  0.00000000E+00  0.00000000E+00  0.00000000E+00
  0.00000000E+00  0.00000000E+00  0.00000000E+00
  0.00000000E+00  0.00000000E+00  0.00000000E+00
  0.00000000E+00  0.00000000E+00  0.00000000E+00
  0.00000000E+00  0.00000000E+00  0.00000000E+00
  0.00000000E+00  0.00000000E+00  0.00000000E+00
  0.00000000E+00  0.00000000E+00  0.00000000E+00
  0.00000000E+00  0.00000000E+00  0.00000000E+00
  0.00000000E+00  0.00000000E+00  0.00000000E+00
  0.00000000E+00  0.00000000E+00  0.00000000E+00
  0.00000000E+00  0.00000000E+00  0.00000000E+00
  0.00000000E+00  0.00000000E+00  0.00000000E+00
  0.00000000E+00  0.00000000E+00  0.00000000E+00
  0.00000000E+00  0.00000000E+00  0.00000000E+00
  0.00000000E+00  0.00000000E+00  0.00000000E+00
  0.00000000E+00  0.00000000E+00  0.00000000E+00
  0.00000000E+00  0.00000000E+00  0.00000000E+00
  0.00000000E+00  0.00000000E+00  0.00000000E+00
  0.00000000E+00  0.00000000E+00  0.00000000E+00
  0.00000000E+00  0.00000000E+00  0.00000000E+00
  0.00000000E+00  0.00000000E+00  0.00000000E+00
  0.00000000E+00  0.00000000E+00  0.00000000E+00
  0.00000000E+00  0.00000000E+00  0.00000000E+00
  0.00000000E+00  0.00000000E+00  0.00000000E+00
  0.00000000E+00  0.00000000E+00  0.00000000E+00
  0.00000000E+00  0.00000000E+00  0.00000000E+00
  0.00000000E+00  0.00000000E+00  0.00000000E+00
  0.00000000E+00  0.00000000E+00  0.00000000E+00
  0.00000000E+00  0.00000000E+00  0.00000000E+00
  0.00000000E+00  0.00000000E+00  0.00000000E+00
  0.00000000E+00  0.00000000E+00  0.00000000E+00
  0.00000000E+00  0.00000000E+00  0.00000000E+00
  0.00000000E+00  0.00000000E+00  0.00000000E+00
