Bi La Sn H                              
   1.00000000000000     
    29.0000000000000000    0.0000000000000000    0.0000000000000000
     0.2488180851000000   28.9989325590000000    0.0000000000000000
    -0.0631677343000000   -0.4515975666000000   28.9964147692999994
   Bi   La   Sn   H 
    22    23    23     1
Selective dynamics
Direct
  0.7617025912965208  0.4751066072988058  0.3979053666445599   T   T   T
  0.6504290206227261  0.6814264007648924  0.5529906380148970   T   T   T
  0.3595173247152286  0.4585249528205693  0.4284894771469476   T   T   T
  0.5562106736957230  0.7126020198146861  0.5843606406870514   T   T   T
  0.5915029568994470  0.5209714444905416  0.5841479689498996   F   F   F
  0.6413574275827374  0.6804809845458648  0.4474748329286535   T   T   T
  0.6965277516678123  0.5200600122615515  0.6554518514202460   T   T   T
  0.4855486022646036  0.6995359998068941  0.4928203397787395   T   T   T
  0.5004839460855024  0.5502791173970252  0.5477141156400123   F   F   F
  0.3263000366148116  0.4867696541351884  0.5759725567569911   T   T   T
  0.3833363626346667  0.6105701055686827  0.5363415719386005   T   T   T
  0.6667129484492236  0.4827404655721850  0.5105018184570156   F   F   F
  0.5763997220267569  0.4263140504383500  0.5448328182496311   F   F   F
  0.6678046044690495  0.3738425356647068  0.5069686420713826   T   T   T
  0.4618419431279899  0.3386130973517392  0.4987821315140439   T   T   T
  0.6484934028780529  0.5775373212088155  0.4602701624361103   F   F   F
  0.5574279546105539  0.4362631190332756  0.7497707762009480   T   T   T
  0.5991305117851867  0.3507471767987270  0.6693556965660695   T   T   T
  0.4920886307963354  0.2994765226206405  0.4093398213104730   T   T   T
  0.6623876935455167  0.6166719129687175  0.6663505208737015   T   T   T
  0.4917070710011739  0.4099137234076228  0.3059417722758432   T   T   T
  0.6215529898908723  0.3159022593022901  0.5738190560592881   T   T   T
  0.5422923535263880  0.6836713665186627  0.4030163525773830   T   T   T
  0.3900083884574873  0.4156267301191819  0.5271989564355929   T   T   T
  0.6303881721731722  0.5509520314061829  0.2829831042363196   T   T   T
  0.4724405504515504  0.4757450805716040  0.6920015927509211   T   T   T
  0.5683115009887700  0.5094300495444983  0.4784716241115703   F   F   F
  0.4203210565129183  0.5084107200613417  0.5018573595042781   F   F   F
  0.4518278645360984  0.4011534023914264  0.4061723107479200   T   T   T
  0.5631354693976682  0.3490515144767156  0.3538955975190681   T   T   T
  0.4121564385380098  0.5403835269037237  0.6106297783133633   T   T   T
  0.5990962386166063  0.4412080566424276  0.3043892399812260   T   T   T
  0.4555626313722415  0.6003043644528069  0.3627708563003150   T   T   T
  0.4185319153880622  0.4869617693402999  0.3399615531875187   T   T   T
  0.6609796673008977  0.4274116618520949  0.6044409728647921   T   T   T
  0.6750680305729206  0.5768648832930510  0.5642729220835205   T   T   T
  0.5264832585771805  0.5091225236580221  0.3279865826545748   T   T   T
  0.5651361750239748  0.3569658856133852  0.4695742821695330   T   T   T
  0.3166913147480467  0.5423701872138796  0.4922144620058090   T   T   T
  0.6601905679590359  0.4296867617857292  0.4156379272464228   T   T   T
  0.5660841929594156  0.6261437171197244  0.5094829013827464   F   F   F
  0.5956792533585881  0.5285476278447807  0.6895051923071265   T   T   T
  0.4726375740559182  0.6446061302630878  0.5864076471762781   T   T   T
  0.4627254382581418  0.6023454414084398  0.4639075247239474   T   T   T
  0.7169321365171708  0.5707228594352377  0.3828029725468297   T   T   T
  0.5499310510395361  0.5822218838566187  0.4076968008106903   F   F   F
  0.4794126430662260  0.5072205383607624  0.4190535757241776   F   F   F
  0.6957059979931571  0.4777843490878323  0.3247051612045805   T   T   T
  0.7510092693859520  0.4276782305964908  0.4876777964482911   T   T   T
  0.7489655859684117  0.5345267667316547  0.4841699306095406   T   T   T
  0.7491698220158509  0.4886927812815081  0.5727566800600745   T   T   T
  0.6472868150149851  0.4357319289733402  0.7087885693234400   T   T   T
  0.5759279517392811  0.7429421818895522  0.4932915805929760   T   T   T
  0.6192554540844384  0.5183157687966542  0.3801816896793397   F   F   F
  0.5058652975862532  0.5633436482420633  0.6501043813586854   T   T   T
  0.4922009500451665  0.4366758245867572  0.4933013002826740   F   F   F
  0.5608844484509063  0.4404139570509003  0.6454865549417619   F   F   F
  0.5795668843712777  0.6163224303665350  0.6138330417262952   T   T   T
  0.5459618641849452  0.6158304366226502  0.3125257313871209   T   T   T
  0.6288384386620799  0.6238122677977835  0.3615184842168632   T   T   T
  0.3769556122478427  0.5567219142260524  0.4121429487186189   T   T   T
  0.4723078164089713  0.4557257050327763  0.5877273803360978   F   F   F
  0.7295420899665438  0.6307625298010356  0.4824014399363986   T   T   T
  0.4997966547432974  0.3727011304527312  0.6834208524524394   T   T   T
  0.3831200271490783  0.4403030779655667  0.6403223772825667   T   T   T
  0.5544592502646992  0.4379899399457940  0.4037542370104745   F   F   F
  0.4337335410633434  0.3614223284966496  0.6079567352706976   T   T   T
  0.5277044922750929  0.3489301272558200  0.5782891833460578   T   T   T
  0.4766101584216675  0.7210208777303807  0.5635965168486111   T   T   T
 
  0.00000000E+00  0.00000000E+00  0.00000000E+00
  0.00000000E+00  0.00000000E+00  0.00000000E+00
  0.00000000E+00  0.00000000E+00  0.00000000E+00
  0.00000000E+00  0.00000000E+00  0.00000000E+00
  0.00000000E+00  0.00000000E+00  0.00000000E+00
  0.00000000E+00  0.00000000E+00  0.00000000E+00
  0.00000000E+00  0.00000000E+00  0.00000000E+00
  0.00000000E+00  0.00000000E+00  0.00000000E+00
  0.00000000E+00  0.00000000E+00  0.00000000E+00
  0.00000000E+00  0.00000000E+00  0.00000000E+00
  0.00000000E+00  0.00000000E+00  0.00000000E+00
  0.00000000E+00  0.00000000E+00  0.00000000E+00
  0.00000000E+00  0.00000000E+00  0.00000000E+00
  0.00000000E+00  0.00000000E+00  0.00000000E+00
  0.00000000E+00  0.00000000E+00  0.00000000E+00
  0.00000000E+00  0.00000000E+00  0.00000000E+00
  0.00000000E+00  0.00000000E+00  0.00000000E+00
  0.00000000E+00  0.00000000E+00  0.00000000E+00
  0.00000000E+00  0.00000000E+00  0.00000000E+00
  0.00000000E+00  0.00000000E+00  0.00000000E+00
  0.00000000E+00  0.00000000E+00  0.00000000E+00
  0.00000000E+00  0.00000000E+00  0.00000000E+00
  0.00000000E+00  0.00000000E+00  0.00000000E+00
  0.00000000E+00  0.00000000E+00  0.00000000E+00
  0.00000000E+00  0.00000000E+00  0.00000000E+00
  0.00000000E+00  0.00000000E+00  0.00000000E+00
  0.00000000E+00  0.00000000E+00  0.00000000E+00
  0.00000000E+00  0.00000000E+00  0.00000000E+00
  0.00000000E+00  0.00000000E+00  0.00000000E+00
  0.00000000E+00  0.00000000E+00  0.00000000E+00
  0.00000000E+00  0.00000000E+00  0.00000000E+00
  0.00000000E+00  0.00000000E+00  0.00000000E+00
  0.00000000E+00  0.00000000E+00  0.00000000E+00
  0.00000000E+00  0.00000000E+00  0.00000000E+00
  0.00000000E+00  0.00000000E+00  0.00000000E+00
  0.00000000E+00  0.00000000E+00  0.00000000E+00
  0.00000000E+00  0.00000000E+00  0.00000000E+00
  0.00000000E+00  0.00000000E+00  0.00000000E+00
  0.00000000E+00  0.00000000E+00  0.00000000E+00
  0.00000000E+00  0.00000000E+00  0.00000000E+00
  0.00000000E+00  0.00000000E+00  0.00000000E+00
  0.00000000E+00  0.00000000E+00  0.00000000E+00
  0.00000000E+00  0.00000000E+00  0.00000000E+00
  0.00000000E+00  0.00000000E+00  0.00000000E+00
  0.00000000E+00  0.00000000E+00  0.00000000E+00
  0.00000000E+00  0.00000000E+00  0.00000000E+00
  0.00000000E+00  0.00000000E+00  0.00000000E+00
  0.00000000E+00  0.00000000E+00  0.00000000E+00
  0.00000000E+00  0.00000000E+00  0.00000000E+00
  0.00000000E+00  0.00000000E+00  0.00000000E+00
  0.00000000E+00  0.00000000E+00  0.00000000E+00
  0.00000000E+00  0.00000000E+00  0.00000000E+00
  0.00000000E+00  0.00000000E+00  0.00000000E+00
  0.00000000E+00  0.00000000E+00  0.00000000E+00
  0.00000000E+00  0.00000000E+00  0.00000000E+00
  0.00000000E+00  0.00000000E+00  0.00000000E+00
  0.00000000E+00  0.00000000E+00  0.00000000E+00
  0.00000000E+00  0.00000000E+00  0.00000000E+00
  0.00000000E+00  0.00000000E+00  0.00000000E+00
  0.00000000E+00  0.00000000E+00  0.00000000E+00
  0.00000000E+00  0.00000000E+00  0.00000000E+00
  0.00000000E+00  0.00000000E+00  0.00000000E+00
  0.00000000E+00  0.00000000E+00  0.00000000E+00
  0.00000000E+00  0.00000000E+00  0.00000000E+00
  0.00000000E+00  0.00000000E+00  0.00000000E+00
  0.00000000E+00  0.00000000E+00  0.00000000E+00
  0.00000000E+00  0.00000000E+00  0.00000000E+00
  0.00000000E+00  0.00000000E+00  0.00000000E+00
  0.00000000E+00  0.00000000E+00  0.00000000E+00
