La Co Ni Sn Bi O  C  H                  
   1.00000000000000     
    29.1044006348000011    0.0000000000000000    0.0000000000000000
     0.4451680315000000   28.3694074727000007    0.0000000000000000
     0.0682082826000000    0.3036559964000000   28.5240018092999996
   La   Co   Ni   Sn   Bi   O    C    H 
    14    13    13    14    14     2     1     1
Selective dynamics
Direct
  0.5918744464022427  0.4208867560301533  0.4066288660671622   T   T   T
  0.6853158696489344  0.5713690113003462  0.3813461866574998   T   T   T
  0.4951471360611268  0.5276331258029738  0.2826771142717261   T   T   T
  0.5626323041278424  0.5219494542425249  0.6020073385448070   T   T   T
  0.5087545516995849  0.3869528049435026  0.3054137655918890   T   T   T
  0.5753557057111752  0.6554727155274911  0.4837138253663593   T   T   T
  0.5068030781838541  0.3381324233693972  0.4998785156512067   T   T   T
  0.5352470424573503  0.6375354608213798  0.3753744774829953   T   T   T
  0.4360005241380202  0.6434949955991320  0.5356271450304555   T   T   T
  0.4373551010143757  0.5015757590148624  0.3842817269995109   F   F   F
  0.4437846394494898  0.4460183835780285  0.5005161578087822   F   F   F
  0.3873782662764341  0.4672349969214596  0.6097181448652129   T   T   T
  0.3443045505628596  0.4443364738391234  0.3470213316911940   T   T   T
  0.3618333513390060  0.5855246387017329  0.3939865195563812   T   T   T
  0.4217425606853311  0.4061295180575186  0.3699802678458894   F   F   F
  0.5011311695957161  0.4887203336762909  0.4395023580252015   F   F   F
  0.4044148221271726  0.6101724300038001  0.4624736492929173   F   F   F
  0.4722931245665194  0.5596737886932672  0.5729988711091565   F   F   F
  0.6552684236953183  0.5165424048424470  0.4543399438695133   F   F   F
  0.5967309916701211  0.5535378348504167  0.5056109707055541   F   F   F
  0.5314074673932367  0.5941153005651714  0.5336729985293047   F   F   F
  0.5796732686089143  0.4997731718447866  0.4507473928409595   F   F   F
  0.4613675474238738  0.3314651493722922  0.3435043882447198   T   T   T
  0.3905180950192175  0.5252419063175111  0.4552418453041511   F   F   F
  0.4538594332253837  0.3248917911637326  0.4227597453802087   T   T   T
  0.5074804872141527  0.4592780196109629  0.3501259710292359   F   F   F
  0.6012877811302459  0.4669891268301640  0.5212355700313438   F   F   F
  0.5384608035519776  0.4312182275275163  0.4821288228790692   F   F   F
  0.4713083414346286  0.4805797151798927  0.5807598339419258   F   F   F
  0.3771163837573610  0.4514853175274567  0.4282230665427278   F   F   F
  0.4059018739390154  0.3822235888080883  0.4561785915149272   F   F   F
  0.5357818896390683  0.5680835373033233  0.4543473312664048   F   F   F
  0.4924712632432886  0.6367287407321953  0.4646113344718685   F   F   F
  0.4677327221812249  0.5829886973614862  0.4038343643763724   F   F   F
  0.5280944416629296  0.5063826634733033  0.5194466411805863   F   F   F
  0.6212454441397384  0.5105019604624417  0.3755946010283822   F   F   F
  0.6054499763524817  0.5821019035045651  0.4188664505762958   F   F   F
  0.4050790883739026  0.5245211222763402  0.5434909784116542   F   F   F
  0.3508809048762809  0.4700507341965460  0.5088280890658089   T   T   T
  0.4335024496820546  0.4574424554300286  0.3019622511495275   T   T   T
  0.5387896438185020  0.4220603794645501  0.5686471565196684   T   T   T
  0.3583864101912715  0.3869100585940857  0.5401201838267978   T   T   T
  0.4625951421883201  0.5516617238622956  0.4875128022361963   F   F   F
  0.6044060481196859  0.3724796245621685  0.5087934274564337   T   T   T
  0.4928583598715651  0.4392831615023171  0.6579557143795869   T   T   T
  0.5873794465951900  0.4678530051515761  0.3058989664989629   T   T   T
  0.4900497958562298  0.4037080615820798  0.4151644571778519   F   F   F
  0.4354260145274755  0.6747700940375816  0.4129537577793635   T   T   T
  0.4680767340928178  0.5369786922291456  0.6601391103269464   T   T   T
  0.5397532608265934  0.5319899791087650  0.3771480104995177   F   F   F
  0.6685884469438599  0.6002941866057737  0.4839237668953735   T   T   T
  0.6657777332605155  0.5185797344736048  0.5497455644854350   T   T   T
  0.3742514392712381  0.3350587768210050  0.3848508185208508   T   T   T
  0.6721857302289589  0.4351973009457518  0.4811744345806340   T   T   T
  0.5396948221103859  0.3190051152804897  0.3924191214436443   T   T   T
  0.3023334971769520  0.5028891181529415  0.4366661166851805   T   T   T
  0.3134397566493144  0.3957517208095931  0.4501363589093471   T   T   T
  0.5121913921478276  0.6250122751287498  0.6170274578958060   T   T   T
  0.4490985825069851  0.3751685804529428  0.5861927318774054   T   T   T
  0.3904390054263256  0.5805994547180420  0.6130183886882387   T   T   T
  0.4035587426445323  0.3050551903438447  0.4997235308390039   T   T   T
  0.4022112952316248  0.3720803818987070  0.2868726766889622   T   T   T
  0.3835629297503494  0.5340440222660953  0.2926770450900570   T   T   T
  0.6934911909842635  0.4608959064700500  0.3853571542782979   T   T   T
  0.3376427241863953  0.5720902822252457  0.5128805806461617   T   T   T
  0.5995250105366154  0.5724277680876008  0.3077474490310090   T   T   T
  0.6130327538998047  0.6141713293750322  0.5754460937486631   T   T   T
  0.4400101377292155  0.6155689217725169  0.3238804472048457   T   T   T
  0.7344582713147272  0.4134061989308478  0.5175727928797240   T   T   T
  0.7684962098234527  0.4225585378259748  0.4459920314213645   T   T   T
  0.7693441324108903  0.4124275938503070  0.4884919191991235   T   T   T
  0.8021503768667523  0.4010475820105731  0.5055107894929531   T   T   T
 
  0.00000000E+00  0.00000000E+00  0.00000000E+00
  0.00000000E+00  0.00000000E+00  0.00000000E+00
  0.00000000E+00  0.00000000E+00  0.00000000E+00
  0.00000000E+00  0.00000000E+00  0.00000000E+00
  0.00000000E+00  0.00000000E+00  0.00000000E+00
  0.00000000E+00  0.00000000E+00  0.00000000E+00
  0.00000000E+00  0.00000000E+00  0.00000000E+00
  0.00000000E+00  0.00000000E+00  0.00000000E+00
  0.00000000E+00  0.00000000E+00  0.00000000E+00
  0.00000000E+00  0.00000000E+00  0.00000000E+00
  0.00000000E+00  0.00000000E+00  0.00000000E+00
  0.00000000E+00  0.00000000E+00  0.00000000E+00
  0.00000000E+00  0.00000000E+00  0.00000000E+00
  0.00000000E+00  0.00000000E+00  0.00000000E+00
  0.00000000E+00  0.00000000E+00  0.00000000E+00
  0.00000000E+00  0.00000000E+00  0.00000000E+00
  0.00000000E+00  0.00000000E+00  0.00000000E+00
  0.00000000E+00  0.00000000E+00  0.00000000E+00
  0.00000000E+00  0.00000000E+00  0.00000000E+00
  0.00000000E+00  0.00000000E+00  0.00000000E+00
  0.00000000E+00  0.00000000E+00  0.00000000E+00
  0.00000000E+00  0.00000000E+00  0.00000000E+00
  0.00000000E+00  0.00000000E+00  0.00000000E+00
  0.00000000E+00  0.00000000E+00  0.00000000E+00
  0.00000000E+00  0.00000000E+00  0.00000000E+00
  0.00000000E+00  0.00000000E+00  0.00000000E+00
  0.00000000E+00  0.00000000E+00  0.00000000E+00
  0.00000000E+00  0.00000000E+00  0.00000000E+00
  0.00000000E+00  0.00000000E+00  0.00000000E+00
  0.00000000E+00  0.00000000E+00  0.00000000E+00
  0.00000000E+00  0.00000000E+00  0.00000000E+00
  0.00000000E+00  0.00000000E+00  0.00000000E+00
  0.00000000E+00  0.00000000E+00  0.00000000E+00
  0.00000000E+00  0.00000000E+00  0.00000000E+00
  0.00000000E+00  0.00000000E+00  0.00000000E+00
  0.00000000E+00  0.00000000E+00  0.00000000E+00
  0.00000000E+00  0.00000000E+00  0.00000000E+00
  0.00000000E+00  0.00000000E+00  0.00000000E+00
  0.00000000E+00  0.00000000E+00  0.00000000E+00
  0.00000000E+00  0.00000000E+00  0.00000000E+00
  0.00000000E+00  0.00000000E+00  0.00000000E+00
  0.00000000E+00  0.00000000E+00  0.00000000E+00
  0.00000000E+00  0.00000000E+00  0.00000000E+00
  0.00000000E+00  0.00000000E+00  0.00000000E+00
  0.00000000E+00  0.00000000E+00  0.00000000E+00
  0.00000000E+00  0.00000000E+00  0.00000000E+00
  0.00000000E+00  0.00000000E+00  0.00000000E+00
  0.00000000E+00  0.00000000E+00  0.00000000E+00
  0.00000000E+00  0.00000000E+00  0.00000000E+00
  0.00000000E+00  0.00000000E+00  0.00000000E+00
  0.00000000E+00  0.00000000E+00  0.00000000E+00
  0.00000000E+00  0.00000000E+00  0.00000000E+00
  0.00000000E+00  0.00000000E+00  0.00000000E+00
  0.00000000E+00  0.00000000E+00  0.00000000E+00
  0.00000000E+00  0.00000000E+00  0.00000000E+00
  0.00000000E+00  0.00000000E+00  0.00000000E+00
  0.00000000E+00  0.00000000E+00  0.00000000E+00
  0.00000000E+00  0.00000000E+00  0.00000000E+00
  0.00000000E+00  0.00000000E+00  0.00000000E+00
  0.00000000E+00  0.00000000E+00  0.00000000E+00
  0.00000000E+00  0.00000000E+00  0.00000000E+00
  0.00000000E+00  0.00000000E+00  0.00000000E+00
  0.00000000E+00  0.00000000E+00  0.00000000E+00
  0.00000000E+00  0.00000000E+00  0.00000000E+00
  0.00000000E+00  0.00000000E+00  0.00000000E+00
  0.00000000E+00  0.00000000E+00  0.00000000E+00
  0.00000000E+00  0.00000000E+00  0.00000000E+00
  0.00000000E+00  0.00000000E+00  0.00000000E+00
  0.00000000E+00  0.00000000E+00  0.00000000E+00
  0.00000000E+00  0.00000000E+00  0.00000000E+00
  0.00000000E+00  0.00000000E+00  0.00000000E+00
  0.00000000E+00  0.00000000E+00  0.00000000E+00
