La Co Ni Sn Bi O  C  H                  
   1.00000000000000     
    29.1044006348000011    0.0000000000000000    0.0000000000000000
     0.4451680315000000   28.3694074727000007    0.0000000000000000
     0.0682082826000000    0.3036559964000000   28.5240018092999996
   La   Co   Ni   Sn   Bi   O    C    H 
    14    13    13    14    14     2     1     1
Selective dynamics
Direct
  0.5922674711900354  0.4202380541074717  0.4074783927183022   T   T   T
  0.6854038232063517  0.5709625718587172  0.3810158316313799   T   T   T
  0.4953687547494686  0.5277205889404246  0.2824964831380390   T   T   T
  0.5626567670596848  0.5221273641417685  0.6020023030737984   T   T   T
  0.5089096545646622  0.3867588474324323  0.3057490030775334   T   T   T
  0.5749376490429448  0.6555595006845022  0.4835677330254754   T   T   T
  0.5093879718136426  0.3388373581563607  0.5002601957811410   T   T   T
  0.5350425670365684  0.6376189234210491  0.3751721237229332   T   T   T
  0.4356462480571884  0.6431809220579292  0.5357096684130206   T   T   T
  0.4373551010143757  0.5015757590148624  0.3842817269995109   F   F   F
  0.4437846394494898  0.4460183835780285  0.5005161578087822   F   F   F
  0.3870069877948657  0.4669076848495171  0.6136429428284609   T   T   T
  0.3444165324140541  0.4440483174756440  0.3472812819873874   T   T   T
  0.3616389377620616  0.5858307513630722  0.3938034400329312   T   T   T
  0.4217425606853311  0.4061295180575186  0.3699802678458894   F   F   F
  0.5011311695957161  0.4887203336762909  0.4395023580252015   F   F   F
  0.4044148221271726  0.6101724300038001  0.4624736492929173   F   F   F
  0.4722931245665194  0.5596737886932672  0.5729988711091565   F   F   F
  0.6552684236953183  0.5165424048424470  0.4543399438695133   F   F   F
  0.5967309916701211  0.5535378348504167  0.5056109707055541   F   F   F
  0.5314074673932367  0.5941153005651714  0.5336729985293047   F   F   F
  0.5796732686089143  0.4997731718447866  0.4507473928409595   F   F   F
  0.4606224721032652  0.3307923638696451  0.3457962263962038   T   T   T
  0.3905180950192175  0.5252419063175111  0.4552418453041511   F   F   F
  0.4539724332887530  0.3242014161398263  0.4253092954119718   T   T   T
  0.5074804872141527  0.4592780196109629  0.3501259710292359   F   F   F
  0.6012877811302459  0.4669891268301640  0.5212355700313438   F   F   F
  0.5384608035519776  0.4312182275275163  0.4821288228790692   F   F   F
  0.4713083414346286  0.4805797151798927  0.5807598339419258   F   F   F
  0.3771163837573610  0.4514853175274567  0.4282230665427278   F   F   F
  0.4059018739390154  0.3822235888080883  0.4561785915149272   F   F   F
  0.5357818896390683  0.5680835373033233  0.4543473312664048   F   F   F
  0.4924712632432886  0.6367287407321953  0.4646113344718685   F   F   F
  0.4677327221812249  0.5829886973614862  0.4038343643763724   F   F   F
  0.5280944416629296  0.5063826634733033  0.5194466411805863   F   F   F
  0.6212454441397384  0.5105019604624417  0.3755946010283822   F   F   F
  0.6054499763524817  0.5821019035045651  0.4188664505762958   F   F   F
  0.4050790883739026  0.5245211222763402  0.5434909784116542   F   F   F
  0.3496098470937465  0.4709845610125120  0.5092547799018051   T   T   T
  0.4339506931933879  0.4570610661801825  0.3020511923564451   T   T   T
  0.5390522264318138  0.4219789278889562  0.5692004754873875   T   T   T
  0.3592586591950731  0.3895605015042663  0.5403481337710215   T   T   T
  0.4625951421883201  0.5516617238622956  0.4875128022361963   F   F   F
  0.6073508315355943  0.3755806103003717  0.5101597975020308   T   T   T
  0.4942478927068779  0.4408834415110938  0.6585413231786316   T   T   T
  0.5872641315376812  0.4675408120306752  0.3063370414570221   T   T   T
  0.4900497958562298  0.4037080615820798  0.4151644571778519   F   F   F
  0.4354893574535045  0.6747420730156066  0.4128526063794022   T   T   T
  0.4687480666920938  0.5382993585694380  0.6603940214687849   T   T   T
  0.5397532608265934  0.5319899791087650  0.3771480104995177   F   F   F
  0.6683186732346750  0.6006180036997794  0.4835587417735639   T   T   T
  0.6657408893915355  0.5194047153784981  0.5506074580071793   T   T   T
  0.3744696162355540  0.3349966301375650  0.3854183721001233   T   T   T
  0.6791363082036985  0.4367496175155404  0.4868568994542783   T   T   T
  0.5393969589862323  0.3181818215363427  0.3925413800067110   T   T   T
  0.3025667065543832  0.5031547200255284  0.4370162537241129   T   T   T
  0.3132457615368154  0.3958260274346068  0.4506188378739511   T   T   T
  0.5125354785292928  0.6257459835190416  0.6165718197626565   T   T   T
  0.4503337264573313  0.3760353853789037  0.5871494532139996   T   T   T
  0.3904317329500180  0.5804070843465222  0.6129719317293925   T   T   T
  0.4062705750300953  0.3076187410328752  0.5052300689075350   T   T   T
  0.4025346540276272  0.3714425949058139  0.2872312281344830   T   T   T
  0.3837913230585140  0.5333677331442229  0.2925559777912572   T   T   T
  0.6925977458829615  0.4601502581052775  0.3875238618905660   T   T   T
  0.3377036792779209  0.5725925279610684  0.5127470350660228   T   T   T
  0.5995336496377346  0.5724246270944815  0.3078875795340578   T   T   T
  0.6128716816466864  0.6145761098328311  0.5754509637453545   T   T   T
  0.4397938399199580  0.6153286765481225  0.3238317790010570   T   T   T
  0.3278112979213090  0.4139040932521245  0.6414187169875528   T   T   T
  0.3003592331387024  0.3598631385893539  0.5905151450541122   T   T   T
  0.3012101521027055  0.3805669484906154  0.6296617435636255   T   T   T
  0.2763336795689181  0.3684096095531980  0.6566064139921041   T   T   T
 
  0.00000000E+00  0.00000000E+00  0.00000000E+00
  0.00000000E+00  0.00000000E+00  0.00000000E+00
  0.00000000E+00  0.00000000E+00  0.00000000E+00
  0.00000000E+00  0.00000000E+00  0.00000000E+00
  0.00000000E+00  0.00000000E+00  0.00000000E+00
  0.00000000E+00  0.00000000E+00  0.00000000E+00
  0.00000000E+00  0.00000000E+00  0.00000000E+00
  0.00000000E+00  0.00000000E+00  0.00000000E+00
  0.00000000E+00  0.00000000E+00  0.00000000E+00
  0.00000000E+00  0.00000000E+00  0.00000000E+00
  0.00000000E+00  0.00000000E+00  0.00000000E+00
  0.00000000E+00  0.00000000E+00  0.00000000E+00
  0.00000000E+00  0.00000000E+00  0.00000000E+00
  0.00000000E+00  0.00000000E+00  0.00000000E+00
  0.00000000E+00  0.00000000E+00  0.00000000E+00
  0.00000000E+00  0.00000000E+00  0.00000000E+00
  0.00000000E+00  0.00000000E+00  0.00000000E+00
  0.00000000E+00  0.00000000E+00  0.00000000E+00
  0.00000000E+00  0.00000000E+00  0.00000000E+00
  0.00000000E+00  0.00000000E+00  0.00000000E+00
  0.00000000E+00  0.00000000E+00  0.00000000E+00
  0.00000000E+00  0.00000000E+00  0.00000000E+00
  0.00000000E+00  0.00000000E+00  0.00000000E+00
  0.00000000E+00  0.00000000E+00  0.00000000E+00
  0.00000000E+00  0.00000000E+00  0.00000000E+00
  0.00000000E+00  0.00000000E+00  0.00000000E+00
  0.00000000E+00  0.00000000E+00  0.00000000E+00
  0.00000000E+00  0.00000000E+00  0.00000000E+00
  0.00000000E+00  0.00000000E+00  0.00000000E+00
  0.00000000E+00  0.00000000E+00  0.00000000E+00
  0.00000000E+00  0.00000000E+00  0.00000000E+00
  0.00000000E+00  0.00000000E+00  0.00000000E+00
  0.00000000E+00  0.00000000E+00  0.00000000E+00
  0.00000000E+00  0.00000000E+00  0.00000000E+00
  0.00000000E+00  0.00000000E+00  0.00000000E+00
  0.00000000E+00  0.00000000E+00  0.00000000E+00
  0.00000000E+00  0.00000000E+00  0.00000000E+00
  0.00000000E+00  0.00000000E+00  0.00000000E+00
  0.00000000E+00  0.00000000E+00  0.00000000E+00
  0.00000000E+00  0.00000000E+00  0.00000000E+00
  0.00000000E+00  0.00000000E+00  0.00000000E+00
  0.00000000E+00  0.00000000E+00  0.00000000E+00
  0.00000000E+00  0.00000000E+00  0.00000000E+00
  0.00000000E+00  0.00000000E+00  0.00000000E+00
  0.00000000E+00  0.00000000E+00  0.00000000E+00
  0.00000000E+00  0.00000000E+00  0.00000000E+00
  0.00000000E+00  0.00000000E+00  0.00000000E+00
  0.00000000E+00  0.00000000E+00  0.00000000E+00
  0.00000000E+00  0.00000000E+00  0.00000000E+00
  0.00000000E+00  0.00000000E+00  0.00000000E+00
  0.00000000E+00  0.00000000E+00  0.00000000E+00
  0.00000000E+00  0.00000000E+00  0.00000000E+00
  0.00000000E+00  0.00000000E+00  0.00000000E+00
  0.00000000E+00  0.00000000E+00  0.00000000E+00
  0.00000000E+00  0.00000000E+00  0.00000000E+00
  0.00000000E+00  0.00000000E+00  0.00000000E+00
  0.00000000E+00  0.00000000E+00  0.00000000E+00
  0.00000000E+00  0.00000000E+00  0.00000000E+00
  0.00000000E+00  0.00000000E+00  0.00000000E+00
  0.00000000E+00  0.00000000E+00  0.00000000E+00
  0.00000000E+00  0.00000000E+00  0.00000000E+00
  0.00000000E+00  0.00000000E+00  0.00000000E+00
  0.00000000E+00  0.00000000E+00  0.00000000E+00
  0.00000000E+00  0.00000000E+00  0.00000000E+00
  0.00000000E+00  0.00000000E+00  0.00000000E+00
  0.00000000E+00  0.00000000E+00  0.00000000E+00
  0.00000000E+00  0.00000000E+00  0.00000000E+00
  0.00000000E+00  0.00000000E+00  0.00000000E+00
  0.00000000E+00  0.00000000E+00  0.00000000E+00
  0.00000000E+00  0.00000000E+00  0.00000000E+00
  0.00000000E+00  0.00000000E+00  0.00000000E+00
  0.00000000E+00  0.00000000E+00  0.00000000E+00
