La Co Ni Sn Bi O  C  H                  
   1.00000000000000     
    29.1044006348000011    0.0000000000000000    0.0000000000000000
     0.4451680315000000   28.3694074727000007    0.0000000000000000
     0.0682082826000000    0.3036559964000000   28.5240018092999996
   La   Co   Ni   Sn   Bi   O    C    H 
    14    13    13    14    14     2     1     1
Selective dynamics
Direct
  0.5927609584824772  0.4205245237726598  0.4083486371410715   T   T   T
  0.6841429230518855  0.5722404772857624  0.3797278861467918   T   T   T
  0.4959350311237072  0.5257694489568395  0.2815293977651316   T   T   T
  0.5627190377082655  0.5228165917460423  0.6019543128936845   T   T   T
  0.5091474794095699  0.3868053558988337  0.3057106930792682   T   T   T
  0.5766410699726030  0.6583145639576399  0.4796466174309338   T   T   T
  0.5091019662159472  0.3384096629180911  0.4999556275615497   T   T   T
  0.5370987873340385  0.6394972837739946  0.3723260383380003   T   T   T
  0.4360719502002320  0.6437346481416809  0.5351538275874081   T   T   T
  0.4373551010143757  0.5015757590148624  0.3842817269995109   F   F   F
  0.4437846394494898  0.4460183835780285  0.5005161578087822   F   F   F
  0.3876031983832343  0.4673652253344173  0.6098893052823529   T   T   T
  0.3446170849759629  0.4438446951362366  0.3469845365218971   T   T   T
  0.3622708744755593  0.5851901319003476  0.3933080433136408   T   T   T
  0.4217425606853311  0.4061295180575186  0.3699802678458894   F   F   F
  0.5011311695957161  0.4887203336762909  0.4395023580252015   F   F   F
  0.4044148221271726  0.6101724300038001  0.4624736492929173   F   F   F
  0.4722931245665194  0.5596737886932672  0.5729988711091565   F   F   F
  0.6552684236953183  0.5165424048424470  0.4543399438695133   F   F   F
  0.5967309916701211  0.5535378348504167  0.5056109707055541   F   F   F
  0.5314074673932367  0.5941153005651714  0.5336729985293047   F   F   F
  0.5796732686089143  0.4997731718447866  0.4507473928409595   F   F   F
  0.4612217991269619  0.3309884505973607  0.3452079545630615   T   T   T
  0.3905180950192175  0.5252419063175111  0.4552418453041511   F   F   F
  0.4548450699401332  0.3245985382514707  0.4248222942989958   T   T   T
  0.5074804872141527  0.4592780196109629  0.3501259710292359   F   F   F
  0.6012877811302459  0.4669891268301640  0.5212355700313438   F   F   F
  0.5384608035519776  0.4312182275275163  0.4821288228790692   F   F   F
  0.4713083414346286  0.4805797151798927  0.5807598339419258   F   F   F
  0.3771163837573610  0.4514853175274567  0.4282230665427278   F   F   F
  0.4059018739390154  0.3822235888080883  0.4561785915149272   F   F   F
  0.5357818896390683  0.5680835373033233  0.4543473312664048   F   F   F
  0.4924712632432886  0.6367287407321953  0.4646113344718685   F   F   F
  0.4677327221812249  0.5829886973614862  0.4038343643763724   F   F   F
  0.5280944416629296  0.5063826634733033  0.5194466411805863   F   F   F
  0.6212454441397384  0.5105019604624417  0.3755946010283822   F   F   F
  0.6054499763524817  0.5821019035045651  0.4188664505762958   F   F   F
  0.4050790883739026  0.5245211222763402  0.5434909784116542   F   F   F
  0.3507632200682987  0.4702466913648730  0.5087580655412774   T   T   T
  0.4340973044739519  0.4567984434099646  0.3020301218188722   T   T   T
  0.5384814215870491  0.4225153702606094  0.5692622444744081   T   T   T
  0.3579546700113900  0.3874390612588574  0.5403557931560153   T   T   T
  0.4625951421883201  0.5516617238622956  0.4875128022361963   F   F   F
  0.6070111950590179  0.3755802908105136  0.5111847304428626   T   T   T
  0.4920690971047825  0.4397743245227605  0.6582973997680960   T   T   T
  0.5880493786312952  0.4664448336904609  0.3067607769403020   T   T   T
  0.4900497958562298  0.4037080615820798  0.4151644571778519   F   F   F
  0.4359937883525165  0.6733734280803160  0.4115121294973120   T   T   T
  0.4685493243597985  0.5376976828762733  0.6601810543924651   T   T   T
  0.5397532608265934  0.5319899791087650  0.3771480104995177   F   F   F
  0.6684366104425568  0.6005322551737990  0.4829519569280483   T   T   T
  0.6658056596395070  0.5197813878579676  0.5505201099376680   T   T   T
  0.3752533121446665  0.3345145724402271  0.3851334354008890   T   T   T
  0.6793746006995960  0.4368834531943380  0.4868782182006102   T   T   T
  0.5398691716988874  0.3185213579330493  0.3923730171869654   T   T   T
  0.3024251646244289  0.5030040204668160  0.4365146835203716   T   T   T
  0.3135625677025256  0.3957554321781120  0.4500394884815891   T   T   T
  0.5121104571945947  0.6259245221871230  0.6163963380894165   T   T   T
  0.4494047645330498  0.3750981949189998  0.5859634116119559   T   T   T
  0.3904828069456776  0.5808236723653172  0.6127076336104079   T   T   T
  0.4054454109813572  0.3060312812413794  0.5018794534429520   T   T   T
  0.4028463891949710  0.3713217665867536  0.2870976784907746   T   T   T
  0.3839308498084385  0.5330614260112996  0.2919812407653266   T   T   T
  0.6931056369905890  0.4611916427139873  0.3872891529404573   T   T   T
  0.3375858841719357  0.5721070875779485  0.5126650814225993   T   T   T
  0.5990593458588843  0.5705770933751715  0.3062218159530887   T   T   T
  0.6121769624986538  0.6158411057650641  0.5738466628427157   T   T   T
  0.4410563702146382  0.6135972801458988  0.3228902230043901   T   T   T
  0.5824641924835925  0.7109214880385316  0.4088618380570542   T   T   T
  0.5957895952516011  0.6943214607232405  0.3329097924516678   T   T   T
  0.6005602460376629  0.7200098932692153  0.3683777915685793   T   T   T
  0.6212120121587339  0.7524203236668914  0.3653673408255698   T   T   T
 
  0.00000000E+00  0.00000000E+00  0.00000000E+00
  0.00000000E+00  0.00000000E+00  0.00000000E+00
  0.00000000E+00  0.00000000E+00  0.00000000E+00
  0.00000000E+00  0.00000000E+00  0.00000000E+00
  0.00000000E+00  0.00000000E+00  0.00000000E+00
  0.00000000E+00  0.00000000E+00  0.00000000E+00
  0.00000000E+00  0.00000000E+00  0.00000000E+00
  0.00000000E+00  0.00000000E+00  0.00000000E+00
  0.00000000E+00  0.00000000E+00  0.00000000E+00
  0.00000000E+00  0.00000000E+00  0.00000000E+00
  0.00000000E+00  0.00000000E+00  0.00000000E+00
  0.00000000E+00  0.00000000E+00  0.00000000E+00
  0.00000000E+00  0.00000000E+00  0.00000000E+00
  0.00000000E+00  0.00000000E+00  0.00000000E+00
  0.00000000E+00  0.00000000E+00  0.00000000E+00
  0.00000000E+00  0.00000000E+00  0.00000000E+00
  0.00000000E+00  0.00000000E+00  0.00000000E+00
  0.00000000E+00  0.00000000E+00  0.00000000E+00
  0.00000000E+00  0.00000000E+00  0.00000000E+00
  0.00000000E+00  0.00000000E+00  0.00000000E+00
  0.00000000E+00  0.00000000E+00  0.00000000E+00
  0.00000000E+00  0.00000000E+00  0.00000000E+00
  0.00000000E+00  0.00000000E+00  0.00000000E+00
  0.00000000E+00  0.00000000E+00  0.00000000E+00
  0.00000000E+00  0.00000000E+00  0.00000000E+00
  0.00000000E+00  0.00000000E+00  0.00000000E+00
  0.00000000E+00  0.00000000E+00  0.00000000E+00
  0.00000000E+00  0.00000000E+00  0.00000000E+00
  0.00000000E+00  0.00000000E+00  0.00000000E+00
  0.00000000E+00  0.00000000E+00  0.00000000E+00
  0.00000000E+00  0.00000000E+00  0.00000000E+00
  0.00000000E+00  0.00000000E+00  0.00000000E+00
  0.00000000E+00  0.00000000E+00  0.00000000E+00
  0.00000000E+00  0.00000000E+00  0.00000000E+00
  0.00000000E+00  0.00000000E+00  0.00000000E+00
  0.00000000E+00  0.00000000E+00  0.00000000E+00
  0.00000000E+00  0.00000000E+00  0.00000000E+00
  0.00000000E+00  0.00000000E+00  0.00000000E+00
  0.00000000E+00  0.00000000E+00  0.00000000E+00
  0.00000000E+00  0.00000000E+00  0.00000000E+00
  0.00000000E+00  0.00000000E+00  0.00000000E+00
  0.00000000E+00  0.00000000E+00  0.00000000E+00
  0.00000000E+00  0.00000000E+00  0.00000000E+00
  0.00000000E+00  0.00000000E+00  0.00000000E+00
  0.00000000E+00  0.00000000E+00  0.00000000E+00
  0.00000000E+00  0.00000000E+00  0.00000000E+00
  0.00000000E+00  0.00000000E+00  0.00000000E+00
  0.00000000E+00  0.00000000E+00  0.00000000E+00
  0.00000000E+00  0.00000000E+00  0.00000000E+00
  0.00000000E+00  0.00000000E+00  0.00000000E+00
  0.00000000E+00  0.00000000E+00  0.00000000E+00
  0.00000000E+00  0.00000000E+00  0.00000000E+00
  0.00000000E+00  0.00000000E+00  0.00000000E+00
  0.00000000E+00  0.00000000E+00  0.00000000E+00
  0.00000000E+00  0.00000000E+00  0.00000000E+00
  0.00000000E+00  0.00000000E+00  0.00000000E+00
  0.00000000E+00  0.00000000E+00  0.00000000E+00
  0.00000000E+00  0.00000000E+00  0.00000000E+00
  0.00000000E+00  0.00000000E+00  0.00000000E+00
  0.00000000E+00  0.00000000E+00  0.00000000E+00
  0.00000000E+00  0.00000000E+00  0.00000000E+00
  0.00000000E+00  0.00000000E+00  0.00000000E+00
  0.00000000E+00  0.00000000E+00  0.00000000E+00
  0.00000000E+00  0.00000000E+00  0.00000000E+00
  0.00000000E+00  0.00000000E+00  0.00000000E+00
  0.00000000E+00  0.00000000E+00  0.00000000E+00
  0.00000000E+00  0.00000000E+00  0.00000000E+00
  0.00000000E+00  0.00000000E+00  0.00000000E+00
  0.00000000E+00  0.00000000E+00  0.00000000E+00
  0.00000000E+00  0.00000000E+00  0.00000000E+00
  0.00000000E+00  0.00000000E+00  0.00000000E+00
  0.00000000E+00  0.00000000E+00  0.00000000E+00
