La Co Ni Sn Bi O  C  H                  
   1.00000000000000     
    29.1044006348000011    0.0000000000000000    0.0000000000000000
     0.4451680315000000   28.3694074727000007    0.0000000000000000
     0.0682082826000000    0.3036559964000000   28.5240018092999996
   La   Co   Ni   Sn   Bi   O    C    H 
    14    13    13    14    14     2     1     1
Selective dynamics
Direct
  0.5925368387255524  0.4186028857693065  0.4041024917666062   T   T   T
  0.6851871320449147  0.5719000865138806  0.3810019705961010   T   T   T
  0.4949232102457092  0.5300729353172080  0.2827764460743728   T   T   T
  0.5622965788980138  0.5219161363492204  0.6022372672437903   T   T   T
  0.5141032870923784  0.3858477349962515  0.3054414872422735   T   T   T
  0.5754631529474169  0.6553405121915085  0.4835833401731041   T   T   T
  0.5080435473940378  0.3383445180057213  0.5005702616268813   T   T   T
  0.5335934996530401  0.6389064745037976  0.3761838386939202   T   T   T
  0.4363939670068065  0.6437304570057022  0.5354333966288923   T   T   T
  0.4373551010143757  0.5015757590148624  0.3842817269995109   F   F   F
  0.4437846394494898  0.4460183835780285  0.5005161578087822   F   F   F
  0.3872546679658492  0.4680828940342624  0.6102293280688296   T   T   T
  0.3451585793780518  0.4433466909598411  0.3464343799022996   T   T   T
  0.3615045910457527  0.5856274075834385  0.3939998547361523   T   T   T
  0.4217425606853311  0.4061295180575186  0.3699802678458894   F   F   F
  0.5011311695957161  0.4887203336762909  0.4395023580252015   F   F   F
  0.4044148221271726  0.6101724300038001  0.4624736492929173   F   F   F
  0.4722931245665194  0.5596737886932672  0.5729988711091565   F   F   F
  0.6552684236953183  0.5165424048424470  0.4543399438695133   F   F   F
  0.5967309916701211  0.5535378348504167  0.5056109707055541   F   F   F
  0.5314074673932367  0.5941153005651714  0.5336729985293047   F   F   F
  0.5796732686089143  0.4997731718447866  0.4507473928409595   F   F   F
  0.4595595206699531  0.3292346672597055  0.3475531008088817   T   T   T
  0.3905180950192175  0.5252419063175111  0.4552418453041511   F   F   F
  0.4534765933234391  0.3238750331413526  0.4268771175535332   T   T   T
  0.5074804872141527  0.4592780196109629  0.3501259710292359   F   F   F
  0.6012877811302459  0.4669891268301640  0.5212355700313438   F   F   F
  0.5384608035519776  0.4312182275275163  0.4821288228790692   F   F   F
  0.4713083414346286  0.4805797151798927  0.5807598339419258   F   F   F
  0.3771163837573610  0.4514853175274567  0.4282230665427278   F   F   F
  0.4059018739390154  0.3822235888080883  0.4561785915149272   F   F   F
  0.5357818896390683  0.5680835373033233  0.4543473312664048   F   F   F
  0.4924712632432886  0.6367287407321953  0.4646113344718685   F   F   F
  0.4677327221812249  0.5829886973614862  0.4038343643763724   F   F   F
  0.5280944416629296  0.5063826634733033  0.5194466411805863   F   F   F
  0.6212454441397384  0.5105019604624417  0.3755946010283822   F   F   F
  0.6054499763524817  0.5821019035045651  0.4188664505762958   F   F   F
  0.4050790883739026  0.5245211222763402  0.5434909784116542   F   F   F
  0.3503562575218747  0.4707672692742551  0.5086178679010857   T   T   T
  0.4350333495419733  0.4578376725192513  0.3018241573807372   T   T   T
  0.5385043272795008  0.4218919508112036  0.5689796606256818   T   T   T
  0.3571253242325039  0.3885186197825617  0.5407545949513234   T   T   T
  0.4625951421883201  0.5516617238622956  0.4875128022361963   F   F   F
  0.6061694339515517  0.3751421638740687  0.5083841200764495   T   T   T
  0.4922563307130117  0.4396094268535866  0.6581168586772540   T   T   T
  0.5873301263833764  0.4731128199022870  0.3043842143827538   T   T   T
  0.4900497958562298  0.4037080615820798  0.4151644571778519   F   F   F
  0.4345609215308544  0.6752677534834971  0.4136396968841928   T   T   T
  0.4681676220422088  0.5376165053936151  0.6602259765323586   T   T   T
  0.5397532608265934  0.5319899791087650  0.3771480104995177   F   F   F
  0.6685753905886357  0.6000594278017368  0.4840049915440708   T   T   T
  0.6656200834379675  0.5189973531399441  0.5510223287314048   T   T   T
  0.3744353521894414  0.3346489198579209  0.3852289109101987   T   T   T
  0.6783991440741364  0.4364091049043994  0.4860089167916878   T   T   T
  0.5364424940329308  0.3150278502189142  0.3942877402726178   T   T   T
  0.3025003766971847  0.5028990931867171  0.4360909963625344   T   T   T
  0.3135220343587256  0.3958891871004456  0.4500232214503386   T   T   T
  0.5123405539995721  0.6254668338956183  0.6168214390747466   T   T   T
  0.4486326787819152  0.3757777919863011  0.5862782678577529   T   T   T
  0.3905502990771682  0.5812790731049162  0.6126072895408937   T   T   T
  0.4038893054802669  0.3064957406761181  0.5031082993911329   T   T   T
  0.4057910410110602  0.3717797481454001  0.2871209136562373   T   T   T
  0.3838509684834117  0.5334600266562074  0.2925104849897256   T   T   T
  0.6931476329268011  0.4612678748654985  0.3874080577814833   T   T   T
  0.3376072101077258  0.5721717391224591  0.5127030087104052   T   T   T
  0.5985332831466524  0.5773966875527686  0.3101033707902765   T   T   T
  0.6127250989101359  0.6142878439720660  0.5756794774200537   T   T   T
  0.4387291536229287  0.6164346578345873  0.3243802703196310   T   T   T
  0.6051685691949702  0.3745933711200208  0.3288396271563629   T   T   T
  0.5824465343110581  0.3531733909894050  0.2568585084431445   T   T   T
  0.6124013298976496  0.3552184728440835  0.2887053513248991   T   T   T
  0.6471743643178015  0.3398404253936729  0.2827010648482869   T   T   T
 
  0.00000000E+00  0.00000000E+00  0.00000000E+00
  0.00000000E+00  0.00000000E+00  0.00000000E+00
  0.00000000E+00  0.00000000E+00  0.00000000E+00
  0.00000000E+00  0.00000000E+00  0.00000000E+00
  0.00000000E+00  0.00000000E+00  0.00000000E+00
  0.00000000E+00  0.00000000E+00  0.00000000E+00
  0.00000000E+00  0.00000000E+00  0.00000000E+00
  0.00000000E+00  0.00000000E+00  0.00000000E+00
  0.00000000E+00  0.00000000E+00  0.00000000E+00
  0.00000000E+00  0.00000000E+00  0.00000000E+00
  0.00000000E+00  0.00000000E+00  0.00000000E+00
  0.00000000E+00  0.00000000E+00  0.00000000E+00
  0.00000000E+00  0.00000000E+00  0.00000000E+00
  0.00000000E+00  0.00000000E+00  0.00000000E+00
  0.00000000E+00  0.00000000E+00  0.00000000E+00
  0.00000000E+00  0.00000000E+00  0.00000000E+00
  0.00000000E+00  0.00000000E+00  0.00000000E+00
  0.00000000E+00  0.00000000E+00  0.00000000E+00
  0.00000000E+00  0.00000000E+00  0.00000000E+00
  0.00000000E+00  0.00000000E+00  0.00000000E+00
  0.00000000E+00  0.00000000E+00  0.00000000E+00
  0.00000000E+00  0.00000000E+00  0.00000000E+00
  0.00000000E+00  0.00000000E+00  0.00000000E+00
  0.00000000E+00  0.00000000E+00  0.00000000E+00
  0.00000000E+00  0.00000000E+00  0.00000000E+00
  0.00000000E+00  0.00000000E+00  0.00000000E+00
  0.00000000E+00  0.00000000E+00  0.00000000E+00
  0.00000000E+00  0.00000000E+00  0.00000000E+00
  0.00000000E+00  0.00000000E+00  0.00000000E+00
  0.00000000E+00  0.00000000E+00  0.00000000E+00
  0.00000000E+00  0.00000000E+00  0.00000000E+00
  0.00000000E+00  0.00000000E+00  0.00000000E+00
  0.00000000E+00  0.00000000E+00  0.00000000E+00
  0.00000000E+00  0.00000000E+00  0.00000000E+00
  0.00000000E+00  0.00000000E+00  0.00000000E+00
  0.00000000E+00  0.00000000E+00  0.00000000E+00
  0.00000000E+00  0.00000000E+00  0.00000000E+00
  0.00000000E+00  0.00000000E+00  0.00000000E+00
  0.00000000E+00  0.00000000E+00  0.00000000E+00
  0.00000000E+00  0.00000000E+00  0.00000000E+00
  0.00000000E+00  0.00000000E+00  0.00000000E+00
  0.00000000E+00  0.00000000E+00  0.00000000E+00
  0.00000000E+00  0.00000000E+00  0.00000000E+00
  0.00000000E+00  0.00000000E+00  0.00000000E+00
  0.00000000E+00  0.00000000E+00  0.00000000E+00
  0.00000000E+00  0.00000000E+00  0.00000000E+00
  0.00000000E+00  0.00000000E+00  0.00000000E+00
  0.00000000E+00  0.00000000E+00  0.00000000E+00
  0.00000000E+00  0.00000000E+00  0.00000000E+00
  0.00000000E+00  0.00000000E+00  0.00000000E+00
  0.00000000E+00  0.00000000E+00  0.00000000E+00
  0.00000000E+00  0.00000000E+00  0.00000000E+00
  0.00000000E+00  0.00000000E+00  0.00000000E+00
  0.00000000E+00  0.00000000E+00  0.00000000E+00
  0.00000000E+00  0.00000000E+00  0.00000000E+00
  0.00000000E+00  0.00000000E+00  0.00000000E+00
  0.00000000E+00  0.00000000E+00  0.00000000E+00
  0.00000000E+00  0.00000000E+00  0.00000000E+00
  0.00000000E+00  0.00000000E+00  0.00000000E+00
  0.00000000E+00  0.00000000E+00  0.00000000E+00
  0.00000000E+00  0.00000000E+00  0.00000000E+00
  0.00000000E+00  0.00000000E+00  0.00000000E+00
  0.00000000E+00  0.00000000E+00  0.00000000E+00
  0.00000000E+00  0.00000000E+00  0.00000000E+00
  0.00000000E+00  0.00000000E+00  0.00000000E+00
  0.00000000E+00  0.00000000E+00  0.00000000E+00
  0.00000000E+00  0.00000000E+00  0.00000000E+00
  0.00000000E+00  0.00000000E+00  0.00000000E+00
  0.00000000E+00  0.00000000E+00  0.00000000E+00
  0.00000000E+00  0.00000000E+00  0.00000000E+00
  0.00000000E+00  0.00000000E+00  0.00000000E+00
  0.00000000E+00  0.00000000E+00  0.00000000E+00
