La Co Ni Sn Bi O  C  H                  
   1.00000000000000     
    29.1044006348000011    0.0000000000000000    0.0000000000000000
     0.4451680315000000   28.3694074727000007    0.0000000000000000
     0.0682082826000000    0.3036559964000000   28.5240018092999996
   La   Co   Ni   Sn   Bi   O    C    H 
    14    13    13    14    14     2     1     1
Selective dynamics
Direct
  0.5918512805269407  0.4209146762331766  0.4074333970075729   T   T   T
  0.6878231823238576  0.5707445452842946  0.3748572664501708   T   T   T
  0.4966595972729705  0.5256351337727440  0.2814219516524913   T   T   T
  0.5627422501714309  0.5220935922326077  0.6018814459274313   T   T   T
  0.5106123466892123  0.3878886221993301  0.3057055611272536   T   T   T
  0.5752244573676841  0.6556858693454333  0.4829129595579429   T   T   T
  0.5088321489204025  0.3382374544950508  0.4998063124060431   T   T   T
  0.5356045106358650  0.6376858404143514  0.3751106773091321   T   T   T
  0.4357926307085992  0.6432295745868440  0.5355423404410031   T   T   T
  0.4373551010143757  0.5015757590148624  0.3842817269995109   F   F   F
  0.4437846394494898  0.4460183835780285  0.5005161578087822   F   F   F
  0.3872568009515823  0.4670553599191610  0.6094705643961682   T   T   T
  0.3450939850880229  0.4437005444135056  0.3464581508493036   T   T   T
  0.3624785603262987  0.5853564854762607  0.3931812288461201   T   T   T
  0.4217425606853311  0.4061295180575186  0.3699802678458894   F   F   F
  0.5011311695957161  0.4887203336762909  0.4395023580252015   F   F   F
  0.4044148221271726  0.6101724300038001  0.4624736492929173   F   F   F
  0.4722931245665194  0.5596737886932672  0.5729988711091565   F   F   F
  0.6552684236953183  0.5165424048424470  0.4543399438695133   F   F   F
  0.5967309916701211  0.5535378348504167  0.5056109707055541   F   F   F
  0.5314074673932367  0.5941153005651714  0.5336729985293047   F   F   F
  0.5796732686089143  0.4997731718447866  0.4507473928409595   F   F   F
  0.4615961475979830  0.3311646292328261  0.3451802617611738   T   T   T
  0.3905180950192175  0.5252419063175111  0.4552418453041511   F   F   F
  0.4548904183918135  0.3245238848279874  0.4247379988851791   T   T   T
  0.5074804872141527  0.4592780196109629  0.3501259710292359   F   F   F
  0.6012877811302459  0.4669891268301640  0.5212355700313438   F   F   F
  0.5384608035519776  0.4312182275275163  0.4821288228790692   F   F   F
  0.4713083414346286  0.4805797151798927  0.5807598339419258   F   F   F
  0.3771163837573610  0.4514853175274567  0.4282230665427278   F   F   F
  0.4059018739390154  0.3822235888080883  0.4561785915149272   F   F   F
  0.5357818896390683  0.5680835373033233  0.4543473312664048   F   F   F
  0.4924712632432886  0.6367287407321953  0.4646113344718685   F   F   F
  0.4677327221812249  0.5829886973614862  0.4038343643763724   F   F   F
  0.5280944416629296  0.5063826634733033  0.5194466411805863   F   F   F
  0.6212454441397384  0.5105019604624417  0.3755946010283822   F   F   F
  0.6054499763524817  0.5821019035045651  0.4188664505762958   F   F   F
  0.4050790883739026  0.5245211222763402  0.5434909784116542   F   F   F
  0.3506317833407828  0.4703144395433599  0.5086909476543576   T   T   T
  0.4346429602493407  0.4570092853319717  0.3018860066237853   T   T   T
  0.5382714272544740  0.4219556197388728  0.5690944622327704   T   T   T
  0.3575155180855664  0.3871895897791061  0.5394561145505369   T   T   T
  0.4625951421883201  0.5516617238622956  0.4875128022361963   F   F   F
  0.6066344224356462  0.3752133614855689  0.5100682357409289   T   T   T
  0.4917908654898728  0.4390609735504467  0.6579931009583491   T   T   T
  0.5908100254728469  0.4680213829437859  0.3058442911053420   T   T   T
  0.4900497958562298  0.4037080615820798  0.4151644571778519   F   F   F
  0.4355983689831234  0.6740785156090150  0.4120635921702319   T   T   T
  0.4684738117224586  0.5371768235821001  0.6599906226904139   T   T   T
  0.5397532608265934  0.5319899791087650  0.3771480104995177   F   F   F
  0.6681197310891109  0.6001900955810566  0.4810050687994891   T   T   T
  0.6662334895060285  0.5193838015749237  0.5498618592060388   T   T   T
  0.3754673282081667  0.3343337155807694  0.3848558420123693   T   T   T
  0.6786627368497372  0.4364343545675953  0.4857634152550833   T   T   T
  0.5400423782116754  0.3185454161953706  0.3923091347165186   T   T   T
  0.3026259392145983  0.5030453264945218  0.4360597475742500   T   T   T
  0.3135607412112432  0.3955982152489770  0.4489313866462459   T   T   T
  0.5125772824576842  0.6254954005050249  0.6165075848156538   T   T   T
  0.4488975344700615  0.3747581941143066  0.5855778484907499   T   T   T
  0.3904146453140803  0.5803782738422393  0.6130968528871352   T   T   T
  0.4052524058627590  0.3056109812852690  0.5013738866086352   T   T   T
  0.4041916070245187  0.3714563683491890  0.2867276191036526   T   T   T
  0.3845491175198275  0.5331209381078110  0.2916149388025559   T   T   T
  0.6918715914999612  0.4598832236737522  0.3865615740940956   T   T   T
  0.3375418316840400  0.5720514034066001  0.5125917694147556   T   T   T
  0.5984624633019927  0.5720257020058797  0.3075805233532387   T   T   T
  0.6131105462583157  0.6144827969134434  0.5746320467018835   T   T   T
  0.4415291733787915  0.6135926455248292  0.3230174299168844   T   T   T
  0.6806435963599869  0.4943405454760403  0.2639803363192131   T   T   T
  0.7199298237881862  0.5507981225001410  0.3030706342321698   T   T   T
  0.7143165646965149  0.5200374443965570  0.2697757788397858   T   T   T
  0.7438401915374661  0.5178724656212285  0.2447764352301750   T   T   T
 
  0.00000000E+00  0.00000000E+00  0.00000000E+00
  0.00000000E+00  0.00000000E+00  0.00000000E+00
  0.00000000E+00  0.00000000E+00  0.00000000E+00
  0.00000000E+00  0.00000000E+00  0.00000000E+00
  0.00000000E+00  0.00000000E+00  0.00000000E+00
  0.00000000E+00  0.00000000E+00  0.00000000E+00
  0.00000000E+00  0.00000000E+00  0.00000000E+00
  0.00000000E+00  0.00000000E+00  0.00000000E+00
  0.00000000E+00  0.00000000E+00  0.00000000E+00
  0.00000000E+00  0.00000000E+00  0.00000000E+00
  0.00000000E+00  0.00000000E+00  0.00000000E+00
  0.00000000E+00  0.00000000E+00  0.00000000E+00
  0.00000000E+00  0.00000000E+00  0.00000000E+00
  0.00000000E+00  0.00000000E+00  0.00000000E+00
  0.00000000E+00  0.00000000E+00  0.00000000E+00
  0.00000000E+00  0.00000000E+00  0.00000000E+00
  0.00000000E+00  0.00000000E+00  0.00000000E+00
  0.00000000E+00  0.00000000E+00  0.00000000E+00
  0.00000000E+00  0.00000000E+00  0.00000000E+00
  0.00000000E+00  0.00000000E+00  0.00000000E+00
  0.00000000E+00  0.00000000E+00  0.00000000E+00
  0.00000000E+00  0.00000000E+00  0.00000000E+00
  0.00000000E+00  0.00000000E+00  0.00000000E+00
  0.00000000E+00  0.00000000E+00  0.00000000E+00
  0.00000000E+00  0.00000000E+00  0.00000000E+00
  0.00000000E+00  0.00000000E+00  0.00000000E+00
  0.00000000E+00  0.00000000E+00  0.00000000E+00
  0.00000000E+00  0.00000000E+00  0.00000000E+00
  0.00000000E+00  0.00000000E+00  0.00000000E+00
  0.00000000E+00  0.00000000E+00  0.00000000E+00
  0.00000000E+00  0.00000000E+00  0.00000000E+00
  0.00000000E+00  0.00000000E+00  0.00000000E+00
  0.00000000E+00  0.00000000E+00  0.00000000E+00
  0.00000000E+00  0.00000000E+00  0.00000000E+00
  0.00000000E+00  0.00000000E+00  0.00000000E+00
  0.00000000E+00  0.00000000E+00  0.00000000E+00
  0.00000000E+00  0.00000000E+00  0.00000000E+00
  0.00000000E+00  0.00000000E+00  0.00000000E+00
  0.00000000E+00  0.00000000E+00  0.00000000E+00
  0.00000000E+00  0.00000000E+00  0.00000000E+00
  0.00000000E+00  0.00000000E+00  0.00000000E+00
  0.00000000E+00  0.00000000E+00  0.00000000E+00
  0.00000000E+00  0.00000000E+00  0.00000000E+00
  0.00000000E+00  0.00000000E+00  0.00000000E+00
  0.00000000E+00  0.00000000E+00  0.00000000E+00
  0.00000000E+00  0.00000000E+00  0.00000000E+00
  0.00000000E+00  0.00000000E+00  0.00000000E+00
  0.00000000E+00  0.00000000E+00  0.00000000E+00
  0.00000000E+00  0.00000000E+00  0.00000000E+00
  0.00000000E+00  0.00000000E+00  0.00000000E+00
  0.00000000E+00  0.00000000E+00  0.00000000E+00
  0.00000000E+00  0.00000000E+00  0.00000000E+00
  0.00000000E+00  0.00000000E+00  0.00000000E+00
  0.00000000E+00  0.00000000E+00  0.00000000E+00
  0.00000000E+00  0.00000000E+00  0.00000000E+00
  0.00000000E+00  0.00000000E+00  0.00000000E+00
  0.00000000E+00  0.00000000E+00  0.00000000E+00
  0.00000000E+00  0.00000000E+00  0.00000000E+00
  0.00000000E+00  0.00000000E+00  0.00000000E+00
  0.00000000E+00  0.00000000E+00  0.00000000E+00
  0.00000000E+00  0.00000000E+00  0.00000000E+00
  0.00000000E+00  0.00000000E+00  0.00000000E+00
  0.00000000E+00  0.00000000E+00  0.00000000E+00
  0.00000000E+00  0.00000000E+00  0.00000000E+00
  0.00000000E+00  0.00000000E+00  0.00000000E+00
  0.00000000E+00  0.00000000E+00  0.00000000E+00
  0.00000000E+00  0.00000000E+00  0.00000000E+00
  0.00000000E+00  0.00000000E+00  0.00000000E+00
  0.00000000E+00  0.00000000E+00  0.00000000E+00
  0.00000000E+00  0.00000000E+00  0.00000000E+00
  0.00000000E+00  0.00000000E+00  0.00000000E+00
  0.00000000E+00  0.00000000E+00  0.00000000E+00
