La Co Ni Sn Bi O  C  H                  
   1.00000000000000     
    29.1044006348000011    0.0000000000000000    0.0000000000000000
     0.4451680315000000   28.3694074727000007    0.0000000000000000
     0.0682082826000000    0.3036559964000000   28.5240018092999996
   La   Co   Ni   Sn   Bi   O    C    H 
    14    13    13    14    14     2     1     1
Selective dynamics
Direct
  0.5925564744496969  0.4205966542344058  0.4079257779742121   T   T   T
  0.6838304228091969  0.5722150356709530  0.3792414932142639   T   T   T
  0.4958833192487332  0.5272733348045302  0.2818120008811796   T   T   T
  0.5626450894375657  0.5222043155739293  0.6019817704074969   T   T   T
  0.5096084918205946  0.3873424833553085  0.3056777520181972   T   T   T
  0.5753172990219858  0.6555359913547291  0.4818554255090033   T   T   T
  0.5090900171354752  0.3381951739361701  0.4997803278867837   T   T   T
  0.5359812387559157  0.6394767482596023  0.3715812388074399   T   T   T
  0.4359436720637063  0.6434216098257043  0.5355028697899840   T   T   T
  0.4373551010143757  0.5015757590148624  0.3842817269995109   F   F   F
  0.4437846394494898  0.4460183835780285  0.5005161578087822   F   F   F
  0.3874279746827152  0.4670855055782498  0.6096418561322882   T   T   T
  0.3446196754164892  0.4439024266594299  0.3468775336442337   T   T   T
  0.3619368111767126  0.5852857166585437  0.3937183873877331   T   T   T
  0.4217425606853311  0.4061295180575186  0.3699802678458894   F   F   F
  0.5011311695957161  0.4887203336762909  0.4395023580252015   F   F   F
  0.4044148221271726  0.6101724300038001  0.4624736492929173   F   F   F
  0.4722931245665194  0.5596737886932672  0.5729988711091565   F   F   F
  0.6552684236953183  0.5165424048424470  0.4543399438695133   F   F   F
  0.5967309916701211  0.5535378348504167  0.5056109707055541   F   F   F
  0.5314074673932367  0.5941153005651714  0.5336729985293047   F   F   F
  0.5796732686089143  0.4997731718447866  0.4507473928409595   F   F   F
  0.4611152439687379  0.3309086166802486  0.3453103689183682   T   T   T
  0.3905180950192175  0.5252419063175111  0.4552418453041511   F   F   F
  0.4548182445923644  0.3245463926503498  0.4248039268060570   T   T   T
  0.5074804872141527  0.4592780196109629  0.3501259710292359   F   F   F
  0.6012877811302459  0.4669891268301640  0.5212355700313438   F   F   F
  0.5384608035519776  0.4312182275275163  0.4821288228790692   F   F   F
  0.4713083414346286  0.4805797151798927  0.5807598339419258   F   F   F
  0.3771163837573610  0.4514853175274567  0.4282230665427278   F   F   F
  0.4059018739390154  0.3822235888080883  0.4561785915149272   F   F   F
  0.5357818896390683  0.5680835373033233  0.4543473312664048   F   F   F
  0.4924712632432886  0.6367287407321953  0.4646113344718685   F   F   F
  0.4677327221812249  0.5829886973614862  0.4038343643763724   F   F   F
  0.5280944416629296  0.5063826634733033  0.5194466411805863   F   F   F
  0.6212454441397384  0.5105019604624417  0.3755946010283822   F   F   F
  0.6054499763524817  0.5821019035045651  0.4188664505762958   F   F   F
  0.4050790883739026  0.5245211222763402  0.5434909784116542   F   F   F
  0.3507110732448633  0.4702111893488641  0.5087652943163172   T   T   T
  0.4343030734971162  0.4570543675163630  0.3021360236014659   T   T   T
  0.5383912803813068  0.4221000305917781  0.5691039269183495   T   T   T
  0.3577147241247636  0.3871237658241519  0.5399469520588578   T   T   T
  0.4625951421883201  0.5516617238622956  0.4875128022361963   F   F   F
  0.6067616104765096  0.3755111069839703  0.5103066888540311   T   T   T
  0.4920141618458126  0.4391956323598200  0.6580713662242298   T   T   T
  0.5877812821180074  0.4675549145582139  0.3066187252227073   T   T   T
  0.4900497958562298  0.4037080615820798  0.4151644571778519   F   F   F
  0.4354997735681411  0.6738932371850421  0.4121972092663186   T   T   T
  0.4684650201137734  0.5372131505426414  0.6601834355938146   T   T   T
  0.5397532608265934  0.5319899791087650  0.3771480104995177   F   F   F
  0.6685913128265425  0.6003003245244755  0.4830307746435909   T   T   T
  0.6658697744750820  0.5194618109137391  0.5506057261606011   T   T   T
  0.3752348654792491  0.3345140740025107  0.3851552269090857   T   T   T
  0.6793817322759573  0.4367744630273035  0.4869662013153747   T   T   T
  0.5399604366767935  0.3185391560306643  0.3922322012138576   T   T   T
  0.3023829618754070  0.5030028466962173  0.4365424638183433   T   T   T
  0.3134914347546404  0.3957961543758253  0.4496912550880577   T   T   T
  0.5123106697397263  0.6254178000863961  0.6167252698054280   T   T   T
  0.4491900060558358  0.3748187963313109  0.5856591876216329   T   T   T
  0.3904744487710648  0.5803992707605186  0.6130696842534850   T   T   T
  0.4054693638349507  0.3057119391933569  0.5014879458680480   T   T   T
  0.4032394671493094  0.3714881501493400  0.2870876885981667   T   T   T
  0.3838771794334845  0.5330953996649976  0.2921039862126141   T   T   T
  0.6930562984348949  0.4612049605805907  0.3875108613639712   T   T   T
  0.3376359511780088  0.5721749436334679  0.5127346966370040   T   T   T
  0.5985997579401164  0.5721596584965608  0.3062029172484239   T   T   T
  0.6124590367503298  0.6150217253390798  0.5746336522436509   T   T   T
  0.4399900225244305  0.6142530732294313  0.3233537601849610   T   T   T
  0.5703435047372271  0.6888564224514409  0.3163642133696073   T   T   T
  0.6030983381267377  0.6588503337541238  0.2502152214177588   T   T   T
  0.5837571395324247  0.6908441297544213  0.2726519217439511   T   T   T
  0.5764745677772871  0.7254552971186462  0.2551080584407032   T   T   T
 
  0.00000000E+00  0.00000000E+00  0.00000000E+00
  0.00000000E+00  0.00000000E+00  0.00000000E+00
  0.00000000E+00  0.00000000E+00  0.00000000E+00
  0.00000000E+00  0.00000000E+00  0.00000000E+00
  0.00000000E+00  0.00000000E+00  0.00000000E+00
  0.00000000E+00  0.00000000E+00  0.00000000E+00
  0.00000000E+00  0.00000000E+00  0.00000000E+00
  0.00000000E+00  0.00000000E+00  0.00000000E+00
  0.00000000E+00  0.00000000E+00  0.00000000E+00
  0.00000000E+00  0.00000000E+00  0.00000000E+00
  0.00000000E+00  0.00000000E+00  0.00000000E+00
  0.00000000E+00  0.00000000E+00  0.00000000E+00
  0.00000000E+00  0.00000000E+00  0.00000000E+00
  0.00000000E+00  0.00000000E+00  0.00000000E+00
  0.00000000E+00  0.00000000E+00  0.00000000E+00
  0.00000000E+00  0.00000000E+00  0.00000000E+00
  0.00000000E+00  0.00000000E+00  0.00000000E+00
  0.00000000E+00  0.00000000E+00  0.00000000E+00
  0.00000000E+00  0.00000000E+00  0.00000000E+00
  0.00000000E+00  0.00000000E+00  0.00000000E+00
  0.00000000E+00  0.00000000E+00  0.00000000E+00
  0.00000000E+00  0.00000000E+00  0.00000000E+00
  0.00000000E+00  0.00000000E+00  0.00000000E+00
  0.00000000E+00  0.00000000E+00  0.00000000E+00
  0.00000000E+00  0.00000000E+00  0.00000000E+00
  0.00000000E+00  0.00000000E+00  0.00000000E+00
  0.00000000E+00  0.00000000E+00  0.00000000E+00
  0.00000000E+00  0.00000000E+00  0.00000000E+00
  0.00000000E+00  0.00000000E+00  0.00000000E+00
  0.00000000E+00  0.00000000E+00  0.00000000E+00
  0.00000000E+00  0.00000000E+00  0.00000000E+00
  0.00000000E+00  0.00000000E+00  0.00000000E+00
  0.00000000E+00  0.00000000E+00  0.00000000E+00
  0.00000000E+00  0.00000000E+00  0.00000000E+00
  0.00000000E+00  0.00000000E+00  0.00000000E+00
  0.00000000E+00  0.00000000E+00  0.00000000E+00
  0.00000000E+00  0.00000000E+00  0.00000000E+00
  0.00000000E+00  0.00000000E+00  0.00000000E+00
  0.00000000E+00  0.00000000E+00  0.00000000E+00
  0.00000000E+00  0.00000000E+00  0.00000000E+00
  0.00000000E+00  0.00000000E+00  0.00000000E+00
  0.00000000E+00  0.00000000E+00  0.00000000E+00
  0.00000000E+00  0.00000000E+00  0.00000000E+00
  0.00000000E+00  0.00000000E+00  0.00000000E+00
  0.00000000E+00  0.00000000E+00  0.00000000E+00
  0.00000000E+00  0.00000000E+00  0.00000000E+00
  0.00000000E+00  0.00000000E+00  0.00000000E+00
  0.00000000E+00  0.00000000E+00  0.00000000E+00
  0.00000000E+00  0.00000000E+00  0.00000000E+00
  0.00000000E+00  0.00000000E+00  0.00000000E+00
  0.00000000E+00  0.00000000E+00  0.00000000E+00
  0.00000000E+00  0.00000000E+00  0.00000000E+00
  0.00000000E+00  0.00000000E+00  0.00000000E+00
  0.00000000E+00  0.00000000E+00  0.00000000E+00
  0.00000000E+00  0.00000000E+00  0.00000000E+00
  0.00000000E+00  0.00000000E+00  0.00000000E+00
  0.00000000E+00  0.00000000E+00  0.00000000E+00
  0.00000000E+00  0.00000000E+00  0.00000000E+00
  0.00000000E+00  0.00000000E+00  0.00000000E+00
  0.00000000E+00  0.00000000E+00  0.00000000E+00
  0.00000000E+00  0.00000000E+00  0.00000000E+00
  0.00000000E+00  0.00000000E+00  0.00000000E+00
  0.00000000E+00  0.00000000E+00  0.00000000E+00
  0.00000000E+00  0.00000000E+00  0.00000000E+00
  0.00000000E+00  0.00000000E+00  0.00000000E+00
  0.00000000E+00  0.00000000E+00  0.00000000E+00
  0.00000000E+00  0.00000000E+00  0.00000000E+00
  0.00000000E+00  0.00000000E+00  0.00000000E+00
  0.00000000E+00  0.00000000E+00  0.00000000E+00
  0.00000000E+00  0.00000000E+00  0.00000000E+00
  0.00000000E+00  0.00000000E+00  0.00000000E+00
  0.00000000E+00  0.00000000E+00  0.00000000E+00
