La Co Ni Sn Bi O  C  H                  
   1.00000000000000     
    29.1044006348000011    0.0000000000000000    0.0000000000000000
     0.4451680315000000   28.3694074727000007    0.0000000000000000
     0.0682082826000000    0.3036559964000000   28.5240018092999996
   La   Co   Ni   Sn   Bi   O    C    H 
    14    13    13    14    14     2     1     1
Selective dynamics
Direct
  0.5920111387350342  0.4209621654974857  0.4071104616271808   T   T   T
  0.6854822748257758  0.5711115274856617  0.3811937312843919   T   T   T
  0.4950546559873066  0.5296258889694413  0.2826552260700631   T   T   T
  0.5627617928657740  0.5214288193073129  0.6020470559941747   T   T   T
  0.5096021942387657  0.3854510097288355  0.3048087331537667   T   T   T
  0.5751657687866296  0.6555537916091003  0.4837097191097713   T   T   T
  0.5079554815312071  0.3381082641585779  0.4996122650582991   T   T   T
  0.5348801406411929  0.6378103009029791  0.3754477779133186   T   T   T
  0.4359206369395523  0.6431886540992703  0.5360262927561944   T   T   T
  0.4373551010143757  0.5015757590148624  0.3842817269995109   F   F   F
  0.4437846394494898  0.4460183835780285  0.5005161578087822   F   F   F
  0.3874817689182516  0.4667093484436279  0.6095891678829575   T   T   T
  0.3436041026989833  0.4459495973014289  0.3474046663185236   T   T   T
  0.3618152332217843  0.5858946072351732  0.3942538453090811   T   T   T
  0.4217425606853311  0.4061295180575186  0.3699802678458894   F   F   F
  0.5011311695957161  0.4887203336762909  0.4395023580252015   F   F   F
  0.4044148221271726  0.6101724300038001  0.4624736492929173   F   F   F
  0.4722931245665194  0.5596737886932672  0.5729988711091565   F   F   F
  0.6552684236953183  0.5165424048424470  0.4543399438695133   F   F   F
  0.5967309916701211  0.5535378348504167  0.5056109707055541   F   F   F
  0.5314074673932367  0.5941153005651714  0.5336729985293047   F   F   F
  0.5796732686089143  0.4997731718447866  0.4507473928409595   F   F   F
  0.4578864653132104  0.3272003851715497  0.3428020014123979   T   T   T
  0.3905180950192175  0.5252419063175111  0.4552418453041511   F   F   F
  0.4532977730420462  0.3253168395235284  0.4221100016071033   T   T   T
  0.5074804872141527  0.4592780196109629  0.3501259710292359   F   F   F
  0.6012877811302459  0.4669891268301640  0.5212355700313438   F   F   F
  0.5384608035519776  0.4312182275275163  0.4821288228790692   F   F   F
  0.4713083414346286  0.4805797151798927  0.5807598339419258   F   F   F
  0.3771163837573610  0.4514853175274567  0.4282230665427278   F   F   F
  0.4059018739390154  0.3822235888080883  0.4561785915149272   F   F   F
  0.5357818896390683  0.5680835373033233  0.4543473312664048   F   F   F
  0.4924712632432886  0.6367287407321953  0.4646113344718685   F   F   F
  0.4677327221812249  0.5829886973614862  0.4038343643763724   F   F   F
  0.5280944416629296  0.5063826634733033  0.5194466411805863   F   F   F
  0.6212454441397384  0.5105019604624417  0.3755946010283822   F   F   F
  0.6054499763524817  0.5821019035045651  0.4188664505762958   F   F   F
  0.4050790883739026  0.5245211222763402  0.5434909784116542   F   F   F
  0.3510296680305662  0.4705388589353666  0.5089890995193959   T   T   T
  0.4338654221675360  0.4590143077351047  0.3026373899826493   T   T   T
  0.5381713808281987  0.4216243597787706  0.5687238547897148   T   T   T
  0.3574341474173007  0.3870937604664353  0.5396079650926883   T   T   T
  0.4625951421883201  0.5516617238622956  0.4875128022361963   F   F   F
  0.6058077070522045  0.3744607840523101  0.5090125401594112   T   T   T
  0.4921033262672436  0.4383168516624794  0.6577451819402965   T   T   T
  0.5866921155072577  0.4686338732377877  0.3059159248237321   T   T   T
  0.4900497958562298  0.4037080615820798  0.4151644571778519   F   F   F
  0.4354779571153282  0.6752530257055440  0.4134087103536437   T   T   T
  0.4686527940592658  0.5365031146459388  0.6601332554841248   T   T   T
  0.5397532608265934  0.5319899791087650  0.3771480104995177   F   F   F
  0.6685255793744632  0.6004127758391272  0.4839754353577015   T   T   T
  0.6660126656127366  0.5190886290802035  0.5504058871520050   T   T   T
  0.3733914165785358  0.3359181665539895  0.3846496045749455   T   T   T
  0.6780313048356634  0.4360896447039817  0.4863455830510776   T   T   T
  0.5393915499761285  0.3193878256693567  0.3929327632475001   T   T   T
  0.3023713735069761  0.5033588642975992  0.4375657092752909   T   T   T
  0.3130767135373554  0.3959687620480032  0.4494691495041274   T   T   T
  0.5126686086994477  0.6249319591247532  0.6170086761719520   T   T   T
  0.4487153877126100  0.3744183508374267  0.5855744132555957   T   T   T
  0.3905109160347502  0.5799772329890275  0.6135618353389530   T   T   T
  0.4043882830550212  0.3056638435441087  0.5003897620107841   T   T   T
  0.4021834198080663  0.3750093190872498  0.2871302807118004   T   T   T
  0.3834471995311683  0.5347538109015294  0.2925088163945337   T   T   T
  0.6928717503516457  0.4603565341932921  0.3873544928223914   T   T   T
  0.3378917487844118  0.5726278282083000  0.5131360045293494   T   T   T
  0.5996466380516506  0.5732964181997749  0.3084038174903269   T   T   T
  0.6127778788393224  0.6142354774726034  0.5755297731606140   T   T   T
  0.4393484016436915  0.6167492292504047  0.3242717372397682   T   T   T
  0.4711144710536501  0.2743709404990677  0.3024716184270178   T   T   T
  0.5209179701701702  0.3141429366107146  0.2555322241681772   T   T   T
  0.4992354725918656  0.2774927774199216  0.2681501285781208   T   T   T
  0.5046378206236051  0.2447562671134237  0.2478505837790058   T   T   T
 
  0.00000000E+00  0.00000000E+00  0.00000000E+00
  0.00000000E+00  0.00000000E+00  0.00000000E+00
  0.00000000E+00  0.00000000E+00  0.00000000E+00
  0.00000000E+00  0.00000000E+00  0.00000000E+00
  0.00000000E+00  0.00000000E+00  0.00000000E+00
  0.00000000E+00  0.00000000E+00  0.00000000E+00
  0.00000000E+00  0.00000000E+00  0.00000000E+00
  0.00000000E+00  0.00000000E+00  0.00000000E+00
  0.00000000E+00  0.00000000E+00  0.00000000E+00
  0.00000000E+00  0.00000000E+00  0.00000000E+00
  0.00000000E+00  0.00000000E+00  0.00000000E+00
  0.00000000E+00  0.00000000E+00  0.00000000E+00
  0.00000000E+00  0.00000000E+00  0.00000000E+00
  0.00000000E+00  0.00000000E+00  0.00000000E+00
  0.00000000E+00  0.00000000E+00  0.00000000E+00
  0.00000000E+00  0.00000000E+00  0.00000000E+00
  0.00000000E+00  0.00000000E+00  0.00000000E+00
  0.00000000E+00  0.00000000E+00  0.00000000E+00
  0.00000000E+00  0.00000000E+00  0.00000000E+00
  0.00000000E+00  0.00000000E+00  0.00000000E+00
  0.00000000E+00  0.00000000E+00  0.00000000E+00
  0.00000000E+00  0.00000000E+00  0.00000000E+00
  0.00000000E+00  0.00000000E+00  0.00000000E+00
  0.00000000E+00  0.00000000E+00  0.00000000E+00
  0.00000000E+00  0.00000000E+00  0.00000000E+00
  0.00000000E+00  0.00000000E+00  0.00000000E+00
  0.00000000E+00  0.00000000E+00  0.00000000E+00
  0.00000000E+00  0.00000000E+00  0.00000000E+00
  0.00000000E+00  0.00000000E+00  0.00000000E+00
  0.00000000E+00  0.00000000E+00  0.00000000E+00
  0.00000000E+00  0.00000000E+00  0.00000000E+00
  0.00000000E+00  0.00000000E+00  0.00000000E+00
  0.00000000E+00  0.00000000E+00  0.00000000E+00
  0.00000000E+00  0.00000000E+00  0.00000000E+00
  0.00000000E+00  0.00000000E+00  0.00000000E+00
  0.00000000E+00  0.00000000E+00  0.00000000E+00
  0.00000000E+00  0.00000000E+00  0.00000000E+00
  0.00000000E+00  0.00000000E+00  0.00000000E+00
  0.00000000E+00  0.00000000E+00  0.00000000E+00
  0.00000000E+00  0.00000000E+00  0.00000000E+00
  0.00000000E+00  0.00000000E+00  0.00000000E+00
  0.00000000E+00  0.00000000E+00  0.00000000E+00
  0.00000000E+00  0.00000000E+00  0.00000000E+00
  0.00000000E+00  0.00000000E+00  0.00000000E+00
  0.00000000E+00  0.00000000E+00  0.00000000E+00
  0.00000000E+00  0.00000000E+00  0.00000000E+00
  0.00000000E+00  0.00000000E+00  0.00000000E+00
  0.00000000E+00  0.00000000E+00  0.00000000E+00
  0.00000000E+00  0.00000000E+00  0.00000000E+00
  0.00000000E+00  0.00000000E+00  0.00000000E+00
  0.00000000E+00  0.00000000E+00  0.00000000E+00
  0.00000000E+00  0.00000000E+00  0.00000000E+00
  0.00000000E+00  0.00000000E+00  0.00000000E+00
  0.00000000E+00  0.00000000E+00  0.00000000E+00
  0.00000000E+00  0.00000000E+00  0.00000000E+00
  0.00000000E+00  0.00000000E+00  0.00000000E+00
  0.00000000E+00  0.00000000E+00  0.00000000E+00
  0.00000000E+00  0.00000000E+00  0.00000000E+00
  0.00000000E+00  0.00000000E+00  0.00000000E+00
  0.00000000E+00  0.00000000E+00  0.00000000E+00
  0.00000000E+00  0.00000000E+00  0.00000000E+00
  0.00000000E+00  0.00000000E+00  0.00000000E+00
  0.00000000E+00  0.00000000E+00  0.00000000E+00
  0.00000000E+00  0.00000000E+00  0.00000000E+00
  0.00000000E+00  0.00000000E+00  0.00000000E+00
  0.00000000E+00  0.00000000E+00  0.00000000E+00
  0.00000000E+00  0.00000000E+00  0.00000000E+00
  0.00000000E+00  0.00000000E+00  0.00000000E+00
  0.00000000E+00  0.00000000E+00  0.00000000E+00
  0.00000000E+00  0.00000000E+00  0.00000000E+00
  0.00000000E+00  0.00000000E+00  0.00000000E+00
  0.00000000E+00  0.00000000E+00  0.00000000E+00
