La Co Ni Sn Bi O  C  H                  
   1.00000000000000     
    29.1044006348000011    0.0000000000000000    0.0000000000000000
     0.4451680315000000   28.3694074727000007    0.0000000000000000
     0.0682082826000000    0.3036559964000000   28.5240018092999996
   La   Co   Ni   Sn   Bi   O    C    H 
    14    13    13    14    14     2     1     1
Selective dynamics
Direct
  0.5932011892134005  0.4169688650209933  0.4041446587516961   T   T   T
  0.6849021730633005  0.5724503727102678  0.3808934196924256   T   T   T
  0.4953170105335813  0.5290335374548735  0.2824262412021870   T   T   T
  0.5623986886376527  0.5220842078397046  0.6022161784223367   T   T   T
  0.5134748286336581  0.3852266132871244  0.3070675893029973   T   T   T
  0.5754839959896488  0.6553002274695271  0.4833691922230084   T   T   T
  0.5078574551757147  0.3386266104099396  0.5011604947079699   T   T   T
  0.5339048292446786  0.6387357960678728  0.3760228549819908   T   T   T
  0.4363362977978089  0.6436579411362638  0.5354098546360303   T   T   T
  0.4373551010143757  0.5015757590148624  0.3842817269995109   F   F   F
  0.4437846394494898  0.4460183835780285  0.5005161578087822   F   F   F
  0.3873131645670815  0.4683765583549378  0.6104861048213712   T   T   T
  0.3453964019805059  0.4430900398250864  0.3463636449399787   T   T   T
  0.3617329310378945  0.5855475525996908  0.3937680237931515   T   T   T
  0.4217425606853311  0.4061295180575186  0.3699802678458894   F   F   F
  0.5011311695957161  0.4887203336762909  0.4395023580252015   F   F   F
  0.4044148221271726  0.6101724300038001  0.4624736492929173   F   F   F
  0.4722931245665194  0.5596737886932672  0.5729988711091565   F   F   F
  0.6552684236953183  0.5165424048424470  0.4543399438695133   F   F   F
  0.5967309916701211  0.5535378348504167  0.5056109707055541   F   F   F
  0.5314074673932367  0.5941153005651714  0.5336729985293047   F   F   F
  0.5796732686089143  0.4997731718447866  0.4507473928409595   F   F   F
  0.4599043493888085  0.3295276201300169  0.3474652165848587   T   T   T
  0.3905180950192175  0.5252419063175111  0.4552418453041511   F   F   F
  0.4530839785373881  0.3236120723685204  0.4273048864198841   T   T   T
  0.5074804872141527  0.4592780196109629  0.3501259710292359   F   F   F
  0.6012877811302459  0.4669891268301640  0.5212355700313438   F   F   F
  0.5384608035519776  0.4312182275275163  0.4821288228790692   F   F   F
  0.4713083414346286  0.4805797151798927  0.5807598339419258   F   F   F
  0.3771163837573610  0.4514853175274567  0.4282230665427278   F   F   F
  0.4059018739390154  0.3822235888080883  0.4561785915149272   F   F   F
  0.5357818896390683  0.5680835373033233  0.4543473312664048   F   F   F
  0.4924712632432886  0.6367287407321953  0.4646113344718685   F   F   F
  0.4677327221812249  0.5829886973614862  0.4038343643763724   F   F   F
  0.5280944416629296  0.5063826634733033  0.5194466411805863   F   F   F
  0.6212454441397384  0.5105019604624417  0.3755946010283822   F   F   F
  0.6054499763524817  0.5821019035045651  0.4188664505762958   F   F   F
  0.4050790883739026  0.5245211222763402  0.5434909784116542   F   F   F
  0.3502509467587199  0.4708585782632410  0.5085660584352163   T   T   T
  0.4354860155956190  0.4576163929831883  0.3017367949884180   T   T   T
  0.5383995051358469  0.4221437449464165  0.5691136652580491   T   T   T
  0.3570727905258970  0.3887631219027214  0.5411602436007033   T   T   T
  0.4625951421883201  0.5516617238622956  0.4875128022361963   F   F   F
  0.6060944345353380  0.3752630725005136  0.5092670574292226   T   T   T
  0.4925045508149072  0.4402700732766546  0.6583900396180099   T   T   T
  0.5877743398366421  0.4718473080908784  0.3047351280014657   T   T   T
  0.4900497958562298  0.4037080615820798  0.4151644571778519   F   F   F
  0.4346762893442416  0.6750034454022376  0.4133777114840865   T   T   T
  0.4683828164648702  0.5380785937438090  0.6603439483729273   T   T   T
  0.5397532608265934  0.5319899791087650  0.3771480104995177   F   F   F
  0.6686726171936477  0.5999612204033300  0.4839712962522865   T   T   T
  0.6655963098346926  0.5189257723063342  0.5510422514739315   T   T   T
  0.3746802998066094  0.3346679997335237  0.3848834733033641   T   T   T
  0.6784426653774945  0.4363939579330375  0.4861609621031774   T   T   T
  0.5358433086623456  0.3143465913731813  0.3955100107290497   T   T   T
  0.3025427813071365  0.5028940177496978  0.4358448503553487   T   T   T
  0.3136574800574028  0.3959861170763975  0.4501990081457419   T   T   T
  0.5123784009990998  0.6256351532797695  0.6166836574659454   T   T   T
  0.4485542209668176  0.3760963682551949  0.5867800608362449   T   T   T
  0.3905708606238736  0.5813692301986512  0.6126878922354007   T   T   T
  0.4038318067306020  0.3067719508632028  0.5037339897898320   T   T   T
  0.4059372122463679  0.3717614662969633  0.2867148661788516   T   T   T
  0.3840243632208411  0.5330597809027613  0.2923508481193591   T   T   T
  0.6933756846729413  0.4617316007603393  0.3881647228615654   T   T   T
  0.3375771423544015  0.5721342092600322  0.5127205807438501   T   T   T
  0.5986117354903540  0.5766337719066839  0.3096891948663013   T   T   T
  0.6127590021705626  0.6144437135497685  0.5755095435810956   T   T   T
  0.4392595842977126  0.6158292064098656  0.3240907016039749   T   T   T
  0.5971945637559067  0.3691318532532886  0.3158673267972189   T   T   T
  0.6463463873483913  0.3504759800631544  0.3742754754801282   T   T   T
  0.6314744221239651  0.3453138115679882  0.3333176393968236   T   T   T
  0.6483603715630348  0.3190988616092575  0.3100588099253828   T   T   T
 
  0.00000000E+00  0.00000000E+00  0.00000000E+00
  0.00000000E+00  0.00000000E+00  0.00000000E+00
  0.00000000E+00  0.00000000E+00  0.00000000E+00
  0.00000000E+00  0.00000000E+00  0.00000000E+00
  0.00000000E+00  0.00000000E+00  0.00000000E+00
  0.00000000E+00  0.00000000E+00  0.00000000E+00
  0.00000000E+00  0.00000000E+00  0.00000000E+00
  0.00000000E+00  0.00000000E+00  0.00000000E+00
  0.00000000E+00  0.00000000E+00  0.00000000E+00
  0.00000000E+00  0.00000000E+00  0.00000000E+00
  0.00000000E+00  0.00000000E+00  0.00000000E+00
  0.00000000E+00  0.00000000E+00  0.00000000E+00
  0.00000000E+00  0.00000000E+00  0.00000000E+00
  0.00000000E+00  0.00000000E+00  0.00000000E+00
  0.00000000E+00  0.00000000E+00  0.00000000E+00
  0.00000000E+00  0.00000000E+00  0.00000000E+00
  0.00000000E+00  0.00000000E+00  0.00000000E+00
  0.00000000E+00  0.00000000E+00  0.00000000E+00
  0.00000000E+00  0.00000000E+00  0.00000000E+00
  0.00000000E+00  0.00000000E+00  0.00000000E+00
  0.00000000E+00  0.00000000E+00  0.00000000E+00
  0.00000000E+00  0.00000000E+00  0.00000000E+00
  0.00000000E+00  0.00000000E+00  0.00000000E+00
  0.00000000E+00  0.00000000E+00  0.00000000E+00
  0.00000000E+00  0.00000000E+00  0.00000000E+00
  0.00000000E+00  0.00000000E+00  0.00000000E+00
  0.00000000E+00  0.00000000E+00  0.00000000E+00
  0.00000000E+00  0.00000000E+00  0.00000000E+00
  0.00000000E+00  0.00000000E+00  0.00000000E+00
  0.00000000E+00  0.00000000E+00  0.00000000E+00
  0.00000000E+00  0.00000000E+00  0.00000000E+00
  0.00000000E+00  0.00000000E+00  0.00000000E+00
  0.00000000E+00  0.00000000E+00  0.00000000E+00
  0.00000000E+00  0.00000000E+00  0.00000000E+00
  0.00000000E+00  0.00000000E+00  0.00000000E+00
  0.00000000E+00  0.00000000E+00  0.00000000E+00
  0.00000000E+00  0.00000000E+00  0.00000000E+00
  0.00000000E+00  0.00000000E+00  0.00000000E+00
  0.00000000E+00  0.00000000E+00  0.00000000E+00
  0.00000000E+00  0.00000000E+00  0.00000000E+00
  0.00000000E+00  0.00000000E+00  0.00000000E+00
  0.00000000E+00  0.00000000E+00  0.00000000E+00
  0.00000000E+00  0.00000000E+00  0.00000000E+00
  0.00000000E+00  0.00000000E+00  0.00000000E+00
  0.00000000E+00  0.00000000E+00  0.00000000E+00
  0.00000000E+00  0.00000000E+00  0.00000000E+00
  0.00000000E+00  0.00000000E+00  0.00000000E+00
  0.00000000E+00  0.00000000E+00  0.00000000E+00
  0.00000000E+00  0.00000000E+00  0.00000000E+00
  0.00000000E+00  0.00000000E+00  0.00000000E+00
  0.00000000E+00  0.00000000E+00  0.00000000E+00
  0.00000000E+00  0.00000000E+00  0.00000000E+00
  0.00000000E+00  0.00000000E+00  0.00000000E+00
  0.00000000E+00  0.00000000E+00  0.00000000E+00
  0.00000000E+00  0.00000000E+00  0.00000000E+00
  0.00000000E+00  0.00000000E+00  0.00000000E+00
  0.00000000E+00  0.00000000E+00  0.00000000E+00
  0.00000000E+00  0.00000000E+00  0.00000000E+00
  0.00000000E+00  0.00000000E+00  0.00000000E+00
  0.00000000E+00  0.00000000E+00  0.00000000E+00
  0.00000000E+00  0.00000000E+00  0.00000000E+00
  0.00000000E+00  0.00000000E+00  0.00000000E+00
  0.00000000E+00  0.00000000E+00  0.00000000E+00
  0.00000000E+00  0.00000000E+00  0.00000000E+00
  0.00000000E+00  0.00000000E+00  0.00000000E+00
  0.00000000E+00  0.00000000E+00  0.00000000E+00
  0.00000000E+00  0.00000000E+00  0.00000000E+00
  0.00000000E+00  0.00000000E+00  0.00000000E+00
  0.00000000E+00  0.00000000E+00  0.00000000E+00
  0.00000000E+00  0.00000000E+00  0.00000000E+00
  0.00000000E+00  0.00000000E+00  0.00000000E+00
  0.00000000E+00  0.00000000E+00  0.00000000E+00
