La Co Ni Sn Bi O  C  H                  
   1.00000000000000     
    29.1044006348000011    0.0000000000000000    0.0000000000000000
     0.4451680315000000   28.3694074727000007    0.0000000000000000
     0.0682082826000000    0.3036559964000000   28.5240018092999996
   La   Co   Ni   Sn   Bi   O    C    H 
    14    13    13    14    14     2     1     1
Selective dynamics
Direct
  0.5922396979870689  0.4204840272071530  0.4077106269930407   T   T   T
  0.6854474081703992  0.5711621932912131  0.3812465164915605   T   T   T
  0.4953606162105954  0.5279223274718169  0.2825424128700030   T   T   T
  0.5623009489139473  0.5215183396354016  0.6020840699154680   T   T   T
  0.5087719606760426  0.3871049194126291  0.3053561523613467   T   T   T
  0.5751171432258411  0.6554544311145344  0.4836187336909723   T   T   T
  0.5086708396478702  0.3380967203093025  0.4996769641280895   T   T   T
  0.5350429686282476  0.6376428975776711  0.3752014157852203   T   T   T
  0.4359554840883311  0.6437505150581552  0.5351475035096352   T   T   T
  0.4373551010143757  0.5015757590148624  0.3842817269995109   F   F   F
  0.4437846394494898  0.4460183835780285  0.5005161578087822   F   F   F
  0.3828395296615374  0.4662602942685743  0.6119344563038731   T   T   T
  0.3443776543290604  0.4444698172259526  0.3467195372158460   T   T   T
  0.3617157947232412  0.5858828776823588  0.3938257825474074   T   T   T
  0.4217425606853311  0.4061295180575186  0.3699802678458894   F   F   F
  0.5011311695957161  0.4887203336762909  0.4395023580252015   F   F   F
  0.4044148221271726  0.6101724300038001  0.4624736492929173   F   F   F
  0.4722931245665194  0.5596737886932672  0.5729988711091565   F   F   F
  0.6552684236953183  0.5165424048424470  0.4543399438695133   F   F   F
  0.5967309916701211  0.5535378348504167  0.5056109707055541   F   F   F
  0.5314074673932367  0.5941153005651714  0.5336729985293047   F   F   F
  0.5796732686089143  0.4997731718447866  0.4507473928409595   F   F   F
  0.4606887417066983  0.3308029534026533  0.3444539409305296   T   T   T
  0.3905180950192175  0.5252419063175111  0.4552418453041511   F   F   F
  0.4542289210017716  0.3244750085127287  0.4238514406398313   T   T   T
  0.5074804872141527  0.4592780196109629  0.3501259710292359   F   F   F
  0.6012877811302459  0.4669891268301640  0.5212355700313438   F   F   F
  0.5384608035519776  0.4312182275275163  0.4821288228790692   F   F   F
  0.4713083414346286  0.4805797151798927  0.5807598339419258   F   F   F
  0.3771163837573610  0.4514853175274567  0.4282230665427278   F   F   F
  0.4059018739390154  0.3822235888080883  0.4561785915149272   F   F   F
  0.5357818896390683  0.5680835373033233  0.4543473312664048   F   F   F
  0.4924712632432886  0.6367287407321953  0.4646113344718685   F   F   F
  0.4677327221812249  0.5829886973614862  0.4038343643763724   F   F   F
  0.5280944416629296  0.5063826634733033  0.5194466411805863   F   F   F
  0.6212454441397384  0.5105019604624417  0.3755946010283822   F   F   F
  0.6054499763524817  0.5821019035045651  0.4188664505762958   F   F   F
  0.4050790883739026  0.5245211222763402  0.5434909784116542   F   F   F
  0.3506746126953144  0.4701249216893996  0.5081644576684075   T   T   T
  0.4338212681119741  0.4574653866295199  0.3021934052882037   T   T   T
  0.5380748092070600  0.4217078392875628  0.5687432249719141   T   T   T
  0.3579247670793662  0.3868992799336455  0.5387789962609600   T   T   T
  0.4625951421883201  0.5516617238622956  0.4875128022361963   F   F   F
  0.6065272650166045  0.3750784033144123  0.5101816630985344   T   T   T
  0.4931601193149895  0.4380657337479231  0.6577815498413517   T   T   T
  0.5872616386504280  0.4676489580184009  0.3063114865055015   T   T   T
  0.4900497958562298  0.4037080615820798  0.4151644571778519   F   F   F
  0.4354758510365606  0.6747915552079119  0.4128811809083467   T   T   T
  0.4675565505549574  0.5356397382649448  0.6596379999058961   T   T   T
  0.5397532608265934  0.5319899791087650  0.3771480104995177   F   F   F
  0.6684165083897842  0.6004868306087058  0.4838425182415623   T   T   T
  0.6657829790725790  0.5191812417518531  0.5506280535635846   T   T   T
  0.3747001462907802  0.3347676710971481  0.3847484655491937   T   T   T
  0.6787545623985248  0.4363769618273802  0.4867683905833974   T   T   T
  0.5395798563329048  0.3186599162434128  0.3917138396437682   T   T   T
  0.3024003502359198  0.5031783986122730  0.4364209908926648   T   T   T
  0.3133847406908206  0.3956679606231280  0.4487165759160207   T   T   T
  0.5120104020710745  0.6249243533180661  0.6169332138065743   T   T   T
  0.4488538859326369  0.3753483838945964  0.5859147748776266   T   T   T
  0.3911887696312943  0.5804242889547068  0.6124756571813047   T   T   T
  0.4054169934538376  0.3053748617309467  0.5010662615421428   T   T   T
  0.4023822573898134  0.3717681235675144  0.2869805902112880   T   T   T
  0.3836746738919362  0.5339311228014616  0.2925157085653003   T   T   T
  0.6926392090904758  0.4602754300950381  0.3874736921292203   T   T   T
  0.3376332889535171  0.5718931677746906  0.5128841808129488   T   T   T
  0.5996143572956502  0.5725864776732300  0.3080058128927353   T   T   T
  0.6125253840981630  0.6141413450018921  0.5756544115989465   T   T   T
  0.4399162524501650  0.6153960743112924  0.3238379602091129   T   T   T
  0.3218074648545903  0.4268620991698100  0.6592943373437523   T   T   T
  0.3015744145545584  0.4953163394032980  0.6233352278401451   T   T   T
  0.2916844223106579  0.4575982120562195  0.6458609673999881   T   T   T
  0.2549218807579768  0.4506339802373597  0.6536640432520907   T   T   T
 
  0.00000000E+00  0.00000000E+00  0.00000000E+00
  0.00000000E+00  0.00000000E+00  0.00000000E+00
  0.00000000E+00  0.00000000E+00  0.00000000E+00
  0.00000000E+00  0.00000000E+00  0.00000000E+00
  0.00000000E+00  0.00000000E+00  0.00000000E+00
  0.00000000E+00  0.00000000E+00  0.00000000E+00
  0.00000000E+00  0.00000000E+00  0.00000000E+00
  0.00000000E+00  0.00000000E+00  0.00000000E+00
  0.00000000E+00  0.00000000E+00  0.00000000E+00
  0.00000000E+00  0.00000000E+00  0.00000000E+00
  0.00000000E+00  0.00000000E+00  0.00000000E+00
  0.00000000E+00  0.00000000E+00  0.00000000E+00
  0.00000000E+00  0.00000000E+00  0.00000000E+00
  0.00000000E+00  0.00000000E+00  0.00000000E+00
  0.00000000E+00  0.00000000E+00  0.00000000E+00
  0.00000000E+00  0.00000000E+00  0.00000000E+00
  0.00000000E+00  0.00000000E+00  0.00000000E+00
  0.00000000E+00  0.00000000E+00  0.00000000E+00
  0.00000000E+00  0.00000000E+00  0.00000000E+00
  0.00000000E+00  0.00000000E+00  0.00000000E+00
  0.00000000E+00  0.00000000E+00  0.00000000E+00
  0.00000000E+00  0.00000000E+00  0.00000000E+00
  0.00000000E+00  0.00000000E+00  0.00000000E+00
  0.00000000E+00  0.00000000E+00  0.00000000E+00
  0.00000000E+00  0.00000000E+00  0.00000000E+00
  0.00000000E+00  0.00000000E+00  0.00000000E+00
  0.00000000E+00  0.00000000E+00  0.00000000E+00
  0.00000000E+00  0.00000000E+00  0.00000000E+00
  0.00000000E+00  0.00000000E+00  0.00000000E+00
  0.00000000E+00  0.00000000E+00  0.00000000E+00
  0.00000000E+00  0.00000000E+00  0.00000000E+00
  0.00000000E+00  0.00000000E+00  0.00000000E+00
  0.00000000E+00  0.00000000E+00  0.00000000E+00
  0.00000000E+00  0.00000000E+00  0.00000000E+00
  0.00000000E+00  0.00000000E+00  0.00000000E+00
  0.00000000E+00  0.00000000E+00  0.00000000E+00
  0.00000000E+00  0.00000000E+00  0.00000000E+00
  0.00000000E+00  0.00000000E+00  0.00000000E+00
  0.00000000E+00  0.00000000E+00  0.00000000E+00
  0.00000000E+00  0.00000000E+00  0.00000000E+00
  0.00000000E+00  0.00000000E+00  0.00000000E+00
  0.00000000E+00  0.00000000E+00  0.00000000E+00
  0.00000000E+00  0.00000000E+00  0.00000000E+00
  0.00000000E+00  0.00000000E+00  0.00000000E+00
  0.00000000E+00  0.00000000E+00  0.00000000E+00
  0.00000000E+00  0.00000000E+00  0.00000000E+00
  0.00000000E+00  0.00000000E+00  0.00000000E+00
  0.00000000E+00  0.00000000E+00  0.00000000E+00
  0.00000000E+00  0.00000000E+00  0.00000000E+00
  0.00000000E+00  0.00000000E+00  0.00000000E+00
  0.00000000E+00  0.00000000E+00  0.00000000E+00
  0.00000000E+00  0.00000000E+00  0.00000000E+00
  0.00000000E+00  0.00000000E+00  0.00000000E+00
  0.00000000E+00  0.00000000E+00  0.00000000E+00
  0.00000000E+00  0.00000000E+00  0.00000000E+00
  0.00000000E+00  0.00000000E+00  0.00000000E+00
  0.00000000E+00  0.00000000E+00  0.00000000E+00
  0.00000000E+00  0.00000000E+00  0.00000000E+00
  0.00000000E+00  0.00000000E+00  0.00000000E+00
  0.00000000E+00  0.00000000E+00  0.00000000E+00
  0.00000000E+00  0.00000000E+00  0.00000000E+00
  0.00000000E+00  0.00000000E+00  0.00000000E+00
  0.00000000E+00  0.00000000E+00  0.00000000E+00
  0.00000000E+00  0.00000000E+00  0.00000000E+00
  0.00000000E+00  0.00000000E+00  0.00000000E+00
  0.00000000E+00  0.00000000E+00  0.00000000E+00
  0.00000000E+00  0.00000000E+00  0.00000000E+00
  0.00000000E+00  0.00000000E+00  0.00000000E+00
  0.00000000E+00  0.00000000E+00  0.00000000E+00
  0.00000000E+00  0.00000000E+00  0.00000000E+00
  0.00000000E+00  0.00000000E+00  0.00000000E+00
  0.00000000E+00  0.00000000E+00  0.00000000E+00
