La Co Ni Sn Bi O  C  H                  
   1.00000000000000     
    29.1044006348000011    0.0000000000000000    0.0000000000000000
     0.4451680315000000   28.3694074727000007    0.0000000000000000
     0.0682082826000000    0.3036559964000000   28.5240018092999996
   La   Co   Ni   Sn   Bi   O    C    H 
    14    13    13    14    14     2     1     1
Selective dynamics
Direct
  0.5923312629366746  0.4206769964946523  0.4076907271591875   T   T   T
  0.6854160796913976  0.5711425583785759  0.3810245832334300   T   T   T
  0.4951831809087041  0.5283726998797705  0.2826408192552928   T   T   T
  0.5627298047119401  0.5215059902235180  0.6019300855670719   T   T   T
  0.5089082453877835  0.3873895691058916  0.3053144649562224   T   T   T
  0.5746195917299397  0.6559473031134675  0.4835129754676876   T   T   T
  0.5087999969186692  0.3378508420712504  0.4993193603786448   T   T   T
  0.5336937760782592  0.6379073232100289  0.3755576881048082   T   T   T
  0.4345637336468506  0.6468705368050991  0.5351573208467710   T   T   T
  0.4373551010143757  0.5015757590148624  0.3842817269995109   F   F   F
  0.4437846394494898  0.4460183835780285  0.5005161578087822   F   F   F
  0.3874823926720333  0.4665082389894238  0.6095534249533949   T   T   T
  0.3445868263128891  0.4444460454687993  0.3466776907398970   T   T   T
  0.3620368904344599  0.5868803657107049  0.3944024292562551   T   T   T
  0.4217425606853311  0.4061295180575186  0.3699802678458894   F   F   F
  0.5011311695957161  0.4887203336762909  0.4395023580252015   F   F   F
  0.4044148221271726  0.6101724300038001  0.4624736492929173   F   F   F
  0.4722931245665194  0.5596737886932672  0.5729988711091565   F   F   F
  0.6552684236953183  0.5165424048424470  0.4543399438695133   F   F   F
  0.5967309916701211  0.5535378348504167  0.5056109707055541   F   F   F
  0.5314074673932367  0.5941153005651714  0.5336729985293047   F   F   F
  0.5796732686089143  0.4997731718447866  0.4507473928409595   F   F   F
  0.4610098340474946  0.3309606328769713  0.3442909765293920   T   T   T
  0.3905180950192175  0.5252419063175111  0.4552418453041511   F   F   F
  0.4545266094132560  0.3245696296713101  0.4237440585259555   T   T   T
  0.5074804872141527  0.4592780196109629  0.3501259710292359   F   F   F
  0.6012877811302459  0.4669891268301640  0.5212355700313438   F   F   F
  0.5384608035519776  0.4312182275275163  0.4821288228790692   F   F   F
  0.4713083414346286  0.4805797151798927  0.5807598339419258   F   F   F
  0.3771163837573610  0.4514853175274567  0.4282230665427278   F   F   F
  0.4059018739390154  0.3822235888080883  0.4561785915149272   F   F   F
  0.5357818896390683  0.5680835373033233  0.4543473312664048   F   F   F
  0.4924712632432886  0.6367287407321953  0.4646113344718685   F   F   F
  0.4677327221812249  0.5829886973614862  0.4038343643763724   F   F   F
  0.5280944416629296  0.5063826634733033  0.5194466411805863   F   F   F
  0.6212454441397384  0.5105019604624417  0.3755946010283822   F   F   F
  0.6054499763524817  0.5821019035045651  0.4188664505762958   F   F   F
  0.4050790883739026  0.5245211222763402  0.5434909784116542   F   F   F
  0.3507270572828879  0.4702897297518622  0.5087932120885851   T   T   T
  0.4339275508960254  0.4576239255523383  0.3021811154730511   T   T   T
  0.5378449554752260  0.4216674224098144  0.5687637339200857   T   T   T
  0.3575464787650497  0.3869482623376408  0.5393973888207337   T   T   T
  0.4625951421883201  0.5516617238622956  0.4875128022361963   F   F   F
  0.6065545439662313  0.3754777031991934  0.5103629790880277   T   T   T
  0.4917986177449931  0.4381495975125610  0.6577151967229680   T   T   T
  0.5872775209259367  0.4681406411306568  0.3061436513217883   T   T   T
  0.4900497958562298  0.4037080615820798  0.4151644571778519   F   F   F
  0.4351401349520370  0.6776529296305603  0.4155254542879660   T   T   T
  0.4688163175588990  0.5362611819663593  0.6604357982406027   T   T   T
  0.5397532608265934  0.5319899791087650  0.3771480104995177   F   F   F
  0.6680581508068190  0.6006346881717239  0.4836574465704433   T   T   T
  0.6658579245903026  0.5192949355000247  0.5504764459933031   T   T   T
  0.3748207678783755  0.3346807284572855  0.3848541577485919   T   T   T
  0.6789592931780025  0.4366303628276203  0.4864973902944961   T   T   T
  0.5398472980086434  0.3188304546411998  0.3915106933202502   T   T   T
  0.3027735132964433  0.5033737519274046  0.4364661753708749   T   T   T
  0.3134588041938415  0.3957178886121950  0.4490065103678437   T   T   T
  0.5119373861537542  0.6249225736487747  0.6165087403402509   T   T   T
  0.4486941952133029  0.3739559333006363  0.5851865701960912   T   T   T
  0.3912784381754891  0.5802319166435965  0.6128975108497745   T   T   T
  0.4051073828098248  0.3053945443412890  0.5007273341217080   T   T   T
  0.4026138974856102  0.3718237711491109  0.2869863885307415   T   T   T
  0.3836081520423493  0.5343455003288208  0.2928703603454714   T   T   T
  0.6927191338596568  0.4603734377448441  0.3871016903822253   T   T   T
  0.3378428578815994  0.5725738016384597  0.5129070748259572   T   T   T
  0.5995462023222273  0.5731519927028405  0.3084236370127015   T   T   T
  0.6124122310294721  0.6143687269204947  0.5753583335710019   T   T   T
  0.4392612832082317  0.6159085863016632  0.3244142007019344   T   T   T
  0.4221003424862776  0.7301957186969752  0.5278928261627464   T   T   T
  0.4186313102210695  0.7545707426559262  0.4513775696355221   T   T   T
  0.4165008092903325  0.7609593956124843  0.4950417308654251   T   T   T
  0.4088764181746896  0.7975640423906439  0.5069292072159975   T   T   T
 
  0.00000000E+00  0.00000000E+00  0.00000000E+00
  0.00000000E+00  0.00000000E+00  0.00000000E+00
  0.00000000E+00  0.00000000E+00  0.00000000E+00
  0.00000000E+00  0.00000000E+00  0.00000000E+00
  0.00000000E+00  0.00000000E+00  0.00000000E+00
  0.00000000E+00  0.00000000E+00  0.00000000E+00
  0.00000000E+00  0.00000000E+00  0.00000000E+00
  0.00000000E+00  0.00000000E+00  0.00000000E+00
  0.00000000E+00  0.00000000E+00  0.00000000E+00
  0.00000000E+00  0.00000000E+00  0.00000000E+00
  0.00000000E+00  0.00000000E+00  0.00000000E+00
  0.00000000E+00  0.00000000E+00  0.00000000E+00
  0.00000000E+00  0.00000000E+00  0.00000000E+00
  0.00000000E+00  0.00000000E+00  0.00000000E+00
  0.00000000E+00  0.00000000E+00  0.00000000E+00
  0.00000000E+00  0.00000000E+00  0.00000000E+00
  0.00000000E+00  0.00000000E+00  0.00000000E+00
  0.00000000E+00  0.00000000E+00  0.00000000E+00
  0.00000000E+00  0.00000000E+00  0.00000000E+00
  0.00000000E+00  0.00000000E+00  0.00000000E+00
  0.00000000E+00  0.00000000E+00  0.00000000E+00
  0.00000000E+00  0.00000000E+00  0.00000000E+00
  0.00000000E+00  0.00000000E+00  0.00000000E+00
  0.00000000E+00  0.00000000E+00  0.00000000E+00
  0.00000000E+00  0.00000000E+00  0.00000000E+00
  0.00000000E+00  0.00000000E+00  0.00000000E+00
  0.00000000E+00  0.00000000E+00  0.00000000E+00
  0.00000000E+00  0.00000000E+00  0.00000000E+00
  0.00000000E+00  0.00000000E+00  0.00000000E+00
  0.00000000E+00  0.00000000E+00  0.00000000E+00
  0.00000000E+00  0.00000000E+00  0.00000000E+00
  0.00000000E+00  0.00000000E+00  0.00000000E+00
  0.00000000E+00  0.00000000E+00  0.00000000E+00
  0.00000000E+00  0.00000000E+00  0.00000000E+00
  0.00000000E+00  0.00000000E+00  0.00000000E+00
  0.00000000E+00  0.00000000E+00  0.00000000E+00
  0.00000000E+00  0.00000000E+00  0.00000000E+00
  0.00000000E+00  0.00000000E+00  0.00000000E+00
  0.00000000E+00  0.00000000E+00  0.00000000E+00
  0.00000000E+00  0.00000000E+00  0.00000000E+00
  0.00000000E+00  0.00000000E+00  0.00000000E+00
  0.00000000E+00  0.00000000E+00  0.00000000E+00
  0.00000000E+00  0.00000000E+00  0.00000000E+00
  0.00000000E+00  0.00000000E+00  0.00000000E+00
  0.00000000E+00  0.00000000E+00  0.00000000E+00
  0.00000000E+00  0.00000000E+00  0.00000000E+00
  0.00000000E+00  0.00000000E+00  0.00000000E+00
  0.00000000E+00  0.00000000E+00  0.00000000E+00
  0.00000000E+00  0.00000000E+00  0.00000000E+00
  0.00000000E+00  0.00000000E+00  0.00000000E+00
  0.00000000E+00  0.00000000E+00  0.00000000E+00
  0.00000000E+00  0.00000000E+00  0.00000000E+00
  0.00000000E+00  0.00000000E+00  0.00000000E+00
  0.00000000E+00  0.00000000E+00  0.00000000E+00
  0.00000000E+00  0.00000000E+00  0.00000000E+00
  0.00000000E+00  0.00000000E+00  0.00000000E+00
  0.00000000E+00  0.00000000E+00  0.00000000E+00
  0.00000000E+00  0.00000000E+00  0.00000000E+00
  0.00000000E+00  0.00000000E+00  0.00000000E+00
  0.00000000E+00  0.00000000E+00  0.00000000E+00
  0.00000000E+00  0.00000000E+00  0.00000000E+00
  0.00000000E+00  0.00000000E+00  0.00000000E+00
  0.00000000E+00  0.00000000E+00  0.00000000E+00
  0.00000000E+00  0.00000000E+00  0.00000000E+00
  0.00000000E+00  0.00000000E+00  0.00000000E+00
  0.00000000E+00  0.00000000E+00  0.00000000E+00
  0.00000000E+00  0.00000000E+00  0.00000000E+00
  0.00000000E+00  0.00000000E+00  0.00000000E+00
  0.00000000E+00  0.00000000E+00  0.00000000E+00
  0.00000000E+00  0.00000000E+00  0.00000000E+00
  0.00000000E+00  0.00000000E+00  0.00000000E+00
  0.00000000E+00  0.00000000E+00  0.00000000E+00
