La Co Ni Sn Bi O  C  H                  
   1.00000000000000     
    29.1044006348000011    0.0000000000000000    0.0000000000000000
     0.4451680315000000   28.3694074727000007    0.0000000000000000
     0.0682082826000000    0.3036559964000000   28.5240018092999996
   La   Co   Ni   Sn   Bi   O    C    H 
    14    13    13    14    14     2     1     1
Selective dynamics
Direct
  0.5920488478038244  0.4187828518847131  0.4044246036300010   T   T   T
  0.6857342559899705  0.5710993757334839  0.3813917523216427   T   T   T
  0.4960072707572987  0.5288182658805847  0.2822506554654237   T   T   T
  0.5623120911720724  0.5218368922967993  0.6022487496462781   T   T   T
  0.5142519591945949  0.3866808761553113  0.3070885650724022   T   T   T
  0.5755677641388692  0.6552704941766823  0.4834961112694666   T   T   T
  0.5076575448668673  0.3383876786212596  0.5007581561727248   T   T   T
  0.5334924523462553  0.6391591638198103  0.3763786301559933   T   T   T
  0.4361938009851964  0.6435317785235944  0.5354987933189808   T   T   T
  0.4373551010143757  0.5015757590148624  0.3842817269995109   F   F   F
  0.4437846394494898  0.4460183835780285  0.5005161578087822   F   F   F
  0.3872232685583741  0.4677916029914136  0.6099719612668841   T   T   T
  0.3455842358886314  0.4432455108755768  0.3462883548098969   T   T   T
  0.3618557719699510  0.5854046221918399  0.3936967439220886   T   T   T
  0.4217425606853311  0.4061295180575186  0.3699802678458894   F   F   F
  0.5011311695957161  0.4887203336762909  0.4395023580252015   F   F   F
  0.4044148221271726  0.6101724300038001  0.4624736492929173   F   F   F
  0.4722931245665194  0.5596737886932672  0.5729988711091565   F   F   F
  0.6552684236953183  0.5165424048424470  0.4543399438695133   F   F   F
  0.5967309916701211  0.5535378348504167  0.5056109707055541   F   F   F
  0.5314074673932367  0.5941153005651714  0.5336729985293047   F   F   F
  0.5796732686089143  0.4997731718447866  0.4507473928409595   F   F   F
  0.4610144722088204  0.3302096967156172  0.3461655957746380   T   T   T
  0.3905180950192175  0.5252419063175111  0.4552418453041511   F   F   F
  0.4534551377354587  0.3238963372947666  0.4259328533930824   T   T   T
  0.5074804872141527  0.4592780196109629  0.3501259710292359   F   F   F
  0.6012877811302459  0.4669891268301640  0.5212355700313438   F   F   F
  0.5384608035519776  0.4312182275275163  0.4821288228790692   F   F   F
  0.4713083414346286  0.4805797151798927  0.5807598339419258   F   F   F
  0.3771163837573610  0.4514853175274567  0.4282230665427278   F   F   F
  0.4059018739390154  0.3822235888080883  0.4561785915149272   F   F   F
  0.5357818896390683  0.5680835373033233  0.4543473312664048   F   F   F
  0.4924712632432886  0.6367287407321953  0.4646113344718685   F   F   F
  0.4677327221812249  0.5829886973614862  0.4038343643763724   F   F   F
  0.5280944416629296  0.5063826634733033  0.5194466411805863   F   F   F
  0.6212454441397384  0.5105019604624417  0.3755946010283822   F   F   F
  0.6054499763524817  0.5821019035045651  0.4188664505762958   F   F   F
  0.4050790883739026  0.5245211222763402  0.5434909784116542   F   F   F
  0.3504841130603863  0.4705253033944899  0.5087199290512811   T   T   T
  0.4359065793675277  0.4575752069618343  0.3015315473744403   T   T   T
  0.5383442864420968  0.4219110476896142  0.5690372207885772   T   T   T
  0.3572349589168215  0.3879656933256866  0.5403856961752213   T   T   T
  0.4625951421883201  0.5516617238622956  0.4875128022361963   F   F   F
  0.6059147769680036  0.3750709290398315  0.5084857654125607   T   T   T
  0.4920978822242467  0.4393590081764592  0.6581602723979911   T   T   T
  0.5889506576880402  0.4731639365734737  0.3042629558427326   T   T   T
  0.4900497958562298  0.4037080615820798  0.4151644571778519   F   F   F
  0.4344284107384991  0.6750324512672149  0.4135169846418253   T   T   T
  0.4681469789771088  0.5373892572393002  0.6602029049531695   T   T   T
  0.5397532608265934  0.5319899791087650  0.3771480104995177   F   F   F
  0.6686145301516146  0.5999762442106125  0.4841107703696935   T   T   T
  0.6655700243868584  0.5187484449302843  0.5510373282403188   T   T   T
  0.3749588340176444  0.3346906876025064  0.3845163021276650   T   T   T
  0.6776706955920841  0.4363584406175073  0.4853079048828873   T   T   T
  0.5368993320229019  0.3151283375439495  0.3948035762150771   T   T   T
  0.3026037970814522  0.5028183732505200  0.4359415744557840   T   T   T
  0.3135422136290043  0.3958192421829588  0.4497786518111872   T   T   T
  0.5122588710723013  0.6253190820204200  0.6169202581425864   T   T   T
  0.4485048546176079  0.3754923346404054  0.5862837351408592   T   T   T
  0.3903550197049565  0.5809152667564076  0.6127399946730041   T   T   T
  0.4037989128732568  0.3061430964357108  0.5021072425907162   T   T   T
  0.4064484832891023  0.3720758726740462  0.2863637948531514   T   T   T
  0.3846504126517880  0.5329637549586324  0.2920853595069114   T   T   T
  0.6921516562798077  0.4601720410915243  0.3863190783970259   T   T   T
  0.3375629122577830  0.5720953897328841  0.5126398874993473   T   T   T
  0.5991900785010827  0.5786148776672068  0.3109732089811085   T   T   T
  0.6126248714791604  0.6141823906850299  0.5756604913522089   T   T   T
  0.4393200907244891  0.6157927678732125  0.3240072706482250   T   T   T
  0.6015207341371672  0.3761049092855283  0.3237527834455541   T   T   T
  0.6514869625532734  0.4083344101253853  0.2714502348975921   T   T   T
  0.6372368766951637  0.3749080656918447  0.2956080979691611   T   T   T
  0.6551462135619227  0.3400130846778683  0.2941406988773842   T   T   T
 
  0.00000000E+00  0.00000000E+00  0.00000000E+00
  0.00000000E+00  0.00000000E+00  0.00000000E+00
  0.00000000E+00  0.00000000E+00  0.00000000E+00
  0.00000000E+00  0.00000000E+00  0.00000000E+00
  0.00000000E+00  0.00000000E+00  0.00000000E+00
  0.00000000E+00  0.00000000E+00  0.00000000E+00
  0.00000000E+00  0.00000000E+00  0.00000000E+00
  0.00000000E+00  0.00000000E+00  0.00000000E+00
  0.00000000E+00  0.00000000E+00  0.00000000E+00
  0.00000000E+00  0.00000000E+00  0.00000000E+00
  0.00000000E+00  0.00000000E+00  0.00000000E+00
  0.00000000E+00  0.00000000E+00  0.00000000E+00
  0.00000000E+00  0.00000000E+00  0.00000000E+00
  0.00000000E+00  0.00000000E+00  0.00000000E+00
  0.00000000E+00  0.00000000E+00  0.00000000E+00
  0.00000000E+00  0.00000000E+00  0.00000000E+00
  0.00000000E+00  0.00000000E+00  0.00000000E+00
  0.00000000E+00  0.00000000E+00  0.00000000E+00
  0.00000000E+00  0.00000000E+00  0.00000000E+00
  0.00000000E+00  0.00000000E+00  0.00000000E+00
  0.00000000E+00  0.00000000E+00  0.00000000E+00
  0.00000000E+00  0.00000000E+00  0.00000000E+00
  0.00000000E+00  0.00000000E+00  0.00000000E+00
  0.00000000E+00  0.00000000E+00  0.00000000E+00
  0.00000000E+00  0.00000000E+00  0.00000000E+00
  0.00000000E+00  0.00000000E+00  0.00000000E+00
  0.00000000E+00  0.00000000E+00  0.00000000E+00
  0.00000000E+00  0.00000000E+00  0.00000000E+00
  0.00000000E+00  0.00000000E+00  0.00000000E+00
  0.00000000E+00  0.00000000E+00  0.00000000E+00
  0.00000000E+00  0.00000000E+00  0.00000000E+00
  0.00000000E+00  0.00000000E+00  0.00000000E+00
  0.00000000E+00  0.00000000E+00  0.00000000E+00
  0.00000000E+00  0.00000000E+00  0.00000000E+00
  0.00000000E+00  0.00000000E+00  0.00000000E+00
  0.00000000E+00  0.00000000E+00  0.00000000E+00
  0.00000000E+00  0.00000000E+00  0.00000000E+00
  0.00000000E+00  0.00000000E+00  0.00000000E+00
  0.00000000E+00  0.00000000E+00  0.00000000E+00
  0.00000000E+00  0.00000000E+00  0.00000000E+00
  0.00000000E+00  0.00000000E+00  0.00000000E+00
  0.00000000E+00  0.00000000E+00  0.00000000E+00
  0.00000000E+00  0.00000000E+00  0.00000000E+00
  0.00000000E+00  0.00000000E+00  0.00000000E+00
  0.00000000E+00  0.00000000E+00  0.00000000E+00
  0.00000000E+00  0.00000000E+00  0.00000000E+00
  0.00000000E+00  0.00000000E+00  0.00000000E+00
  0.00000000E+00  0.00000000E+00  0.00000000E+00
  0.00000000E+00  0.00000000E+00  0.00000000E+00
  0.00000000E+00  0.00000000E+00  0.00000000E+00
  0.00000000E+00  0.00000000E+00  0.00000000E+00
  0.00000000E+00  0.00000000E+00  0.00000000E+00
  0.00000000E+00  0.00000000E+00  0.00000000E+00
  0.00000000E+00  0.00000000E+00  0.00000000E+00
  0.00000000E+00  0.00000000E+00  0.00000000E+00
  0.00000000E+00  0.00000000E+00  0.00000000E+00
  0.00000000E+00  0.00000000E+00  0.00000000E+00
  0.00000000E+00  0.00000000E+00  0.00000000E+00
  0.00000000E+00  0.00000000E+00  0.00000000E+00
  0.00000000E+00  0.00000000E+00  0.00000000E+00
  0.00000000E+00  0.00000000E+00  0.00000000E+00
  0.00000000E+00  0.00000000E+00  0.00000000E+00
  0.00000000E+00  0.00000000E+00  0.00000000E+00
  0.00000000E+00  0.00000000E+00  0.00000000E+00
  0.00000000E+00  0.00000000E+00  0.00000000E+00
  0.00000000E+00  0.00000000E+00  0.00000000E+00
  0.00000000E+00  0.00000000E+00  0.00000000E+00
  0.00000000E+00  0.00000000E+00  0.00000000E+00
  0.00000000E+00  0.00000000E+00  0.00000000E+00
  0.00000000E+00  0.00000000E+00  0.00000000E+00
  0.00000000E+00  0.00000000E+00  0.00000000E+00
  0.00000000E+00  0.00000000E+00  0.00000000E+00
