La Co Ni Sn Bi O  C  H                  
   1.00000000000000     
    29.1044006348000011    0.0000000000000000    0.0000000000000000
     0.4451680315000000   28.3694074727000007    0.0000000000000000
     0.0682082826000000    0.3036559964000000   28.5240018092999996
   La   Co   Ni   Sn   Bi   O    C    H 
    14    13    13    14    14     2     1     1
Selective dynamics
Direct
  0.5923051858050516  0.4206421033104025  0.4076949908620102   T   T   T
  0.6856051599139866  0.5709669115838060  0.3811592729565914   T   T   T
  0.4953866468520136  0.5280641451321114  0.2825357294680888   T   T   T
  0.5629928053583028  0.5206641534966810  0.6020707472952075   T   T   T
  0.5087852180607285  0.3872957348186764  0.3052327221000914   T   T   T
  0.5727855161167719  0.6606984361199911  0.4872098483724703   T   T   T
  0.5083660044045141  0.3378661663913619  0.4994378029536495   T   T   T
  0.5355275978799003  0.6377996900208007  0.3762742043281674   T   T   T
  0.4387563265911503  0.6480265509668091  0.5358088120416399   T   T   T
  0.4373551010143757  0.5015757590148624  0.3842817269995109   F   F   F
  0.4437846394494898  0.4460183835780285  0.5005161578087822   F   F   F
  0.3873305189298241  0.4675794880250912  0.6096696840901691   T   T   T
  0.3444512527506151  0.4447001350456297  0.3468242784509862   T   T   T
  0.3621823189157892  0.5863901607176546  0.3944419248444225   T   T   T
  0.4217425606853311  0.4061295180575186  0.3699802678458894   F   F   F
  0.5011311695957161  0.4887203336762909  0.4395023580252015   F   F   F
  0.4044148221271726  0.6101724300038001  0.4624736492929173   F   F   F
  0.4722931245665194  0.5596737886932672  0.5729988711091565   F   F   F
  0.6552684236953183  0.5165424048424470  0.4543399438695133   F   F   F
  0.5967309916701211  0.5535378348504167  0.5056109707055541   F   F   F
  0.5314074673932367  0.5941153005651714  0.5336729985293047   F   F   F
  0.5796732686089143  0.4997731718447866  0.4507473928409595   F   F   F
  0.4608616850417116  0.3313236387069561  0.3442283653130429   T   T   T
  0.3905180950192175  0.5252419063175111  0.4552418453041511   F   F   F
  0.4542741472163525  0.3246302156415391  0.4236962191874357   T   T   T
  0.5074804872141527  0.4592780196109629  0.3501259710292359   F   F   F
  0.6012877811302459  0.4669891268301640  0.5212355700313438   F   F   F
  0.5384608035519776  0.4312182275275163  0.4821288228790692   F   F   F
  0.4713083414346286  0.4805797151798927  0.5807598339419258   F   F   F
  0.3771163837573610  0.4514853175274567  0.4282230665427278   F   F   F
  0.4059018739390154  0.3822235888080883  0.4561785915149272   F   F   F
  0.5357818896390683  0.5680835373033233  0.4543473312664048   F   F   F
  0.4924712632432886  0.6367287407321953  0.4646113344718685   F   F   F
  0.4677327221812249  0.5829886973614862  0.4038343643763724   F   F   F
  0.5280944416629296  0.5063826634733033  0.5194466411805863   F   F   F
  0.6212454441397384  0.5105019604624417  0.3755946010283822   F   F   F
  0.6054499763524817  0.5821019035045651  0.4188664505762958   F   F   F
  0.4050790883739026  0.5245211222763402  0.5434909784116542   F   F   F
  0.3506812439669094  0.4706029971986755  0.5087391992681429   T   T   T
  0.4338239208691102  0.4577450109463323  0.3022286568703861   T   T   T
  0.5377296754069479  0.4214042392963528  0.5686588011766767   T   T   T
  0.3573498281346697  0.3875620897949230  0.5398981563205942   T   T   T
  0.4625951421883201  0.5516617238622956  0.4875128022361963   F   F   F
  0.6064204505632799  0.3751382952427632  0.5104041029286757   T   T   T
  0.4918915010117593  0.4382865603502036  0.6578408729463702   T   T   T
  0.5873346248108228  0.4677586363077299  0.3062077558301334   T   T   T
  0.4900497958562298  0.4037080615820798  0.4151644571778519   F   F   F
  0.4354464422395586  0.6750349007790845  0.4132596163243750   T   T   T
  0.4682202393646442  0.5362951978382864  0.6601286312592430   T   T   T
  0.5397532608265934  0.5319899791087650  0.3771480104995177   F   F   F
  0.6662140428596885  0.6020643078737047  0.4829159743502540   T   T   T
  0.6662006327639567  0.5195191309303391  0.5499263582736624   T   T   T
  0.3746310523820736  0.3348882609683768  0.3849055369962817   T   T   T
  0.6787472979192062  0.4362628503088088  0.4864183214135102   T   T   T
  0.5396716576260259  0.3188562187014248  0.3916148094537931   T   T   T
  0.3025307931297218  0.5033991273294046  0.4365716047780393   T   T   T
  0.3132990073144264  0.3961758233779324  0.4494750677273983   T   T   T
  0.5133208230243053  0.6236235321964428  0.6177378391008589   T   T   T
  0.4484311996186179  0.3743345382693911  0.5854488387733902   T   T   T
  0.3916201742372885  0.5819491597681434  0.6117967805940357   T   T   T
  0.4045802730694961  0.3057764383616774  0.5011116613085695   T   T   T
  0.4023556267705863  0.3721442361109925  0.2869553601783482   T   T   T
  0.3836829843172607  0.5345223757771920  0.2927025387127765   T   T   T
  0.6927258891337678  0.4601975945827819  0.3871856752746181   T   T   T
  0.3380162944010048  0.5726480400362176  0.5130493621931450   T   T   T
  0.5996665033711815  0.5727162021509793  0.3081240058692594   T   T   T
  0.6128265137494034  0.6135986889079795  0.5758683519601665   T   T   T
  0.4404652932706404  0.6157890801855822  0.3240295065850078   T   T   T
  0.5397194294110740  0.7343919237335481  0.5166169722610334   T   T   T
  0.4669767266365576  0.7278110851578701  0.5450225961605253   T   T   T
  0.5026081524198688  0.7508765742803390  0.5341141424467692   T   T   T
  0.5011924565613136  0.7894907222996452  0.5406667769690184   T   T   T
 
  0.00000000E+00  0.00000000E+00  0.00000000E+00
  0.00000000E+00  0.00000000E+00  0.00000000E+00
  0.00000000E+00  0.00000000E+00  0.00000000E+00
  0.00000000E+00  0.00000000E+00  0.00000000E+00
  0.00000000E+00  0.00000000E+00  0.00000000E+00
  0.00000000E+00  0.00000000E+00  0.00000000E+00
  0.00000000E+00  0.00000000E+00  0.00000000E+00
  0.00000000E+00  0.00000000E+00  0.00000000E+00
  0.00000000E+00  0.00000000E+00  0.00000000E+00
  0.00000000E+00  0.00000000E+00  0.00000000E+00
  0.00000000E+00  0.00000000E+00  0.00000000E+00
  0.00000000E+00  0.00000000E+00  0.00000000E+00
  0.00000000E+00  0.00000000E+00  0.00000000E+00
  0.00000000E+00  0.00000000E+00  0.00000000E+00
  0.00000000E+00  0.00000000E+00  0.00000000E+00
  0.00000000E+00  0.00000000E+00  0.00000000E+00
  0.00000000E+00  0.00000000E+00  0.00000000E+00
  0.00000000E+00  0.00000000E+00  0.00000000E+00
  0.00000000E+00  0.00000000E+00  0.00000000E+00
  0.00000000E+00  0.00000000E+00  0.00000000E+00
  0.00000000E+00  0.00000000E+00  0.00000000E+00
  0.00000000E+00  0.00000000E+00  0.00000000E+00
  0.00000000E+00  0.00000000E+00  0.00000000E+00
  0.00000000E+00  0.00000000E+00  0.00000000E+00
  0.00000000E+00  0.00000000E+00  0.00000000E+00
  0.00000000E+00  0.00000000E+00  0.00000000E+00
  0.00000000E+00  0.00000000E+00  0.00000000E+00
  0.00000000E+00  0.00000000E+00  0.00000000E+00
  0.00000000E+00  0.00000000E+00  0.00000000E+00
  0.00000000E+00  0.00000000E+00  0.00000000E+00
  0.00000000E+00  0.00000000E+00  0.00000000E+00
  0.00000000E+00  0.00000000E+00  0.00000000E+00
  0.00000000E+00  0.00000000E+00  0.00000000E+00
  0.00000000E+00  0.00000000E+00  0.00000000E+00
  0.00000000E+00  0.00000000E+00  0.00000000E+00
  0.00000000E+00  0.00000000E+00  0.00000000E+00
  0.00000000E+00  0.00000000E+00  0.00000000E+00
  0.00000000E+00  0.00000000E+00  0.00000000E+00
  0.00000000E+00  0.00000000E+00  0.00000000E+00
  0.00000000E+00  0.00000000E+00  0.00000000E+00
  0.00000000E+00  0.00000000E+00  0.00000000E+00
  0.00000000E+00  0.00000000E+00  0.00000000E+00
  0.00000000E+00  0.00000000E+00  0.00000000E+00
  0.00000000E+00  0.00000000E+00  0.00000000E+00
  0.00000000E+00  0.00000000E+00  0.00000000E+00
  0.00000000E+00  0.00000000E+00  0.00000000E+00
  0.00000000E+00  0.00000000E+00  0.00000000E+00
  0.00000000E+00  0.00000000E+00  0.00000000E+00
  0.00000000E+00  0.00000000E+00  0.00000000E+00
  0.00000000E+00  0.00000000E+00  0.00000000E+00
  0.00000000E+00  0.00000000E+00  0.00000000E+00
  0.00000000E+00  0.00000000E+00  0.00000000E+00
  0.00000000E+00  0.00000000E+00  0.00000000E+00
  0.00000000E+00  0.00000000E+00  0.00000000E+00
  0.00000000E+00  0.00000000E+00  0.00000000E+00
  0.00000000E+00  0.00000000E+00  0.00000000E+00
  0.00000000E+00  0.00000000E+00  0.00000000E+00
  0.00000000E+00  0.00000000E+00  0.00000000E+00
  0.00000000E+00  0.00000000E+00  0.00000000E+00
  0.00000000E+00  0.00000000E+00  0.00000000E+00
  0.00000000E+00  0.00000000E+00  0.00000000E+00
  0.00000000E+00  0.00000000E+00  0.00000000E+00
  0.00000000E+00  0.00000000E+00  0.00000000E+00
  0.00000000E+00  0.00000000E+00  0.00000000E+00
  0.00000000E+00  0.00000000E+00  0.00000000E+00
  0.00000000E+00  0.00000000E+00  0.00000000E+00
  0.00000000E+00  0.00000000E+00  0.00000000E+00
  0.00000000E+00  0.00000000E+00  0.00000000E+00
  0.00000000E+00  0.00000000E+00  0.00000000E+00
  0.00000000E+00  0.00000000E+00  0.00000000E+00
  0.00000000E+00  0.00000000E+00  0.00000000E+00
  0.00000000E+00  0.00000000E+00  0.00000000E+00
