La Co Ni Sn Bi O  C  H                  
   1.00000000000000     
    29.1044006348000011    0.0000000000000000    0.0000000000000000
     0.4451680315000000   28.3694074727000007    0.0000000000000000
     0.0682082826000000    0.3036559964000000   28.5240018092999996
   La   Co   Ni   Sn   Bi   O    C    H 
    14    13    13    14    14     2     1     1
Selective dynamics
Direct
  0.5922821894318446  0.4205480641050413  0.4074850070775662   T   T   T
  0.6853716502580697  0.5712097543331438  0.3811830416324933   T   T   T
  0.4955241713686556  0.5275129674052016  0.2822892889445513   T   T   T
  0.5626813477338151  0.5215703331141919  0.6017708915171336   T   T   T
  0.5088981173271557  0.3869714732188108  0.3054399411928465   T   T   T
  0.5751255594651354  0.6554919760267738  0.4835524966503383   T   T   T
  0.5083961868541397  0.3381789038587784  0.4998356483844676   T   T   T
  0.5351038473943984  0.6376492209752496  0.3751539943848854   T   T   T
  0.4357083495098372  0.6434977371799597  0.5353882550456988   T   T   T
  0.4373551010143757  0.5015757590148624  0.3842817269995109   F   F   F
  0.4437846394494898  0.4460183835780285  0.5005161578087822   F   F   F
  0.3842584289881263  0.4659898936140625  0.6132626273035011   T   T   T
  0.3444406510143956  0.4442034558602803  0.3467665797100017   T   T   T
  0.3618403063055202  0.5858441417367826  0.3935823536763421   T   T   T
  0.4217425606853311  0.4061295180575186  0.3699802678458894   F   F   F
  0.5011311695957161  0.4887203336762909  0.4395023580252015   F   F   F
  0.4044148221271726  0.6101724300038001  0.4624736492929173   F   F   F
  0.4722931245665194  0.5596737886932672  0.5729988711091565   F   F   F
  0.6552684236953183  0.5165424048424470  0.4543399438695133   F   F   F
  0.5967309916701211  0.5535378348504167  0.5056109707055541   F   F   F
  0.5314074673932367  0.5941153005651714  0.5336729985293047   F   F   F
  0.5796732686089143  0.4997731718447866  0.4507473928409595   F   F   F
  0.4607165656428247  0.3308041800592183  0.3445844718921623   T   T   T
  0.3905180950192175  0.5252419063175111  0.4552418453041511   F   F   F
  0.4541969782642238  0.3244035570330596  0.4239984204951888   T   T   T
  0.5074804872141527  0.4592780196109629  0.3501259710292359   F   F   F
  0.6012877811302459  0.4669891268301640  0.5212355700313438   F   F   F
  0.5384608035519776  0.4312182275275163  0.4821288228790692   F   F   F
  0.4713083414346286  0.4805797151798927  0.5807598339419258   F   F   F
  0.3771163837573610  0.4514853175274567  0.4282230665427278   F   F   F
  0.4059018739390154  0.3822235888080883  0.4561785915149272   F   F   F
  0.5357818896390683  0.5680835373033233  0.4543473312664048   F   F   F
  0.4924712632432886  0.6367287407321953  0.4646113344718685   F   F   F
  0.4677327221812249  0.5829886973614862  0.4038343643763724   F   F   F
  0.5280944416629296  0.5063826634733033  0.5194466411805863   F   F   F
  0.6212454441397384  0.5105019604624417  0.3755946010283822   F   F   F
  0.6054499763524817  0.5821019035045651  0.4188664505762958   F   F   F
  0.4050790883739026  0.5245211222763402  0.5434909784116542   F   F   F
  0.3503159001379682  0.4704470760506540  0.5078577569316910   T   T   T
  0.4339848009092319  0.4572169926699191  0.3021024464815351   T   T   T
  0.5387383989051658  0.4216879375684036  0.5685777512173084   T   T   T
  0.3580395628294884  0.3875028650186696  0.5394416762602048   T   T   T
  0.4625951421883201  0.5516617238622956  0.4875128022361963   F   F   F
  0.6065013402909184  0.3748944945111257  0.5093465603743922   T   T   T
  0.4942592236126795  0.4376246784106386  0.6572722502295015   T   T   T
  0.5873901774732380  0.4676153570280337  0.3062751318799614   T   T   T
  0.4900497958562298  0.4037080615820798  0.4151644571778519   F   F   F
  0.4355011670219613  0.6747073101123365  0.4128028057302139   T   T   T
  0.4685312364312967  0.5362629518150596  0.6597739342038319   T   T   T
  0.5397532608265934  0.5319899791087650  0.3771480104995177   F   F   F
  0.6683657907217244  0.6005387684145223  0.4837575410038543   T   T   T
  0.6659425276482763  0.5191818145100703  0.5504544005118365   T   T   T
  0.3746219142806926  0.3347335130346832  0.3848537878082540   T   T   T
  0.6787774702682904  0.4363217874489687  0.4868272280425257   T   T   T
  0.5395608698841661  0.3185806834489164  0.3920576964747976   T   T   T
  0.3023681641807973  0.5032503887293520  0.4358641379249326   T   T   T
  0.3133884594536341  0.3958647274312343  0.4492700031910182   T   T   T
  0.5121128080429104  0.6249986850042210  0.6168657323367964   T   T   T
  0.4491456098642186  0.3754581327925478  0.5860711509203492   T   T   T
  0.3913952441139500  0.5800726034191021  0.6130260437681344   T   T   T
  0.4048152623705282  0.3055942371647069  0.5010674160171090   T   T   T
  0.4025804547043793  0.3716703153350703  0.2869959269105453   T   T   T
  0.3838440117291874  0.5335888788539574  0.2923123997477952   T   T   T
  0.6927641169651699  0.4603564740404496  0.3875794706274524   T   T   T
  0.3374726794536977  0.5718421441436441  0.5126406744285673   T   T   T
  0.5995863962135850  0.5725159843085158  0.3079717612056579   T   T   T
  0.6126095305849830  0.6143066536668237  0.5755439248914905   T   T   T
  0.4402458483823828  0.6150213284923539  0.3236681908808205   T   T   T
  0.3206286521495336  0.4807002820307067  0.6703681746404935   T   T   T
  0.3848895639348068  0.4463022583061432  0.6998868964805093   T   T   T
  0.3441549204852606  0.4632603983509886  0.7044608608097884   T   T   T
  0.3284004073093733  0.4631089675279064  0.7400460759670574   T   T   T
 
  0.00000000E+00  0.00000000E+00  0.00000000E+00
  0.00000000E+00  0.00000000E+00  0.00000000E+00
  0.00000000E+00  0.00000000E+00  0.00000000E+00
  0.00000000E+00  0.00000000E+00  0.00000000E+00
  0.00000000E+00  0.00000000E+00  0.00000000E+00
  0.00000000E+00  0.00000000E+00  0.00000000E+00
  0.00000000E+00  0.00000000E+00  0.00000000E+00
  0.00000000E+00  0.00000000E+00  0.00000000E+00
  0.00000000E+00  0.00000000E+00  0.00000000E+00
  0.00000000E+00  0.00000000E+00  0.00000000E+00
  0.00000000E+00  0.00000000E+00  0.00000000E+00
  0.00000000E+00  0.00000000E+00  0.00000000E+00
  0.00000000E+00  0.00000000E+00  0.00000000E+00
  0.00000000E+00  0.00000000E+00  0.00000000E+00
  0.00000000E+00  0.00000000E+00  0.00000000E+00
  0.00000000E+00  0.00000000E+00  0.00000000E+00
  0.00000000E+00  0.00000000E+00  0.00000000E+00
  0.00000000E+00  0.00000000E+00  0.00000000E+00
  0.00000000E+00  0.00000000E+00  0.00000000E+00
  0.00000000E+00  0.00000000E+00  0.00000000E+00
  0.00000000E+00  0.00000000E+00  0.00000000E+00
  0.00000000E+00  0.00000000E+00  0.00000000E+00
  0.00000000E+00  0.00000000E+00  0.00000000E+00
  0.00000000E+00  0.00000000E+00  0.00000000E+00
  0.00000000E+00  0.00000000E+00  0.00000000E+00
  0.00000000E+00  0.00000000E+00  0.00000000E+00
  0.00000000E+00  0.00000000E+00  0.00000000E+00
  0.00000000E+00  0.00000000E+00  0.00000000E+00
  0.00000000E+00  0.00000000E+00  0.00000000E+00
  0.00000000E+00  0.00000000E+00  0.00000000E+00
  0.00000000E+00  0.00000000E+00  0.00000000E+00
  0.00000000E+00  0.00000000E+00  0.00000000E+00
  0.00000000E+00  0.00000000E+00  0.00000000E+00
  0.00000000E+00  0.00000000E+00  0.00000000E+00
  0.00000000E+00  0.00000000E+00  0.00000000E+00
  0.00000000E+00  0.00000000E+00  0.00000000E+00
  0.00000000E+00  0.00000000E+00  0.00000000E+00
  0.00000000E+00  0.00000000E+00  0.00000000E+00
  0.00000000E+00  0.00000000E+00  0.00000000E+00
  0.00000000E+00  0.00000000E+00  0.00000000E+00
  0.00000000E+00  0.00000000E+00  0.00000000E+00
  0.00000000E+00  0.00000000E+00  0.00000000E+00
  0.00000000E+00  0.00000000E+00  0.00000000E+00
  0.00000000E+00  0.00000000E+00  0.00000000E+00
  0.00000000E+00  0.00000000E+00  0.00000000E+00
  0.00000000E+00  0.00000000E+00  0.00000000E+00
  0.00000000E+00  0.00000000E+00  0.00000000E+00
  0.00000000E+00  0.00000000E+00  0.00000000E+00
  0.00000000E+00  0.00000000E+00  0.00000000E+00
  0.00000000E+00  0.00000000E+00  0.00000000E+00
  0.00000000E+00  0.00000000E+00  0.00000000E+00
  0.00000000E+00  0.00000000E+00  0.00000000E+00
  0.00000000E+00  0.00000000E+00  0.00000000E+00
  0.00000000E+00  0.00000000E+00  0.00000000E+00
  0.00000000E+00  0.00000000E+00  0.00000000E+00
  0.00000000E+00  0.00000000E+00  0.00000000E+00
  0.00000000E+00  0.00000000E+00  0.00000000E+00
  0.00000000E+00  0.00000000E+00  0.00000000E+00
  0.00000000E+00  0.00000000E+00  0.00000000E+00
  0.00000000E+00  0.00000000E+00  0.00000000E+00
  0.00000000E+00  0.00000000E+00  0.00000000E+00
  0.00000000E+00  0.00000000E+00  0.00000000E+00
  0.00000000E+00  0.00000000E+00  0.00000000E+00
  0.00000000E+00  0.00000000E+00  0.00000000E+00
  0.00000000E+00  0.00000000E+00  0.00000000E+00
  0.00000000E+00  0.00000000E+00  0.00000000E+00
  0.00000000E+00  0.00000000E+00  0.00000000E+00
  0.00000000E+00  0.00000000E+00  0.00000000E+00
  0.00000000E+00  0.00000000E+00  0.00000000E+00
  0.00000000E+00  0.00000000E+00  0.00000000E+00
  0.00000000E+00  0.00000000E+00  0.00000000E+00
  0.00000000E+00  0.00000000E+00  0.00000000E+00
