La Co Ni Sn Bi O  C  H                  
   1.00000000000000     
    29.1044006348000011    0.0000000000000000    0.0000000000000000
     0.4451680315000000   28.3694074727000007    0.0000000000000000
     0.0682082826000000    0.3036559964000000   28.5240018092999996
   La   Co   Ni   Sn   Bi   O    C    H 
    14    13    13    14    14     2     1     1
Selective dynamics
Direct
  0.5923252739162905  0.4204193282690490  0.4077621467046518   T   T   T
  0.6854320481963393  0.5710908470079048  0.3810106737431670   T   T   T
  0.4958743991048042  0.5276442536274318  0.2821380472328121   T   T   T
  0.5625169061827986  0.5219542226782370  0.6020727528107815   T   T   T
  0.5087821718862496  0.3872340796561364  0.3053920178902014   T   T   T
  0.5750092515705730  0.6556133708417061  0.4833090871943035   T   T   T
  0.5088033833979171  0.3381091209961073  0.4995519505121841   T   T   T
  0.5349373482505705  0.6375446330537208  0.3749701698754726   T   T   T
  0.4342647160898150  0.6430871791278239  0.5345542439501337   T   T   T
  0.4373551010143757  0.5015757590148624  0.3842817269995109   F   F   F
  0.4437846394494898  0.4460183835780285  0.5005161578087822   F   F   F
  0.3874502779423629  0.4666683842862296  0.6096347774799236   T   T   T
  0.3442179219994789  0.4451082959625283  0.3471219406829995   T   T   T
  0.3580849210398719  0.5867677232716922  0.3906294365736670   T   T   T
  0.4217425606853311  0.4061295180575186  0.3699802678458894   F   F   F
  0.5011311695957161  0.4887203336762909  0.4395023580252015   F   F   F
  0.4044148221271726  0.6101724300038001  0.4624736492929173   F   F   F
  0.4722931245665194  0.5596737886932672  0.5729988711091565   F   F   F
  0.6552684236953183  0.5165424048424470  0.4543399438695133   F   F   F
  0.5967309916701211  0.5535378348504167  0.5056109707055541   F   F   F
  0.5314074673932367  0.5941153005651714  0.5336729985293047   F   F   F
  0.5796732686089143  0.4997731718447866  0.4507473928409595   F   F   F
  0.4606568992450455  0.3308967025891137  0.3445903959901628   T   T   T
  0.3905180950192175  0.5252419063175111  0.4552418453041511   F   F   F
  0.4542579353343703  0.3245362410647248  0.4240004683646406   T   T   T
  0.5074804872141527  0.4592780196109629  0.3501259710292359   F   F   F
  0.6012877811302459  0.4669891268301640  0.5212355700313438   F   F   F
  0.5384608035519776  0.4312182275275163  0.4821288228790692   F   F   F
  0.4713083414346286  0.4805797151798927  0.5807598339419258   F   F   F
  0.3771163837573610  0.4514853175274567  0.4282230665427278   F   F   F
  0.4059018739390154  0.3822235888080883  0.4561785915149272   F   F   F
  0.5357818896390683  0.5680835373033233  0.4543473312664048   F   F   F
  0.4924712632432886  0.6367287407321953  0.4646113344718685   F   F   F
  0.4677327221812249  0.5829886973614862  0.4038343643763724   F   F   F
  0.5280944416629296  0.5063826634733033  0.5194466411805863   F   F   F
  0.6212454441397384  0.5105019604624417  0.3755946010283822   F   F   F
  0.6054499763524817  0.5821019035045651  0.4188664505762958   F   F   F
  0.4050790883739026  0.5245211222763402  0.5434909784116542   F   F   F
  0.3509624518199359  0.4699554905268262  0.5086335724916141   T   T   T
  0.4342636033781201  0.4571123190859609  0.3023382473157351   T   T   T
  0.5381160893979052  0.4219369195060639  0.5690028208881267   T   T   T
  0.3578463131072012  0.3867244705851349  0.5395909741354799   T   T   T
  0.4625951421883201  0.5516617238622956  0.4875128022361963   F   F   F
  0.6065364157219939  0.3753698922824940  0.5104113029720789   T   T   T
  0.4919336732641329  0.4390768340593631  0.6581228506067386   T   T   T
  0.5876067842666548  0.4675714402060082  0.3063627223626458   T   T   T
  0.4900497958562298  0.4037080615820798  0.4151644571778519   F   F   F
  0.4350797770396925  0.6740315511408645  0.4121709253422192   T   T   T
  0.4684723360710442  0.5371962536936433  0.6601449038437811   T   T   T
  0.5397532608265934  0.5319899791087650  0.3771480104995177   F   F   F
  0.6682845895395462  0.6005539449937487  0.4836725721666146   T   T   T
  0.6657907419036319  0.5193667776521410  0.5505649531592264   T   T   T
  0.3744558156423387  0.3350082922663533  0.3849822409216910   T   T   T
  0.6788862359713197  0.4365459633498436  0.4866815943281737   T   T   T
  0.5395553390316983  0.3186345570163251  0.3917188911326184   T   T   T
  0.3016517022034631  0.5031838203258441  0.4366540794148395   T   T   T
  0.3132653836707003  0.3962958090162122  0.4495144544462181   T   T   T
  0.5117670083921906  0.6258527661828062  0.6159713443202920   T   T   T
  0.4490510570478882  0.3746206527093952  0.5856006069295872   T   T   T
  0.3902736576035628  0.5799360364251597  0.6130693050189158   T   T   T
  0.4053629074617421  0.3054824595814574  0.5012439494996879   T   T   T
  0.4021338549086149  0.3719688691263650  0.2871974978685161   T   T   T
  0.3844472885670151  0.5332188694955668  0.2912829538257558   T   T   T
  0.6926491405230435  0.4602512581463978  0.3872968456444821   T   T   T
  0.3373997067394163  0.5717187195155297  0.5120217582034595   T   T   T
  0.5997162812772621  0.5724722971404081  0.3079394562519933   T   T   T
  0.6125306146120399  0.6145594448982348  0.5754528729427333   T   T   T
  0.4403021100432189  0.6146698702467822  0.3234901730724570   T   T   T
  0.2824912691477399  0.6100275177369192  0.3777685647762474   T   T   T
  0.2241865529262753  0.5650482957317042  0.4059268900503042   T   T   T
  0.2401510364539710  0.5951823578891510  0.3788005479169971   T   T   T
  0.2175413940504375  0.6121989669172287  0.3517407835638922   T   T   T
 
  0.00000000E+00  0.00000000E+00  0.00000000E+00
  0.00000000E+00  0.00000000E+00  0.00000000E+00
  0.00000000E+00  0.00000000E+00  0.00000000E+00
  0.00000000E+00  0.00000000E+00  0.00000000E+00
  0.00000000E+00  0.00000000E+00  0.00000000E+00
  0.00000000E+00  0.00000000E+00  0.00000000E+00
  0.00000000E+00  0.00000000E+00  0.00000000E+00
  0.00000000E+00  0.00000000E+00  0.00000000E+00
  0.00000000E+00  0.00000000E+00  0.00000000E+00
  0.00000000E+00  0.00000000E+00  0.00000000E+00
  0.00000000E+00  0.00000000E+00  0.00000000E+00
  0.00000000E+00  0.00000000E+00  0.00000000E+00
  0.00000000E+00  0.00000000E+00  0.00000000E+00
  0.00000000E+00  0.00000000E+00  0.00000000E+00
  0.00000000E+00  0.00000000E+00  0.00000000E+00
  0.00000000E+00  0.00000000E+00  0.00000000E+00
  0.00000000E+00  0.00000000E+00  0.00000000E+00
  0.00000000E+00  0.00000000E+00  0.00000000E+00
  0.00000000E+00  0.00000000E+00  0.00000000E+00
  0.00000000E+00  0.00000000E+00  0.00000000E+00
  0.00000000E+00  0.00000000E+00  0.00000000E+00
  0.00000000E+00  0.00000000E+00  0.00000000E+00
  0.00000000E+00  0.00000000E+00  0.00000000E+00
  0.00000000E+00  0.00000000E+00  0.00000000E+00
  0.00000000E+00  0.00000000E+00  0.00000000E+00
  0.00000000E+00  0.00000000E+00  0.00000000E+00
  0.00000000E+00  0.00000000E+00  0.00000000E+00
  0.00000000E+00  0.00000000E+00  0.00000000E+00
  0.00000000E+00  0.00000000E+00  0.00000000E+00
  0.00000000E+00  0.00000000E+00  0.00000000E+00
  0.00000000E+00  0.00000000E+00  0.00000000E+00
  0.00000000E+00  0.00000000E+00  0.00000000E+00
  0.00000000E+00  0.00000000E+00  0.00000000E+00
  0.00000000E+00  0.00000000E+00  0.00000000E+00
  0.00000000E+00  0.00000000E+00  0.00000000E+00
  0.00000000E+00  0.00000000E+00  0.00000000E+00
  0.00000000E+00  0.00000000E+00  0.00000000E+00
  0.00000000E+00  0.00000000E+00  0.00000000E+00
  0.00000000E+00  0.00000000E+00  0.00000000E+00
  0.00000000E+00  0.00000000E+00  0.00000000E+00
  0.00000000E+00  0.00000000E+00  0.00000000E+00
  0.00000000E+00  0.00000000E+00  0.00000000E+00
  0.00000000E+00  0.00000000E+00  0.00000000E+00
  0.00000000E+00  0.00000000E+00  0.00000000E+00
  0.00000000E+00  0.00000000E+00  0.00000000E+00
  0.00000000E+00  0.00000000E+00  0.00000000E+00
  0.00000000E+00  0.00000000E+00  0.00000000E+00
  0.00000000E+00  0.00000000E+00  0.00000000E+00
  0.00000000E+00  0.00000000E+00  0.00000000E+00
  0.00000000E+00  0.00000000E+00  0.00000000E+00
  0.00000000E+00  0.00000000E+00  0.00000000E+00
  0.00000000E+00  0.00000000E+00  0.00000000E+00
  0.00000000E+00  0.00000000E+00  0.00000000E+00
  0.00000000E+00  0.00000000E+00  0.00000000E+00
  0.00000000E+00  0.00000000E+00  0.00000000E+00
  0.00000000E+00  0.00000000E+00  0.00000000E+00
  0.00000000E+00  0.00000000E+00  0.00000000E+00
  0.00000000E+00  0.00000000E+00  0.00000000E+00
  0.00000000E+00  0.00000000E+00  0.00000000E+00
  0.00000000E+00  0.00000000E+00  0.00000000E+00
  0.00000000E+00  0.00000000E+00  0.00000000E+00
  0.00000000E+00  0.00000000E+00  0.00000000E+00
  0.00000000E+00  0.00000000E+00  0.00000000E+00
  0.00000000E+00  0.00000000E+00  0.00000000E+00
  0.00000000E+00  0.00000000E+00  0.00000000E+00
  0.00000000E+00  0.00000000E+00  0.00000000E+00
  0.00000000E+00  0.00000000E+00  0.00000000E+00
  0.00000000E+00  0.00000000E+00  0.00000000E+00
  0.00000000E+00  0.00000000E+00  0.00000000E+00
  0.00000000E+00  0.00000000E+00  0.00000000E+00
  0.00000000E+00  0.00000000E+00  0.00000000E+00
  0.00000000E+00  0.00000000E+00  0.00000000E+00
