La Co Ni Sn Bi O  C  H                  
   1.00000000000000     
    29.1044006348000011    0.0000000000000000    0.0000000000000000
     0.4451680315000000   28.3694074727000007    0.0000000000000000
     0.0682082826000000    0.3036559964000000   28.5240018092999996
   La   Co   Ni   Sn   Bi   O    C    H 
    14    13    13    14    14     2     1     1
Selective dynamics
Direct
  0.5922201822097009  0.4202318362994420  0.4076111167741973   T   T   T
  0.6854524727384761  0.5708866273728381  0.3810132223487889   T   T   T
  0.4953503626192014  0.5277202031341072  0.2825148385829486   T   T   T
  0.5626294813526338  0.5222012337435695  0.6020981894897752   T   T   T
  0.5089387013822156  0.3865253904935326  0.3059527365429670   T   T   T
  0.5750438322274277  0.6555152907313418  0.4835021376045774   T   T   T
  0.5086266531263063  0.3389571188347974  0.5006297273539140   T   T   T
  0.5349685128431019  0.6376105136533413  0.3750872083576518   T   T   T
  0.4358983135883030  0.6434828996242722  0.5354809503938109   T   T   T
  0.4373551010143757  0.5015757590148624  0.3842817269995109   F   F   F
  0.4437846394494898  0.4460183835780285  0.5005161578087822   F   F   F
  0.3869370048301204  0.4677112961943629  0.6140737053362733   T   T   T
  0.3444300347744649  0.4439399413472618  0.3473139192421716   T   T   T
  0.3616673748685255  0.5858444644856348  0.3938129259841170   T   T   T
  0.4217425606853311  0.4061295180575186  0.3699802678458894   F   F   F
  0.5011311695957161  0.4887203336762909  0.4395023580252015   F   F   F
  0.4044148221271726  0.6101724300038001  0.4624736492929173   F   F   F
  0.4722931245665194  0.5596737886932672  0.5729988711091565   F   F   F
  0.6552684236953183  0.5165424048424470  0.4543399438695133   F   F   F
  0.5967309916701211  0.5535378348504167  0.5056109707055541   F   F   F
  0.5314074673932367  0.5941153005651714  0.5336729985293047   F   F   F
  0.5796732686089143  0.4997731718447866  0.4507473928409595   F   F   F
  0.4607115763019564  0.3308521069009417  0.3459123030032515   T   T   T
  0.3905180950192175  0.5252419063175111  0.4552418453041511   F   F   F
  0.4539121012992800  0.3241724952607937  0.4256267667994233   T   T   T
  0.5074804872141527  0.4592780196109629  0.3501259710292359   F   F   F
  0.6012877811302459  0.4669891268301640  0.5212355700313438   F   F   F
  0.5384608035519776  0.4312182275275163  0.4821288228790692   F   F   F
  0.4713083414346286  0.4805797151798927  0.5807598339419258   F   F   F
  0.3771163837573610  0.4514853175274567  0.4282230665427278   F   F   F
  0.4059018739390154  0.3822235888080883  0.4561785915149272   F   F   F
  0.5357818896390683  0.5680835373033233  0.4543473312664048   F   F   F
  0.4924712632432886  0.6367287407321953  0.4646113344718685   F   F   F
  0.4677327221812249  0.5829886973614862  0.4038343643763724   F   F   F
  0.5280944416629296  0.5063826634733033  0.5194466411805863   F   F   F
  0.6212454441397384  0.5105019604624417  0.3755946010283822   F   F   F
  0.6054499763524817  0.5821019035045651  0.4188664505762958   F   F   F
  0.4050790883739026  0.5245211222763402  0.5434909784116542   F   F   F
  0.3496218795398469  0.4710607169248063  0.5091493121967285   T   T   T
  0.4339922586630640  0.4569970789309045  0.3020796412875970   T   T   T
  0.5390890863696289  0.4220469213741085  0.5692989904836612   T   T   T
  0.3586572194365104  0.3899322999580975  0.5413283106360239   T   T   T
  0.4625951421883201  0.5516617238622956  0.4875128022361963   F   F   F
  0.6069120763476701  0.3752118106295078  0.5101660290646578   T   T   T
  0.4944069234007100  0.4413968336552226  0.6587811365116323   T   T   T
  0.5872268341534334  0.4674586522800963  0.3064018900316026   T   T   T
  0.4900497958562298  0.4037080615820798  0.4151644571778519   F   F   F
  0.4354744486114472  0.6747213783134601  0.4128503160207756   T   T   T
  0.4685891718206253  0.5387363777113623  0.6603916558421086   T   T   T
  0.5397532608265934  0.5319899791087650  0.3771480104995177   F   F   F
  0.6683878944668283  0.6004918549493197  0.4835573939601630   T   T   T
  0.6657262165931060  0.5193633073791865  0.5506402906216142   T   T   T
  0.3746340685463316  0.3348843206734341  0.3853065312207528   T   T   T
  0.6788348752914934  0.4365519423367271  0.4869264669298790   T   T   T
  0.5393450529542265  0.3181663687387053  0.3929452873496996   T   T   T
  0.3025347038765408  0.5031604806513139  0.4368541927440104   T   T   T
  0.3135276529817987  0.3958743893477805  0.4510705646020485   T   T   T
  0.5125851631774941  0.6258761046551511  0.6164663346053382   T   T   T
  0.4500238123769553  0.3766472142387366  0.5876002852342210   T   T   T
  0.3905345263899778  0.5810206501914035  0.6125858844137291   T   T   T
  0.4052757991038382  0.3080619965460429  0.5055570434736733   T   T   T
  0.4026083909458605  0.3713409283771504  0.2872082515362784   T   T   T
  0.3838028084284113  0.5332466905216702  0.2925500386322489   T   T   T
  0.6925046953771582  0.4600481669329449  0.3875496017379109   T   T   T
  0.3376834075861692  0.5726104085153715  0.5127600762838076   T   T   T
  0.5995731598183905  0.5724224510755834  0.3079099256040955   T   T   T
  0.6129150713612678  0.6145845936614686  0.5754091627470560   T   T   T
  0.4397308425009567  0.6152903372849571  0.3237698717558466   T   T   T
  0.3271107448433798  0.4171973863351767  0.6434550724261952   T   T   T
  0.2989362877650091  0.3621057126826476  0.5941059904971437   T   T   T
  0.3008349757818782  0.3830402368549546  0.6329452979594919   T   T   T
  0.2775358616793432  0.3704328323241471  0.6612323923249896   T   T   T
 
  0.00000000E+00  0.00000000E+00  0.00000000E+00
  0.00000000E+00  0.00000000E+00  0.00000000E+00
  0.00000000E+00  0.00000000E+00  0.00000000E+00
  0.00000000E+00  0.00000000E+00  0.00000000E+00
  0.00000000E+00  0.00000000E+00  0.00000000E+00
  0.00000000E+00  0.00000000E+00  0.00000000E+00
  0.00000000E+00  0.00000000E+00  0.00000000E+00
  0.00000000E+00  0.00000000E+00  0.00000000E+00
  0.00000000E+00  0.00000000E+00  0.00000000E+00
  0.00000000E+00  0.00000000E+00  0.00000000E+00
  0.00000000E+00  0.00000000E+00  0.00000000E+00
  0.00000000E+00  0.00000000E+00  0.00000000E+00
  0.00000000E+00  0.00000000E+00  0.00000000E+00
  0.00000000E+00  0.00000000E+00  0.00000000E+00
  0.00000000E+00  0.00000000E+00  0.00000000E+00
  0.00000000E+00  0.00000000E+00  0.00000000E+00
  0.00000000E+00  0.00000000E+00  0.00000000E+00
  0.00000000E+00  0.00000000E+00  0.00000000E+00
  0.00000000E+00  0.00000000E+00  0.00000000E+00
  0.00000000E+00  0.00000000E+00  0.00000000E+00
  0.00000000E+00  0.00000000E+00  0.00000000E+00
  0.00000000E+00  0.00000000E+00  0.00000000E+00
  0.00000000E+00  0.00000000E+00  0.00000000E+00
  0.00000000E+00  0.00000000E+00  0.00000000E+00
  0.00000000E+00  0.00000000E+00  0.00000000E+00
  0.00000000E+00  0.00000000E+00  0.00000000E+00
  0.00000000E+00  0.00000000E+00  0.00000000E+00
  0.00000000E+00  0.00000000E+00  0.00000000E+00
  0.00000000E+00  0.00000000E+00  0.00000000E+00
  0.00000000E+00  0.00000000E+00  0.00000000E+00
  0.00000000E+00  0.00000000E+00  0.00000000E+00
  0.00000000E+00  0.00000000E+00  0.00000000E+00
  0.00000000E+00  0.00000000E+00  0.00000000E+00
  0.00000000E+00  0.00000000E+00  0.00000000E+00
  0.00000000E+00  0.00000000E+00  0.00000000E+00
  0.00000000E+00  0.00000000E+00  0.00000000E+00
  0.00000000E+00  0.00000000E+00  0.00000000E+00
  0.00000000E+00  0.00000000E+00  0.00000000E+00
  0.00000000E+00  0.00000000E+00  0.00000000E+00
  0.00000000E+00  0.00000000E+00  0.00000000E+00
  0.00000000E+00  0.00000000E+00  0.00000000E+00
  0.00000000E+00  0.00000000E+00  0.00000000E+00
  0.00000000E+00  0.00000000E+00  0.00000000E+00
  0.00000000E+00  0.00000000E+00  0.00000000E+00
  0.00000000E+00  0.00000000E+00  0.00000000E+00
  0.00000000E+00  0.00000000E+00  0.00000000E+00
  0.00000000E+00  0.00000000E+00  0.00000000E+00
  0.00000000E+00  0.00000000E+00  0.00000000E+00
  0.00000000E+00  0.00000000E+00  0.00000000E+00
  0.00000000E+00  0.00000000E+00  0.00000000E+00
  0.00000000E+00  0.00000000E+00  0.00000000E+00
  0.00000000E+00  0.00000000E+00  0.00000000E+00
  0.00000000E+00  0.00000000E+00  0.00000000E+00
  0.00000000E+00  0.00000000E+00  0.00000000E+00
  0.00000000E+00  0.00000000E+00  0.00000000E+00
  0.00000000E+00  0.00000000E+00  0.00000000E+00
  0.00000000E+00  0.00000000E+00  0.00000000E+00
  0.00000000E+00  0.00000000E+00  0.00000000E+00
  0.00000000E+00  0.00000000E+00  0.00000000E+00
  0.00000000E+00  0.00000000E+00  0.00000000E+00
  0.00000000E+00  0.00000000E+00  0.00000000E+00
  0.00000000E+00  0.00000000E+00  0.00000000E+00
  0.00000000E+00  0.00000000E+00  0.00000000E+00
  0.00000000E+00  0.00000000E+00  0.00000000E+00
  0.00000000E+00  0.00000000E+00  0.00000000E+00
  0.00000000E+00  0.00000000E+00  0.00000000E+00
  0.00000000E+00  0.00000000E+00  0.00000000E+00
  0.00000000E+00  0.00000000E+00  0.00000000E+00
  0.00000000E+00  0.00000000E+00  0.00000000E+00
  0.00000000E+00  0.00000000E+00  0.00000000E+00
  0.00000000E+00  0.00000000E+00  0.00000000E+00
  0.00000000E+00  0.00000000E+00  0.00000000E+00
