La Co Ni Sn Bi O  C  H                  
   1.00000000000000     
    29.1044006348000011    0.0000000000000000    0.0000000000000000
     0.4451680315000000   28.3694074727000007    0.0000000000000000
     0.0682082826000000    0.3036559964000000   28.5240018092999996
   La   Co   Ni   Sn   Bi   O    C    H 
    14    13    13    14    14     2     1     1
Selective dynamics
Direct
  0.5923968563343606  0.4206273768824299  0.4074993664714285   T   T   T
  0.6854596516126337  0.5711048358143740  0.3810987843643122   T   T   T
  0.4954432921962573  0.5291908031727699  0.2827714209304331   T   T   T
  0.5622679213291248  0.5222735317022801  0.6019979111726084   T   T   T
  0.5090664001932207  0.3872360451174177  0.3056395273211955   T   T   T
  0.5757150629466229  0.6553583269655229  0.4832141426785877   T   T   T
  0.5088194500751527  0.3382493252377766  0.4997657893521891   T   T   T
  0.5345724584841109  0.6378015126066545  0.3752955215156607   T   T   T
  0.4337797757873036  0.6432047681041883  0.5345445603058993   T   T   T
  0.4373551010143757  0.5015757590148624  0.3842817269995109   F   F   F
  0.4437846394494898  0.4460183835780285  0.5005161578087822   F   F   F
  0.3875148983260108  0.4668107606838210  0.6097124003283334   T   T   T
  0.3447667568917986  0.4446543169313957  0.3463720679539795   T   T   T
  0.3599572033830685  0.5879120055335546  0.3908698077740016   T   T   T
  0.4217425606853311  0.4061295180575186  0.3699802678458894   F   F   F
  0.5011311695957161  0.4887203336762909  0.4395023580252015   F   F   F
  0.4044148221271726  0.6101724300038001  0.4624736492929173   F   F   F
  0.4722931245665194  0.5596737886932672  0.5729988711091565   F   F   F
  0.6552684236953183  0.5165424048424470  0.4543399438695133   F   F   F
  0.5967309916701211  0.5535378348504167  0.5056109707055541   F   F   F
  0.5314074673932367  0.5941153005651714  0.5336729985293047   F   F   F
  0.5796732686089143  0.4997731718447866  0.4507473928409595   F   F   F
  0.4613826091059621  0.3310062322381735  0.3447253291296872   T   T   T
  0.3905180950192175  0.5252419063175111  0.4552418453041511   F   F   F
  0.4543139064086426  0.3246049696652916  0.4240364767692126   T   T   T
  0.5074804872141527  0.4592780196109629  0.3501259710292359   F   F   F
  0.6012877811302459  0.4669891268301640  0.5212355700313438   F   F   F
  0.5384608035519776  0.4312182275275163  0.4821288228790692   F   F   F
  0.4713083414346286  0.4805797151798927  0.5807598339419258   F   F   F
  0.3771163837573610  0.4514853175274567  0.4282230665427278   F   F   F
  0.4059018739390154  0.3822235888080883  0.4561785915149272   F   F   F
  0.5357818896390683  0.5680835373033233  0.4543473312664048   F   F   F
  0.4924712632432886  0.6367287407321953  0.4646113344718685   F   F   F
  0.4677327221812249  0.5829886973614862  0.4038343643763724   F   F   F
  0.5280944416629296  0.5063826634733033  0.5194466411805863   F   F   F
  0.6212454441397384  0.5105019604624417  0.3755946010283822   F   F   F
  0.6054499763524817  0.5821019035045651  0.4188664505762958   F   F   F
  0.4050790883739026  0.5245211222763402  0.5434909784116542   F   F   F
  0.3507051469767133  0.4701638782005088  0.5086802450905649   T   T   T
  0.4343151213549614  0.4572731385490229  0.3021107479256836   T   T   T
  0.5381224619677335  0.4219879200191283  0.5690568218776804   T   T   T
  0.3574625377338956  0.3871253752124768  0.5394422471174691   T   T   T
  0.4625951421883201  0.5516617238622956  0.4875128022361963   F   F   F
  0.6066000232366879  0.3755418957435623  0.5101146526557744   T   T   T
  0.4919257530318335  0.4393954003169273  0.6580827020650329   T   T   T
  0.5871712388301452  0.4683404551921009  0.3060160127395011   T   T   T
  0.4900497958562298  0.4037080615820798  0.4151644571778519   F   F   F
  0.4343970195984709  0.6736867197050456  0.4119767294473455   T   T   T
  0.4685994772804652  0.5376668584530803  0.6602640544302335   T   T   T
  0.5397532608265934  0.5319899791087650  0.3771480104995177   F   F   F
  0.6686150219429031  0.6002879441693012  0.4838390389999381   T   T   T
  0.6657505169665751  0.5192982856761357  0.5506593711393191   T   T   T
  0.3748482290350241  0.3345994716931687  0.3847845019343761   T   T   T
  0.6790199237813593  0.4366404668777992  0.4865672358543571   T   T   T
  0.5398629037456596  0.3185835985675581  0.3922775659507504   T   T   T
  0.3028552488645692  0.5032649422381137  0.4360932948577956   T   T   T
  0.3135536617110155  0.3955377981379620  0.4487625009840738   T   T   T
  0.5113061221372381  0.6263780544840383  0.6154956522220929   T   T   T
  0.4488641610887851  0.3747773860575691  0.5857042330767087   T   T   T
  0.3903049368359349  0.5800348155249672  0.6131233529552021   T   T   T
  0.4054271949042815  0.3057525526016430  0.5014246580004266   T   T   T
  0.4026951883399713  0.3714188624791727  0.2871329840547514   T   T   T
  0.3843319531751681  0.5335776021100511  0.2913413451679615   T   T   T
  0.6928555202057923  0.4603971594817049  0.3872484703621100   T   T   T
  0.3375153262729370  0.5721765478636436  0.5119509554172058   T   T   T
  0.5997429004058584  0.5731677371688227  0.3084015711371216   T   T   T
  0.6124660505613869  0.6145970999940896  0.5755456941489852   T   T   T
  0.4402187563342850  0.6164119081530558  0.3237465106574257   T   T   T
  0.3236726842518431  0.6628764053024906  0.3767047318335981   T   T   T
  0.3706142254102456  0.7259979403569182  0.3858673955909007   T   T   T
  0.3325886029033902  0.7069520137870656  0.3773934746702494   T   T   T
  0.3032057766656575  0.7313507528566865  0.3692577759672203   T   T   T
 
  0.00000000E+00  0.00000000E+00  0.00000000E+00
  0.00000000E+00  0.00000000E+00  0.00000000E+00
  0.00000000E+00  0.00000000E+00  0.00000000E+00
  0.00000000E+00  0.00000000E+00  0.00000000E+00
  0.00000000E+00  0.00000000E+00  0.00000000E+00
  0.00000000E+00  0.00000000E+00  0.00000000E+00
  0.00000000E+00  0.00000000E+00  0.00000000E+00
  0.00000000E+00  0.00000000E+00  0.00000000E+00
  0.00000000E+00  0.00000000E+00  0.00000000E+00
  0.00000000E+00  0.00000000E+00  0.00000000E+00
  0.00000000E+00  0.00000000E+00  0.00000000E+00
  0.00000000E+00  0.00000000E+00  0.00000000E+00
  0.00000000E+00  0.00000000E+00  0.00000000E+00
  0.00000000E+00  0.00000000E+00  0.00000000E+00
  0.00000000E+00  0.00000000E+00  0.00000000E+00
  0.00000000E+00  0.00000000E+00  0.00000000E+00
  0.00000000E+00  0.00000000E+00  0.00000000E+00
  0.00000000E+00  0.00000000E+00  0.00000000E+00
  0.00000000E+00  0.00000000E+00  0.00000000E+00
  0.00000000E+00  0.00000000E+00  0.00000000E+00
  0.00000000E+00  0.00000000E+00  0.00000000E+00
  0.00000000E+00  0.00000000E+00  0.00000000E+00
  0.00000000E+00  0.00000000E+00  0.00000000E+00
  0.00000000E+00  0.00000000E+00  0.00000000E+00
  0.00000000E+00  0.00000000E+00  0.00000000E+00
  0.00000000E+00  0.00000000E+00  0.00000000E+00
  0.00000000E+00  0.00000000E+00  0.00000000E+00
  0.00000000E+00  0.00000000E+00  0.00000000E+00
  0.00000000E+00  0.00000000E+00  0.00000000E+00
  0.00000000E+00  0.00000000E+00  0.00000000E+00
  0.00000000E+00  0.00000000E+00  0.00000000E+00
  0.00000000E+00  0.00000000E+00  0.00000000E+00
  0.00000000E+00  0.00000000E+00  0.00000000E+00
  0.00000000E+00  0.00000000E+00  0.00000000E+00
  0.00000000E+00  0.00000000E+00  0.00000000E+00
  0.00000000E+00  0.00000000E+00  0.00000000E+00
  0.00000000E+00  0.00000000E+00  0.00000000E+00
  0.00000000E+00  0.00000000E+00  0.00000000E+00
  0.00000000E+00  0.00000000E+00  0.00000000E+00
  0.00000000E+00  0.00000000E+00  0.00000000E+00
  0.00000000E+00  0.00000000E+00  0.00000000E+00
  0.00000000E+00  0.00000000E+00  0.00000000E+00
  0.00000000E+00  0.00000000E+00  0.00000000E+00
  0.00000000E+00  0.00000000E+00  0.00000000E+00
  0.00000000E+00  0.00000000E+00  0.00000000E+00
  0.00000000E+00  0.00000000E+00  0.00000000E+00
  0.00000000E+00  0.00000000E+00  0.00000000E+00
  0.00000000E+00  0.00000000E+00  0.00000000E+00
  0.00000000E+00  0.00000000E+00  0.00000000E+00
  0.00000000E+00  0.00000000E+00  0.00000000E+00
  0.00000000E+00  0.00000000E+00  0.00000000E+00
  0.00000000E+00  0.00000000E+00  0.00000000E+00
  0.00000000E+00  0.00000000E+00  0.00000000E+00
  0.00000000E+00  0.00000000E+00  0.00000000E+00
  0.00000000E+00  0.00000000E+00  0.00000000E+00
  0.00000000E+00  0.00000000E+00  0.00000000E+00
  0.00000000E+00  0.00000000E+00  0.00000000E+00
  0.00000000E+00  0.00000000E+00  0.00000000E+00
  0.00000000E+00  0.00000000E+00  0.00000000E+00
  0.00000000E+00  0.00000000E+00  0.00000000E+00
  0.00000000E+00  0.00000000E+00  0.00000000E+00
  0.00000000E+00  0.00000000E+00  0.00000000E+00
  0.00000000E+00  0.00000000E+00  0.00000000E+00
  0.00000000E+00  0.00000000E+00  0.00000000E+00
  0.00000000E+00  0.00000000E+00  0.00000000E+00
  0.00000000E+00  0.00000000E+00  0.00000000E+00
  0.00000000E+00  0.00000000E+00  0.00000000E+00
  0.00000000E+00  0.00000000E+00  0.00000000E+00
  0.00000000E+00  0.00000000E+00  0.00000000E+00
  0.00000000E+00  0.00000000E+00  0.00000000E+00
  0.00000000E+00  0.00000000E+00  0.00000000E+00
  0.00000000E+00  0.00000000E+00  0.00000000E+00
