La Co Ni Sn Bi O  C  H                  
   1.00000000000000     
    29.1044006348000011    0.0000000000000000    0.0000000000000000
     0.4451680315000000   28.3694074727000007    0.0000000000000000
     0.0682082826000000    0.3036559964000000   28.5240018092999996
   La   Co   Ni   Sn   Bi   O    C    H 
    14    13    13    14    14     2     1     1
Selective dynamics
Direct
  0.5925246966656522  0.4206227847704266  0.4080108685821625   T   T   T
  0.6849050852855550  0.5715072329056408  0.3806418872676807   T   T   T
  0.4956992700402071  0.5265583451679521  0.2818147022793917   T   T   T
  0.5626592758356540  0.5224189591582418  0.6020280302377580   T   T   T
  0.5090751415601730  0.3870157911690436  0.3056065637357097   T   T   T
  0.5766764998877920  0.6597809411963266  0.4815244281256684   T   T   T
  0.5089194357315413  0.3383478372469498  0.4997592489550325   T   T   T
  0.5367417939638206  0.6395946127716194  0.3741441583575663   T   T   T
  0.4362486705924126  0.6439151465876644  0.5352022488687376   T   T   T
  0.4373551010143757  0.5015757590148624  0.3842817269995109   F   F   F
  0.4437846394494898  0.4460183835780285  0.5005161578087822   F   F   F
  0.3876056083232823  0.4672879441805995  0.6098757980718651   T   T   T
  0.3445453396151476  0.4441382664884835  0.3469262972796540   T   T   T
  0.3622542282232118  0.5854104726931730  0.3934929247502132   T   T   T
  0.4217425606853311  0.4061295180575186  0.3699802678458894   F   F   F
  0.5011311695957161  0.4887203336762909  0.4395023580252015   F   F   F
  0.4044148221271726  0.6101724300038001  0.4624736492929173   F   F   F
  0.4722931245665194  0.5596737886932672  0.5729988711091565   F   F   F
  0.6552684236953183  0.5165424048424470  0.4543399438695133   F   F   F
  0.5967309916701211  0.5535378348504167  0.5056109707055541   F   F   F
  0.5314074673932367  0.5941153005651714  0.5336729985293047   F   F   F
  0.5796732686089143  0.4997731718447866  0.4507473928409595   F   F   F
  0.4612733675288745  0.3311648570253302  0.3444756201125077   T   T   T
  0.3905180950192175  0.5252419063175111  0.4552418453041511   F   F   F
  0.4544331649961423  0.3246534215162011  0.4239274202279841   T   T   T
  0.5074804872141527  0.4592780196109629  0.3501259710292359   F   F   F
  0.6012877811302459  0.4669891268301640  0.5212355700313438   F   F   F
  0.5384608035519776  0.4312182275275163  0.4821288228790692   F   F   F
  0.4713083414346286  0.4805797151798927  0.5807598339419258   F   F   F
  0.3771163837573610  0.4514853175274567  0.4282230665427278   F   F   F
  0.4059018739390154  0.3822235888080883  0.4561785915149272   F   F   F
  0.5357818896390683  0.5680835373033233  0.4543473312664048   F   F   F
  0.4924712632432886  0.6367287407321953  0.4646113344718685   F   F   F
  0.4677327221812249  0.5829886973614862  0.4038343643763724   F   F   F
  0.5280944416629296  0.5063826634733033  0.5194466411805863   F   F   F
  0.6212454441397384  0.5105019604624417  0.3755946010283822   F   F   F
  0.6054499763524817  0.5821019035045651  0.4188664505762958   F   F   F
  0.4050790883739026  0.5245211222763402  0.5434909784116542   F   F   F
  0.3506701824904765  0.4703216794274803  0.5088286305714438   T   T   T
  0.4340291485796068  0.4570419311898413  0.3021244005526809   T   T   T
  0.5383324044416533  0.4222365237673710  0.5691965725855334   T   T   T
  0.3579902480238800  0.3872891170122812  0.5400810639389454   T   T   T
  0.4625951421883201  0.5516617238622956  0.4875128022361963   F   F   F
  0.6067103459413962  0.3755721878970502  0.5107872989776873   T   T   T
  0.4919809141855615  0.4394832740172255  0.6581969060119655   T   T   T
  0.5877148855490432  0.4672403211988652  0.3064995642899782   T   T   T
  0.4900497958562298  0.4037080615820798  0.4151644571778519   F   F   F
  0.4356880428256252  0.6739046276490168  0.4122374038485509   T   T   T
  0.4685493577239312  0.5374899075646151  0.6601175497290656   T   T   T
  0.5397532608265934  0.5319899791087650  0.3771480104995177   F   F   F
  0.6680373084148834  0.6006595614989645  0.4833400123204492   T   T   T
  0.6658367031175551  0.5195396047973252  0.5505212455571806   T   T   T
  0.3748684437575110  0.3346726411155136  0.3850170735447733   T   T   T
  0.6790968556897371  0.4367023232400866  0.4865678696339544   T   T   T
  0.5398394004612639  0.3186367061289173  0.3922224392341877   T   T   T
  0.3024927189916162  0.5031318496815974  0.4366102960587583   T   T   T
  0.3135463446539746  0.3958443714896712  0.4499281877099500   T   T   T
  0.5123652370191206  0.6256750419046748  0.6165130024257892   T   T   T
  0.4493152552184599  0.3748846410442335  0.5858779900182360   T   T   T
  0.3906316231407352  0.5807992215178454  0.6127370751954039   T   T   T
  0.4055131229308553  0.3058129154765319  0.5014696925628995   T   T   T
  0.4026557068113520  0.3715514145672938  0.2870894175727354   T   T   T
  0.3839477699195106  0.5333609141559311  0.2920226266913962   T   T   T
  0.6928231692782567  0.4605901078574541  0.3870439726558251   T   T   T
  0.3376244474144579  0.5722378736298255  0.5127356895269461   T   T   T
  0.5991147698221373  0.5719896068800823  0.3072234569269942   T   T   T
  0.6124930491228804  0.6150620176571663  0.5745924099879182   T   T   T
  0.4409888546986710  0.6142618391082957  0.3234215212089214   T   T   T
  0.5774115488348300  0.7094643411131726  0.3981473244996033   T   T   T
  0.5877480319052224  0.7486405395578519  0.4655017962751239   T   T   T
  0.5869803295193531  0.7469802399521559  0.4214198417430586   T   T   T
  0.5955500796452284  0.7788014644212354  0.4003540106217905   T   T   T
 
  0.00000000E+00  0.00000000E+00  0.00000000E+00
  0.00000000E+00  0.00000000E+00  0.00000000E+00
  0.00000000E+00  0.00000000E+00  0.00000000E+00
  0.00000000E+00  0.00000000E+00  0.00000000E+00
  0.00000000E+00  0.00000000E+00  0.00000000E+00
  0.00000000E+00  0.00000000E+00  0.00000000E+00
  0.00000000E+00  0.00000000E+00  0.00000000E+00
  0.00000000E+00  0.00000000E+00  0.00000000E+00
  0.00000000E+00  0.00000000E+00  0.00000000E+00
  0.00000000E+00  0.00000000E+00  0.00000000E+00
  0.00000000E+00  0.00000000E+00  0.00000000E+00
  0.00000000E+00  0.00000000E+00  0.00000000E+00
  0.00000000E+00  0.00000000E+00  0.00000000E+00
  0.00000000E+00  0.00000000E+00  0.00000000E+00
  0.00000000E+00  0.00000000E+00  0.00000000E+00
  0.00000000E+00  0.00000000E+00  0.00000000E+00
  0.00000000E+00  0.00000000E+00  0.00000000E+00
  0.00000000E+00  0.00000000E+00  0.00000000E+00
  0.00000000E+00  0.00000000E+00  0.00000000E+00
  0.00000000E+00  0.00000000E+00  0.00000000E+00
  0.00000000E+00  0.00000000E+00  0.00000000E+00
  0.00000000E+00  0.00000000E+00  0.00000000E+00
  0.00000000E+00  0.00000000E+00  0.00000000E+00
  0.00000000E+00  0.00000000E+00  0.00000000E+00
  0.00000000E+00  0.00000000E+00  0.00000000E+00
  0.00000000E+00  0.00000000E+00  0.00000000E+00
  0.00000000E+00  0.00000000E+00  0.00000000E+00
  0.00000000E+00  0.00000000E+00  0.00000000E+00
  0.00000000E+00  0.00000000E+00  0.00000000E+00
  0.00000000E+00  0.00000000E+00  0.00000000E+00
  0.00000000E+00  0.00000000E+00  0.00000000E+00
  0.00000000E+00  0.00000000E+00  0.00000000E+00
  0.00000000E+00  0.00000000E+00  0.00000000E+00
  0.00000000E+00  0.00000000E+00  0.00000000E+00
  0.00000000E+00  0.00000000E+00  0.00000000E+00
  0.00000000E+00  0.00000000E+00  0.00000000E+00
  0.00000000E+00  0.00000000E+00  0.00000000E+00
  0.00000000E+00  0.00000000E+00  0.00000000E+00
  0.00000000E+00  0.00000000E+00  0.00000000E+00
  0.00000000E+00  0.00000000E+00  0.00000000E+00
  0.00000000E+00  0.00000000E+00  0.00000000E+00
  0.00000000E+00  0.00000000E+00  0.00000000E+00
  0.00000000E+00  0.00000000E+00  0.00000000E+00
  0.00000000E+00  0.00000000E+00  0.00000000E+00
  0.00000000E+00  0.00000000E+00  0.00000000E+00
  0.00000000E+00  0.00000000E+00  0.00000000E+00
  0.00000000E+00  0.00000000E+00  0.00000000E+00
  0.00000000E+00  0.00000000E+00  0.00000000E+00
  0.00000000E+00  0.00000000E+00  0.00000000E+00
  0.00000000E+00  0.00000000E+00  0.00000000E+00
  0.00000000E+00  0.00000000E+00  0.00000000E+00
  0.00000000E+00  0.00000000E+00  0.00000000E+00
  0.00000000E+00  0.00000000E+00  0.00000000E+00
  0.00000000E+00  0.00000000E+00  0.00000000E+00
  0.00000000E+00  0.00000000E+00  0.00000000E+00
  0.00000000E+00  0.00000000E+00  0.00000000E+00
  0.00000000E+00  0.00000000E+00  0.00000000E+00
  0.00000000E+00  0.00000000E+00  0.00000000E+00
  0.00000000E+00  0.00000000E+00  0.00000000E+00
  0.00000000E+00  0.00000000E+00  0.00000000E+00
  0.00000000E+00  0.00000000E+00  0.00000000E+00
  0.00000000E+00  0.00000000E+00  0.00000000E+00
  0.00000000E+00  0.00000000E+00  0.00000000E+00
  0.00000000E+00  0.00000000E+00  0.00000000E+00
  0.00000000E+00  0.00000000E+00  0.00000000E+00
  0.00000000E+00  0.00000000E+00  0.00000000E+00
  0.00000000E+00  0.00000000E+00  0.00000000E+00
  0.00000000E+00  0.00000000E+00  0.00000000E+00
  0.00000000E+00  0.00000000E+00  0.00000000E+00
  0.00000000E+00  0.00000000E+00  0.00000000E+00
  0.00000000E+00  0.00000000E+00  0.00000000E+00
  0.00000000E+00  0.00000000E+00  0.00000000E+00
