La Co Ni Sn Bi O  C  H                  
   1.00000000000000     
    29.1044006348000011    0.0000000000000000    0.0000000000000000
     0.4451680315000000   28.3694074727000007    0.0000000000000000
     0.0682082826000000    0.3036559964000000   28.5240018092999996
   La   Co   Ni   Sn   Bi   O    C    H 
    14    13    13    14    14     2     1     1
Selective dynamics
Direct
  0.5923926600970922  0.4202995834578656  0.4080952148166155   T   T   T
  0.6857666581563897  0.5710673992439290  0.3815075260449902   T   T   T
  0.4965737951233941  0.5286099353408171  0.2820501645418468   T   T   T
  0.5623577547950469  0.5217080620316498  0.6022569569464564   T   T   T
  0.5106964140428130  0.3875735321251991  0.3054398457194745   T   T   T
  0.5750524014659141  0.6555302622521206  0.4836511101067397   T   T   T
  0.5094982624607373  0.3379061909439140  0.4993843509785082   T   T   T
  0.5352256395438167  0.6377688794343187  0.3753334451322151   T   T   T
  0.4359943037215303  0.6433025261023745  0.5357458311921061   T   T   T
  0.4373551010143757  0.5015757590148624  0.3842817269995109   F   F   F
  0.4437846394494898  0.4460183835780285  0.5005161578087822   F   F   F
  0.3876433473301475  0.4669638888356462  0.6098436968198289   T   T   T
  0.3425975789351863  0.4461054323481942  0.3450003362401962   T   T   T
  0.3624011889574780  0.5856258368721117  0.3933866264582676   T   T   T
  0.4217425606853311  0.4061295180575186  0.3699802678458894   F   F   F
  0.5011311695957161  0.4887203336762909  0.4395023580252015   F   F   F
  0.4044148221271726  0.6101724300038001  0.4624736492929173   F   F   F
  0.4722931245665194  0.5596737886932672  0.5729988711091565   F   F   F
  0.6552684236953183  0.5165424048424470  0.4543399438695133   F   F   F
  0.5967309916701211  0.5535378348504167  0.5056109707055541   F   F   F
  0.5314074673932367  0.5941153005651714  0.5336729985293047   F   F   F
  0.5796732686089143  0.4997731718447866  0.4507473928409595   F   F   F
  0.4601317343224686  0.3305434254100310  0.3470246514826044   T   T   T
  0.3905180950192175  0.5252419063175111  0.4552418453041511   F   F   F
  0.4563725830238912  0.3241874310230121  0.4275029532276363   T   T   T
  0.5074804872141527  0.4592780196109629  0.3501259710292359   F   F   F
  0.6012877811302459  0.4669891268301640  0.5212355700313438   F   F   F
  0.5384608035519776  0.4312182275275163  0.4821288228790692   F   F   F
  0.4713083414346286  0.4805797151798927  0.5807598339419258   F   F   F
  0.3771163837573610  0.4514853175274567  0.4282230665427278   F   F   F
  0.4059018739390154  0.3822235888080883  0.4561785915149272   F   F   F
  0.5357818896390683  0.5680835373033233  0.4543473312664048   F   F   F
  0.4924712632432886  0.6367287407321953  0.4646113344718685   F   F   F
  0.4677327221812249  0.5829886973614862  0.4038343643763724   F   F   F
  0.5280944416629296  0.5063826634733033  0.5194466411805863   F   F   F
  0.6212454441397384  0.5105019604624417  0.3755946010283822   F   F   F
  0.6054499763524817  0.5821019035045651  0.4188664505762958   F   F   F
  0.4050790883739026  0.5245211222763402  0.5434909784116542   F   F   F
  0.3504848706323955  0.4701919141127762  0.5087837828669288   T   T   T
  0.4351922188244711  0.4580857469880178  0.3017223357580025   T   T   T
  0.5379126471130480  0.4217315965056851  0.5689189533563180   T   T   T
  0.3570901155840849  0.3874357469405163  0.5399401060694167   T   T   T
  0.4625951421883201  0.5516617238622956  0.4875128022361963   F   F   F
  0.6072057365123661  0.3757197417448337  0.5111216070850070   T   T   T
  0.4924511446965337  0.4394506694744023  0.6580044899430595   T   T   T
  0.5879276548807667  0.4678725815217337  0.3064729489425964   T   T   T
  0.4900497958562298  0.4037080615820798  0.4151644571778519   F   F   F
  0.4354932068761007  0.6747967736858119  0.4129143297610524   T   T   T
  0.4684265704595980  0.5372213627164117  0.6602456283484789   T   T   T
  0.5397532608265934  0.5319899791087650  0.3771480104995177   F   F   F
  0.6683681679988513  0.6004855875350255  0.4839098937438847   T   T   T
  0.6656812044763629  0.5191765998097885  0.5509076101924383   T   T   T
  0.3766385208362006  0.3337289413651290  0.3862355730066582   T   T   T
  0.6795061955047320  0.4368261053164473  0.4871597810708050   T   T   T
  0.5398673200924111  0.3183742238148715  0.3913680931328432   T   T   T
  0.3025384174977538  0.5032946427601659  0.4367803871948190   T   T   T
  0.3140053534962697  0.3957198090112931  0.4490116245469739   T   T   T
  0.5122640247684006  0.6253079422309641  0.6169108483520661   T   T   T
  0.4487264812148156  0.3743636966900185  0.5853265242422875   T   T   T
  0.3904538018882071  0.5803202617113296  0.6130416699078144   T   T   T
  0.4053763928022508  0.3060276690102115  0.5030190881029218   T   T   T
  0.4046672337273240  0.3729874969541951  0.2873642885999998   T   T   T
  0.3856799277342283  0.5346360802529614  0.2909331712005875   T   T   T
  0.6926741664984919  0.4601618311037989  0.3875863012385667   T   T   T
  0.3376229870845028  0.5722569909630224  0.5126499348982433   T   T   T
  0.6001530513590265  0.5729391221392832  0.3084847429578201   T   T   T
  0.6125471132733683  0.6141990536332597  0.5757299233091633   T   T   T
  0.4406570059190471  0.6158526724843708  0.3235750126818269   T   T   T
  0.2812663098784849  0.3956162194951390  0.3285143250968656   T   T   T
  0.3019910505030969  0.3180748353202271  0.3345772276466625   T   T   T
  0.2743428671687278  0.3509152597128199  0.3246434100661882   T   T   T
  0.2398938430670652  0.3416246772398308  0.3109250845190973   T   T   T
 
  0.00000000E+00  0.00000000E+00  0.00000000E+00
  0.00000000E+00  0.00000000E+00  0.00000000E+00
  0.00000000E+00  0.00000000E+00  0.00000000E+00
  0.00000000E+00  0.00000000E+00  0.00000000E+00
  0.00000000E+00  0.00000000E+00  0.00000000E+00
  0.00000000E+00  0.00000000E+00  0.00000000E+00
  0.00000000E+00  0.00000000E+00  0.00000000E+00
  0.00000000E+00  0.00000000E+00  0.00000000E+00
  0.00000000E+00  0.00000000E+00  0.00000000E+00
  0.00000000E+00  0.00000000E+00  0.00000000E+00
  0.00000000E+00  0.00000000E+00  0.00000000E+00
  0.00000000E+00  0.00000000E+00  0.00000000E+00
  0.00000000E+00  0.00000000E+00  0.00000000E+00
  0.00000000E+00  0.00000000E+00  0.00000000E+00
  0.00000000E+00  0.00000000E+00  0.00000000E+00
  0.00000000E+00  0.00000000E+00  0.00000000E+00
  0.00000000E+00  0.00000000E+00  0.00000000E+00
  0.00000000E+00  0.00000000E+00  0.00000000E+00
  0.00000000E+00  0.00000000E+00  0.00000000E+00
  0.00000000E+00  0.00000000E+00  0.00000000E+00
  0.00000000E+00  0.00000000E+00  0.00000000E+00
  0.00000000E+00  0.00000000E+00  0.00000000E+00
  0.00000000E+00  0.00000000E+00  0.00000000E+00
  0.00000000E+00  0.00000000E+00  0.00000000E+00
  0.00000000E+00  0.00000000E+00  0.00000000E+00
  0.00000000E+00  0.00000000E+00  0.00000000E+00
  0.00000000E+00  0.00000000E+00  0.00000000E+00
  0.00000000E+00  0.00000000E+00  0.00000000E+00
  0.00000000E+00  0.00000000E+00  0.00000000E+00
  0.00000000E+00  0.00000000E+00  0.00000000E+00
  0.00000000E+00  0.00000000E+00  0.00000000E+00
  0.00000000E+00  0.00000000E+00  0.00000000E+00
  0.00000000E+00  0.00000000E+00  0.00000000E+00
  0.00000000E+00  0.00000000E+00  0.00000000E+00
  0.00000000E+00  0.00000000E+00  0.00000000E+00
  0.00000000E+00  0.00000000E+00  0.00000000E+00
  0.00000000E+00  0.00000000E+00  0.00000000E+00
  0.00000000E+00  0.00000000E+00  0.00000000E+00
  0.00000000E+00  0.00000000E+00  0.00000000E+00
  0.00000000E+00  0.00000000E+00  0.00000000E+00
  0.00000000E+00  0.00000000E+00  0.00000000E+00
  0.00000000E+00  0.00000000E+00  0.00000000E+00
  0.00000000E+00  0.00000000E+00  0.00000000E+00
  0.00000000E+00  0.00000000E+00  0.00000000E+00
  0.00000000E+00  0.00000000E+00  0.00000000E+00
  0.00000000E+00  0.00000000E+00  0.00000000E+00
  0.00000000E+00  0.00000000E+00  0.00000000E+00
  0.00000000E+00  0.00000000E+00  0.00000000E+00
  0.00000000E+00  0.00000000E+00  0.00000000E+00
  0.00000000E+00  0.00000000E+00  0.00000000E+00
  0.00000000E+00  0.00000000E+00  0.00000000E+00
  0.00000000E+00  0.00000000E+00  0.00000000E+00
  0.00000000E+00  0.00000000E+00  0.00000000E+00
  0.00000000E+00  0.00000000E+00  0.00000000E+00
  0.00000000E+00  0.00000000E+00  0.00000000E+00
  0.00000000E+00  0.00000000E+00  0.00000000E+00
  0.00000000E+00  0.00000000E+00  0.00000000E+00
  0.00000000E+00  0.00000000E+00  0.00000000E+00
  0.00000000E+00  0.00000000E+00  0.00000000E+00
  0.00000000E+00  0.00000000E+00  0.00000000E+00
  0.00000000E+00  0.00000000E+00  0.00000000E+00
  0.00000000E+00  0.00000000E+00  0.00000000E+00
  0.00000000E+00  0.00000000E+00  0.00000000E+00
  0.00000000E+00  0.00000000E+00  0.00000000E+00
  0.00000000E+00  0.00000000E+00  0.00000000E+00
  0.00000000E+00  0.00000000E+00  0.00000000E+00
  0.00000000E+00  0.00000000E+00  0.00000000E+00
  0.00000000E+00  0.00000000E+00  0.00000000E+00
  0.00000000E+00  0.00000000E+00  0.00000000E+00
  0.00000000E+00  0.00000000E+00  0.00000000E+00
  0.00000000E+00  0.00000000E+00  0.00000000E+00
  0.00000000E+00  0.00000000E+00  0.00000000E+00
