La Co Ni Sn Bi O  C  H                  
   1.00000000000000     
    29.1044006348000011    0.0000000000000000    0.0000000000000000
     0.4451680315000000   28.3694074727000007    0.0000000000000000
     0.0682082826000000    0.3036559964000000   28.5240018092999996
   La   Co   Ni   Sn   Bi   O    C    H 
    14    13    13    14    14     2     1     1
Selective dynamics
Direct
  0.5922227207695958  0.4200365894395371  0.4076054167429769   T   T   T
  0.6855703192381830  0.5710720928294505  0.3813202427169071   T   T   T
  0.4963826312390615  0.5281133438011767  0.2821864125418380   T   T   T
  0.5626337434816178  0.5215854764268166  0.6019990691338415   T   T   T
  0.5067176738916286  0.3878621811712773  0.3044706224449898   T   T   T
  0.5750601520241186  0.6555878618253538  0.4834737609782989   T   T   T
  0.5091376693292301  0.3377440010520050  0.4985137595015771   T   T   T
  0.5350624082644856  0.6377195096931726  0.3752430881107899   T   T   T
  0.4346721582552334  0.6430007145693056  0.5350679315387583   T   T   T
  0.4373551010143757  0.5015757590148624  0.3842817269995109   F   F   F
  0.4437846394494898  0.4460183835780285  0.5005161578087822   F   F   F
  0.3882093244431322  0.4658440276919575  0.6098299104951762   T   T   T
  0.3399375931415495  0.4491197111767215  0.3468740431311425   T   T   T
  0.3590549617769933  0.5854657450242750  0.3913527067340975   T   T   T
  0.4217425606853311  0.4061295180575186  0.3699802678458894   F   F   F
  0.5011311695957161  0.4887203336762909  0.4395023580252015   F   F   F
  0.4044148221271726  0.6101724300038001  0.4624736492929173   F   F   F
  0.4722931245665194  0.5596737886932672  0.5729988711091565   F   F   F
  0.6552684236953183  0.5165424048424470  0.4543399438695133   F   F   F
  0.5967309916701211  0.5535378348504167  0.5056109707055541   F   F   F
  0.5314074673932367  0.5941153005651714  0.5336729985293047   F   F   F
  0.5796732686089143  0.4997731718447866  0.4507473928409595   F   F   F
  0.4585495628527478  0.3308047131802090  0.3428531321177298   T   T   T
  0.3905180950192175  0.5252419063175111  0.4552418453041511   F   F   F
  0.4534342852429524  0.3251514636858060  0.4225266876260742   T   T   T
  0.5074804872141527  0.4592780196109629  0.3501259710292359   F   F   F
  0.6012877811302459  0.4669891268301640  0.5212355700313438   F   F   F
  0.5384608035519776  0.4312182275275163  0.4821288228790692   F   F   F
  0.4713083414346286  0.4805797151798927  0.5807598339419258   F   F   F
  0.3771163837573610  0.4514853175274567  0.4282230665427278   F   F   F
  0.4059018739390154  0.3822235888080883  0.4561785915149272   F   F   F
  0.5357818896390683  0.5680835373033233  0.4543473312664048   F   F   F
  0.4924712632432886  0.6367287407321953  0.4646113344718685   F   F   F
  0.4677327221812249  0.5829886973614862  0.4038343643763724   F   F   F
  0.5280944416629296  0.5063826634733033  0.5194466411805863   F   F   F
  0.6212454441397384  0.5105019604624417  0.3755946010283822   F   F   F
  0.6054499763524817  0.5821019035045651  0.4188664505762958   F   F   F
  0.4050790883739026  0.5245211222763402  0.5434909784116542   F   F   F
  0.3515684102407802  0.4689368362736510  0.5104272354859481   T   T   T
  0.4333036426355788  0.4577066292512072  0.3030498554029473   T   T   T
  0.5379608061481315  0.4217475209151256  0.5686665370169127   T   T   T
  0.3585067244778129  0.3856200525258162  0.5400038740360976   T   T   T
  0.4625951421883201  0.5516617238622956  0.4875128022361963   F   F   F
  0.6065715347685594  0.3754161608116465  0.5106403951580022   T   T   T
  0.4921983984407683  0.4383252366881458  0.6577795009559860   T   T   T
  0.5873064973190519  0.4673934966819034  0.3064147163254759   T   T   T
  0.4900497958562298  0.4037080615820798  0.4151644571778519   F   F   F
  0.4351138224492835  0.6744067015651715  0.4126200513556271   T   T   T
  0.4690383390363253  0.5364959828546511  0.6602246083579936   T   T   T
  0.5397532608265934  0.5319899791087650  0.3771480104995177   F   F   F
  0.6682619498218815  0.6005548015724080  0.4837954928640958   T   T   T
  0.6658243370746646  0.5192708359843221  0.5504611749587971   T   T   T
  0.3731487343767162  0.3361232584970764  0.3846744826483888   T   T   T
  0.6788678641834591  0.4364797641676488  0.4866851956214925   T   T   T
  0.5382412271833175  0.3186674570533201  0.3899114138289454   T   T   T
  0.3026455773370551  0.5030551575007628  0.4411652386058766   T   T   T
  0.3133221646323938  0.3960929458788572  0.4500771733949984   T   T   T
  0.5121753593850820  0.6254741416326340  0.6162769310272636   T   T   T
  0.4496993978122927  0.3732757788112299  0.5851388824721735   T   T   T
  0.3906331229483913  0.5794912975316120  0.6134768626248501   T   T   T
  0.4058667040859508  0.3048273308971417  0.5002348513758010   T   T   T
  0.3988932172929536  0.3742357544788908  0.2877118021876457   T   T   T
  0.3857578275465093  0.5344295556941888  0.2906953717114977   T   T   T
  0.6924879870151408  0.4601384533774590  0.3873409893674662   T   T   T
  0.3381048618145525  0.5730582640510080  0.5130761736540204   T   T   T
  0.6000731391665981  0.5725679774059654  0.3082726505357577   T   T   T
  0.6125454824677882  0.6143101936502868  0.5756106904444651   T   T   T
  0.4405932865133980  0.6153320739098459  0.3238556732245677   T   T   T
  0.2845182971251686  0.5795489654162733  0.3517203180084521   T   T   T
  0.2766647279406181  0.5046044620143046  0.3261910809513697   T   T   T
  0.2632396450603814  0.5472520208463505  0.3305858541477428   T   T   T
  0.2295970227844540  0.5571872803430818  0.3147155013423852   T   T   T
 
  0.00000000E+00  0.00000000E+00  0.00000000E+00
  0.00000000E+00  0.00000000E+00  0.00000000E+00
  0.00000000E+00  0.00000000E+00  0.00000000E+00
  0.00000000E+00  0.00000000E+00  0.00000000E+00
  0.00000000E+00  0.00000000E+00  0.00000000E+00
  0.00000000E+00  0.00000000E+00  0.00000000E+00
  0.00000000E+00  0.00000000E+00  0.00000000E+00
  0.00000000E+00  0.00000000E+00  0.00000000E+00
  0.00000000E+00  0.00000000E+00  0.00000000E+00
  0.00000000E+00  0.00000000E+00  0.00000000E+00
  0.00000000E+00  0.00000000E+00  0.00000000E+00
  0.00000000E+00  0.00000000E+00  0.00000000E+00
  0.00000000E+00  0.00000000E+00  0.00000000E+00
  0.00000000E+00  0.00000000E+00  0.00000000E+00
  0.00000000E+00  0.00000000E+00  0.00000000E+00
  0.00000000E+00  0.00000000E+00  0.00000000E+00
  0.00000000E+00  0.00000000E+00  0.00000000E+00
  0.00000000E+00  0.00000000E+00  0.00000000E+00
  0.00000000E+00  0.00000000E+00  0.00000000E+00
  0.00000000E+00  0.00000000E+00  0.00000000E+00
  0.00000000E+00  0.00000000E+00  0.00000000E+00
  0.00000000E+00  0.00000000E+00  0.00000000E+00
  0.00000000E+00  0.00000000E+00  0.00000000E+00
  0.00000000E+00  0.00000000E+00  0.00000000E+00
  0.00000000E+00  0.00000000E+00  0.00000000E+00
  0.00000000E+00  0.00000000E+00  0.00000000E+00
  0.00000000E+00  0.00000000E+00  0.00000000E+00
  0.00000000E+00  0.00000000E+00  0.00000000E+00
  0.00000000E+00  0.00000000E+00  0.00000000E+00
  0.00000000E+00  0.00000000E+00  0.00000000E+00
  0.00000000E+00  0.00000000E+00  0.00000000E+00
  0.00000000E+00  0.00000000E+00  0.00000000E+00
  0.00000000E+00  0.00000000E+00  0.00000000E+00
  0.00000000E+00  0.00000000E+00  0.00000000E+00
  0.00000000E+00  0.00000000E+00  0.00000000E+00
  0.00000000E+00  0.00000000E+00  0.00000000E+00
  0.00000000E+00  0.00000000E+00  0.00000000E+00
  0.00000000E+00  0.00000000E+00  0.00000000E+00
  0.00000000E+00  0.00000000E+00  0.00000000E+00
  0.00000000E+00  0.00000000E+00  0.00000000E+00
  0.00000000E+00  0.00000000E+00  0.00000000E+00
  0.00000000E+00  0.00000000E+00  0.00000000E+00
  0.00000000E+00  0.00000000E+00  0.00000000E+00
  0.00000000E+00  0.00000000E+00  0.00000000E+00
  0.00000000E+00  0.00000000E+00  0.00000000E+00
  0.00000000E+00  0.00000000E+00  0.00000000E+00
  0.00000000E+00  0.00000000E+00  0.00000000E+00
  0.00000000E+00  0.00000000E+00  0.00000000E+00
  0.00000000E+00  0.00000000E+00  0.00000000E+00
  0.00000000E+00  0.00000000E+00  0.00000000E+00
  0.00000000E+00  0.00000000E+00  0.00000000E+00
  0.00000000E+00  0.00000000E+00  0.00000000E+00
  0.00000000E+00  0.00000000E+00  0.00000000E+00
  0.00000000E+00  0.00000000E+00  0.00000000E+00
  0.00000000E+00  0.00000000E+00  0.00000000E+00
  0.00000000E+00  0.00000000E+00  0.00000000E+00
  0.00000000E+00  0.00000000E+00  0.00000000E+00
  0.00000000E+00  0.00000000E+00  0.00000000E+00
  0.00000000E+00  0.00000000E+00  0.00000000E+00
  0.00000000E+00  0.00000000E+00  0.00000000E+00
  0.00000000E+00  0.00000000E+00  0.00000000E+00
  0.00000000E+00  0.00000000E+00  0.00000000E+00
  0.00000000E+00  0.00000000E+00  0.00000000E+00
  0.00000000E+00  0.00000000E+00  0.00000000E+00
  0.00000000E+00  0.00000000E+00  0.00000000E+00
  0.00000000E+00  0.00000000E+00  0.00000000E+00
  0.00000000E+00  0.00000000E+00  0.00000000E+00
  0.00000000E+00  0.00000000E+00  0.00000000E+00
  0.00000000E+00  0.00000000E+00  0.00000000E+00
  0.00000000E+00  0.00000000E+00  0.00000000E+00
  0.00000000E+00  0.00000000E+00  0.00000000E+00
  0.00000000E+00  0.00000000E+00  0.00000000E+00
