La Co Ni Sn Bi O  C  H                  
   1.00000000000000     
    29.1044006348000011    0.0000000000000000    0.0000000000000000
     0.4451680315000000   28.3694074727000007    0.0000000000000000
     0.0682082826000000    0.3036559964000000   28.5240018092999996
   La   Co   Ni   Sn   Bi   O    C    H 
    14    13    13    14    14     2     1     1
Selective dynamics
Direct
  0.5922926848289350  0.4205319065610907  0.4076394213695816   T   T   T
  0.6853485275804435  0.5711927835812903  0.3810884997703849   T   T   T
  0.4960366467338340  0.5269580034132131  0.2817639142867937   T   T   T
  0.5624528526291365  0.5218735179816939  0.6022998586121971   T   T   T
  0.5094158799664039  0.3872768078754530  0.3053016799683445   T   T   T
  0.5751287065619167  0.6556628425519304  0.4837328030728993   T   T   T
  0.5076838752797296  0.3380977808282573  0.5001267414284960   T   T   T
  0.5355924422952326  0.6376498515857986  0.3754375872389353   T   T   T
  0.4364747961172020  0.6439642459438781  0.5351450107938847   T   T   T
  0.4373551010143757  0.5015757590148624  0.3842817269995109   F   F   F
  0.4437846394494898  0.4460183835780285  0.5005161578087822   F   F   F
  0.3823594937027200  0.4669196998625590  0.6073517810554723   T   T   T
  0.3448948451277450  0.4438254087888184  0.3460036732494112   T   T   T
  0.3625067469726889  0.5873400306091113  0.3926777372464995   T   T   T
  0.4217425606853311  0.4061295180575186  0.3699802678458894   F   F   F
  0.5011311695957161  0.4887203336762909  0.4395023580252015   F   F   F
  0.4044148221271726  0.6101724300038001  0.4624736492929173   F   F   F
  0.4722931245665194  0.5596737886932672  0.5729988711091565   F   F   F
  0.6552684236953183  0.5165424048424470  0.4543399438695133   F   F   F
  0.5967309916701211  0.5535378348504167  0.5056109707055541   F   F   F
  0.5314074673932367  0.5941153005651714  0.5336729985293047   F   F   F
  0.5796732686089143  0.4997731718447866  0.4507473928409595   F   F   F
  0.4608726318404281  0.3311342896555747  0.3449839156304175   T   T   T
  0.3905180950192175  0.5252419063175111  0.4552418453041511   F   F   F
  0.4551700060685260  0.3244706471124663  0.4238765519765237   T   T   T
  0.5074804872141527  0.4592780196109629  0.3501259710292359   F   F   F
  0.6012877811302459  0.4669891268301640  0.5212355700313438   F   F   F
  0.5384608035519776  0.4312182275275163  0.4821288228790692   F   F   F
  0.4713083414346286  0.4805797151798927  0.5807598339419258   F   F   F
  0.3771163837573610  0.4514853175274567  0.4282230665427278   F   F   F
  0.4059018739390154  0.3822235888080883  0.4561785915149272   F   F   F
  0.5357818896390683  0.5680835373033233  0.4543473312664048   F   F   F
  0.4924712632432886  0.6367287407321953  0.4646113344718685   F   F   F
  0.4677327221812249  0.5829886973614862  0.4038343643763724   F   F   F
  0.5280944416629296  0.5063826634733033  0.5194466411805863   F   F   F
  0.6212454441397384  0.5105019604624417  0.3755946010283822   F   F   F
  0.6054499763524817  0.5821019035045651  0.4188664505762958   F   F   F
  0.4050790883739026  0.5245211222763402  0.5434909784116542   F   F   F
  0.3474392858379006  0.4714127953811026  0.5090730952722092   T   T   T
  0.4344000532813828  0.4571330041102817  0.3017954235115836   T   T   T
  0.5385850350221923  0.4219211291996017  0.5689571423752811   T   T   T
  0.3592366074639167  0.3844899088992474  0.5369604503984293   T   T   T
  0.4625951421883201  0.5516617238622956  0.4875128022361963   F   F   F
  0.6058583387652829  0.3746858956984118  0.5094740714918766   T   T   T
  0.4929841205755290  0.4385996688833177  0.6579958530987512   T   T   T
  0.5876994690253053  0.4674618419141216  0.3064231053361729   T   T   T
  0.4900497958562298  0.4037080615820798  0.4151644571778519   F   F   F
  0.4359618795369537  0.6747751717100633  0.4126381761040169   T   T   T
  0.4666557027513207  0.5358090629681727  0.6591323621584421   T   T   T
  0.5397532608265934  0.5319899791087650  0.3771480104995177   F   F   F
  0.6684065173471448  0.6006277665465177  0.4836763482849633   T   T   T
  0.6658237712837503  0.5191939583873878  0.5503752954873592   T   T   T
  0.3745746522616770  0.3348278393177818  0.3857296718945919   T   T   T
  0.6783009784501257  0.4361525157112068  0.4865886216940508   T   T   T
  0.5397953447125179  0.3185964601455076  0.3919946472909226   T   T   T
  0.3036143145878337  0.5043732966734205  0.4346711464635312   T   T   T
  0.3124605152438696  0.3970599534160342  0.4491661243082008   T   T   T
  0.5121462201168830  0.6250529316218804  0.6168977067187845   T   T   T
  0.4489850731080969  0.3764351128201233  0.5865166420702251   T   T   T
  0.3899419084090400  0.5808249699192779  0.6118839405670402   T   T   T
  0.4049070887347710  0.3027677372963381  0.4978825744607669   T   T   T
  0.4034012645027029  0.3715844968332243  0.2867592716790221   T   T   T
  0.3844696656872267  0.5336359082258817  0.2919811542158217   T   T   T
  0.6927294511564216  0.4603261148866814  0.3874684974589842   T   T   T
  0.3381219090313998  0.5727494168136734  0.5119781016639379   T   T   T
  0.5995203232863316  0.5723742474311591  0.3078914205749348   T   T   T
  0.6125679196645142  0.6143508184141412  0.5755930895614475   T   T   T
  0.4413284744481463  0.6147963320211485  0.3231777406538793   T   T   T
  0.3062387627321611  0.4740552872518556  0.5723586744254708   T   T   T
  0.2436780707130204  0.4696683966933445  0.5252358629167464   T   T   T
  0.2617865242774532  0.4741374583444224  0.5640037850314905   T   T   T
  0.2405248246293071  0.4787042852080796  0.5962532265626393   T   T   T
 
  0.00000000E+00  0.00000000E+00  0.00000000E+00
  0.00000000E+00  0.00000000E+00  0.00000000E+00
  0.00000000E+00  0.00000000E+00  0.00000000E+00
  0.00000000E+00  0.00000000E+00  0.00000000E+00
  0.00000000E+00  0.00000000E+00  0.00000000E+00
  0.00000000E+00  0.00000000E+00  0.00000000E+00
  0.00000000E+00  0.00000000E+00  0.00000000E+00
  0.00000000E+00  0.00000000E+00  0.00000000E+00
  0.00000000E+00  0.00000000E+00  0.00000000E+00
  0.00000000E+00  0.00000000E+00  0.00000000E+00
  0.00000000E+00  0.00000000E+00  0.00000000E+00
  0.00000000E+00  0.00000000E+00  0.00000000E+00
  0.00000000E+00  0.00000000E+00  0.00000000E+00
  0.00000000E+00  0.00000000E+00  0.00000000E+00
  0.00000000E+00  0.00000000E+00  0.00000000E+00
  0.00000000E+00  0.00000000E+00  0.00000000E+00
  0.00000000E+00  0.00000000E+00  0.00000000E+00
  0.00000000E+00  0.00000000E+00  0.00000000E+00
  0.00000000E+00  0.00000000E+00  0.00000000E+00
  0.00000000E+00  0.00000000E+00  0.00000000E+00
  0.00000000E+00  0.00000000E+00  0.00000000E+00
  0.00000000E+00  0.00000000E+00  0.00000000E+00
  0.00000000E+00  0.00000000E+00  0.00000000E+00
  0.00000000E+00  0.00000000E+00  0.00000000E+00
  0.00000000E+00  0.00000000E+00  0.00000000E+00
  0.00000000E+00  0.00000000E+00  0.00000000E+00
  0.00000000E+00  0.00000000E+00  0.00000000E+00
  0.00000000E+00  0.00000000E+00  0.00000000E+00
  0.00000000E+00  0.00000000E+00  0.00000000E+00
  0.00000000E+00  0.00000000E+00  0.00000000E+00
  0.00000000E+00  0.00000000E+00  0.00000000E+00
  0.00000000E+00  0.00000000E+00  0.00000000E+00
  0.00000000E+00  0.00000000E+00  0.00000000E+00
  0.00000000E+00  0.00000000E+00  0.00000000E+00
  0.00000000E+00  0.00000000E+00  0.00000000E+00
  0.00000000E+00  0.00000000E+00  0.00000000E+00
  0.00000000E+00  0.00000000E+00  0.00000000E+00
  0.00000000E+00  0.00000000E+00  0.00000000E+00
  0.00000000E+00  0.00000000E+00  0.00000000E+00
  0.00000000E+00  0.00000000E+00  0.00000000E+00
  0.00000000E+00  0.00000000E+00  0.00000000E+00
  0.00000000E+00  0.00000000E+00  0.00000000E+00
  0.00000000E+00  0.00000000E+00  0.00000000E+00
  0.00000000E+00  0.00000000E+00  0.00000000E+00
  0.00000000E+00  0.00000000E+00  0.00000000E+00
  0.00000000E+00  0.00000000E+00  0.00000000E+00
  0.00000000E+00  0.00000000E+00  0.00000000E+00
  0.00000000E+00  0.00000000E+00  0.00000000E+00
  0.00000000E+00  0.00000000E+00  0.00000000E+00
  0.00000000E+00  0.00000000E+00  0.00000000E+00
  0.00000000E+00  0.00000000E+00  0.00000000E+00
  0.00000000E+00  0.00000000E+00  0.00000000E+00
  0.00000000E+00  0.00000000E+00  0.00000000E+00
  0.00000000E+00  0.00000000E+00  0.00000000E+00
  0.00000000E+00  0.00000000E+00  0.00000000E+00
  0.00000000E+00  0.00000000E+00  0.00000000E+00
  0.00000000E+00  0.00000000E+00  0.00000000E+00
  0.00000000E+00  0.00000000E+00  0.00000000E+00
  0.00000000E+00  0.00000000E+00  0.00000000E+00
  0.00000000E+00  0.00000000E+00  0.00000000E+00
  0.00000000E+00  0.00000000E+00  0.00000000E+00
  0.00000000E+00  0.00000000E+00  0.00000000E+00
  0.00000000E+00  0.00000000E+00  0.00000000E+00
  0.00000000E+00  0.00000000E+00  0.00000000E+00
  0.00000000E+00  0.00000000E+00  0.00000000E+00
  0.00000000E+00  0.00000000E+00  0.00000000E+00
  0.00000000E+00  0.00000000E+00  0.00000000E+00
  0.00000000E+00  0.00000000E+00  0.00000000E+00
  0.00000000E+00  0.00000000E+00  0.00000000E+00
  0.00000000E+00  0.00000000E+00  0.00000000E+00
  0.00000000E+00  0.00000000E+00  0.00000000E+00
  0.00000000E+00  0.00000000E+00  0.00000000E+00
