La Co Ni Sn Bi O  C  H                  
   1.00000000000000     
    29.1044006348000011    0.0000000000000000    0.0000000000000000
     0.4451680315000000   28.3694074727000007    0.0000000000000000
     0.0682082826000000    0.3036559964000000   28.5240018092999996
   La   Co   Ni   Sn   Bi   O    C    H 
    14    13    13    14    14     2     1     1
Selective dynamics
Direct
  0.5922455517395593  0.4202554165083627  0.4080357693896451   T   T   T
  0.6854657167780294  0.5708367733677742  0.3809308253168220   T   T   T
  0.4953375483621342  0.5275009696043927  0.2824612859959199   T   T   T
  0.5623011250059385  0.5213002488766465  0.6021204993756503   T   T   T
  0.5079284156440721  0.3877648291319358  0.3043431798612276   T   T   T
  0.5751478703153354  0.6554575470204677  0.4838037151276953   T   T   T
  0.5112919939991495  0.3333882606320606  0.5006076297264805   T   T   T
  0.5350609727568394  0.6377018963453431  0.3751789146482318   T   T   T
  0.4362751102212682  0.6435909956787240  0.5355521470082143   T   T   T
  0.4373551010143757  0.5015757590148624  0.3842817269995109   F   F   F
  0.4437846394494898  0.4460183835780285  0.5005161578087822   F   F   F
  0.3873542385108257  0.4673873060542690  0.6097137301190121   T   T   T
  0.3442176633241426  0.4447660586845404  0.3470906329761144   T   T   T
  0.3620045322466908  0.5856037566566548  0.3938267247981511   T   T   T
  0.4217425606853311  0.4061295180575186  0.3699802678458894   F   F   F
  0.5011311695957161  0.4887203336762909  0.4395023580252015   F   F   F
  0.4044148221271726  0.6101724300038001  0.4624736492929173   F   F   F
  0.4722931245665194  0.5596737886932672  0.5729988711091565   F   F   F
  0.6552684236953183  0.5165424048424470  0.4543399438695133   F   F   F
  0.5967309916701211  0.5535378348504167  0.5056109707055541   F   F   F
  0.5314074673932367  0.5941153005651714  0.5336729985293047   F   F   F
  0.5796732686089143  0.4997731718447866  0.4507473928409595   F   F   F
  0.4595636259522806  0.3305852126375011  0.3435590874662194   T   T   T
  0.3905180950192175  0.5252419063175111  0.4552418453041511   F   F   F
  0.4529607207855713  0.3246556114771995  0.4229368359105743   T   T   T
  0.5074804872141527  0.4592780196109629  0.3501259710292359   F   F   F
  0.6012877811302459  0.4669891268301640  0.5212355700313438   F   F   F
  0.5384608035519776  0.4312182275275163  0.4821288228790692   F   F   F
  0.4713083414346286  0.4805797151798927  0.5807598339419258   F   F   F
  0.3771163837573610  0.4514853175274567  0.4282230665427278   F   F   F
  0.4059018739390154  0.3822235888080883  0.4561785915149272   F   F   F
  0.5357818896390683  0.5680835373033233  0.4543473312664048   F   F   F
  0.4924712632432886  0.6367287407321953  0.4646113344718685   F   F   F
  0.4677327221812249  0.5829886973614862  0.4038343643763724   F   F   F
  0.5280944416629296  0.5063826634733033  0.5194466411805863   F   F   F
  0.6212454441397384  0.5105019604624417  0.3755946010283822   F   F   F
  0.6054499763524817  0.5821019035045651  0.4188664505762958   F   F   F
  0.4050790883739026  0.5245211222763402  0.5434909784116542   F   F   F
  0.3505699833620423  0.4706463397862515  0.5087033840987319   T   T   T
  0.4336590529402603  0.4575042970109239  0.3023081720861512   T   T   T
  0.5373912174685660  0.4212902495034301  0.5686311895647224   T   T   T
  0.3574321315951846  0.3878777517634534  0.5401435917690792   T   T   T
  0.4625951421883201  0.5516617238622956  0.4875128022361963   F   F   F
  0.6074307813054292  0.3761829921337495  0.5114250320740048   T   T   T
  0.4918255726088354  0.4382029419875991  0.6576361151417007   T   T   T
  0.5872989136228425  0.4674782790735844  0.3064561995308836   T   T   T
  0.4900497958562298  0.4037080615820798  0.4151644571778519   F   F   F
  0.4354462976026237  0.6746967415111630  0.4128157507017856   T   T   T
  0.4683455701311987  0.5365738065474082  0.6601211461255608   T   T   T
  0.5397532608265934  0.5319899791087650  0.3771480104995177   F   F   F
  0.6684363441981953  0.6003895862893162  0.4836009855002052   T   T   T
  0.6656953844418411  0.5195118800408211  0.5507124507979244   T   T   T
  0.3735117707602118  0.3355815425725528  0.3844544721465257   T   T   T
  0.6795473289699937  0.4370917183912435  0.4868608251233124   T   T   T
  0.5382085421171291  0.3189667721622710  0.3901206062017772   T   T   T
  0.3023735140072832  0.5034230061768100  0.4367248663303264   T   T   T
  0.3131601413271950  0.3963627122321611  0.4499221080006090   T   T   T
  0.5123853321921645  0.6250325858131325  0.6169923515985547   T   T   T
  0.4487752467046852  0.3742645066278323  0.5854180396232587   T   T   T
  0.3908605330469005  0.5808675546611479  0.6128921387118275   T   T   T
  0.4061331241276681  0.3067522064456645  0.5021823786189210   T   T   T
  0.4014459911263902  0.3722329359576241  0.2866495629904133   T   T   T
  0.3836617431246361  0.5339118496904058  0.2923112611499717   T   T   T
  0.6924605046739339  0.4599951292878466  0.3872011736806187   T   T   T
  0.3377691340583791  0.5724668705881629  0.5129314613272091   T   T   T
  0.5994682495813572  0.5725373656821043  0.3079183391268379   T   T   T
  0.6125204186548492  0.6139961433655421  0.5758655696428959   T   T   T
  0.4401227187726570  0.6152666960053725  0.3236882369594594   T   T   T
  0.5500836582897018  0.2542955317954958  0.5054167534392150   T   T   T
  0.5197080422679523  0.2818252315432506  0.5727442396079391   T   T   T
  0.5412300587312442  0.2503323870488275  0.5492513900894298   T   T   T
  0.5529300359184359  0.2177187496972283  0.5679594288409386   T   T   T
 
  0.00000000E+00  0.00000000E+00  0.00000000E+00
  0.00000000E+00  0.00000000E+00  0.00000000E+00
  0.00000000E+00  0.00000000E+00  0.00000000E+00
  0.00000000E+00  0.00000000E+00  0.00000000E+00
  0.00000000E+00  0.00000000E+00  0.00000000E+00
  0.00000000E+00  0.00000000E+00  0.00000000E+00
  0.00000000E+00  0.00000000E+00  0.00000000E+00
  0.00000000E+00  0.00000000E+00  0.00000000E+00
  0.00000000E+00  0.00000000E+00  0.00000000E+00
  0.00000000E+00  0.00000000E+00  0.00000000E+00
  0.00000000E+00  0.00000000E+00  0.00000000E+00
  0.00000000E+00  0.00000000E+00  0.00000000E+00
  0.00000000E+00  0.00000000E+00  0.00000000E+00
  0.00000000E+00  0.00000000E+00  0.00000000E+00
  0.00000000E+00  0.00000000E+00  0.00000000E+00
  0.00000000E+00  0.00000000E+00  0.00000000E+00
  0.00000000E+00  0.00000000E+00  0.00000000E+00
  0.00000000E+00  0.00000000E+00  0.00000000E+00
  0.00000000E+00  0.00000000E+00  0.00000000E+00
  0.00000000E+00  0.00000000E+00  0.00000000E+00
  0.00000000E+00  0.00000000E+00  0.00000000E+00
  0.00000000E+00  0.00000000E+00  0.00000000E+00
  0.00000000E+00  0.00000000E+00  0.00000000E+00
  0.00000000E+00  0.00000000E+00  0.00000000E+00
  0.00000000E+00  0.00000000E+00  0.00000000E+00
  0.00000000E+00  0.00000000E+00  0.00000000E+00
  0.00000000E+00  0.00000000E+00  0.00000000E+00
  0.00000000E+00  0.00000000E+00  0.00000000E+00
  0.00000000E+00  0.00000000E+00  0.00000000E+00
  0.00000000E+00  0.00000000E+00  0.00000000E+00
  0.00000000E+00  0.00000000E+00  0.00000000E+00
  0.00000000E+00  0.00000000E+00  0.00000000E+00
  0.00000000E+00  0.00000000E+00  0.00000000E+00
  0.00000000E+00  0.00000000E+00  0.00000000E+00
  0.00000000E+00  0.00000000E+00  0.00000000E+00
  0.00000000E+00  0.00000000E+00  0.00000000E+00
  0.00000000E+00  0.00000000E+00  0.00000000E+00
  0.00000000E+00  0.00000000E+00  0.00000000E+00
  0.00000000E+00  0.00000000E+00  0.00000000E+00
  0.00000000E+00  0.00000000E+00  0.00000000E+00
  0.00000000E+00  0.00000000E+00  0.00000000E+00
  0.00000000E+00  0.00000000E+00  0.00000000E+00
  0.00000000E+00  0.00000000E+00  0.00000000E+00
  0.00000000E+00  0.00000000E+00  0.00000000E+00
  0.00000000E+00  0.00000000E+00  0.00000000E+00
  0.00000000E+00  0.00000000E+00  0.00000000E+00
  0.00000000E+00  0.00000000E+00  0.00000000E+00
  0.00000000E+00  0.00000000E+00  0.00000000E+00
  0.00000000E+00  0.00000000E+00  0.00000000E+00
  0.00000000E+00  0.00000000E+00  0.00000000E+00
  0.00000000E+00  0.00000000E+00  0.00000000E+00
  0.00000000E+00  0.00000000E+00  0.00000000E+00
  0.00000000E+00  0.00000000E+00  0.00000000E+00
  0.00000000E+00  0.00000000E+00  0.00000000E+00
  0.00000000E+00  0.00000000E+00  0.00000000E+00
  0.00000000E+00  0.00000000E+00  0.00000000E+00
  0.00000000E+00  0.00000000E+00  0.00000000E+00
  0.00000000E+00  0.00000000E+00  0.00000000E+00
  0.00000000E+00  0.00000000E+00  0.00000000E+00
  0.00000000E+00  0.00000000E+00  0.00000000E+00
  0.00000000E+00  0.00000000E+00  0.00000000E+00
  0.00000000E+00  0.00000000E+00  0.00000000E+00
  0.00000000E+00  0.00000000E+00  0.00000000E+00
  0.00000000E+00  0.00000000E+00  0.00000000E+00
  0.00000000E+00  0.00000000E+00  0.00000000E+00
  0.00000000E+00  0.00000000E+00  0.00000000E+00
  0.00000000E+00  0.00000000E+00  0.00000000E+00
  0.00000000E+00  0.00000000E+00  0.00000000E+00
  0.00000000E+00  0.00000000E+00  0.00000000E+00
  0.00000000E+00  0.00000000E+00  0.00000000E+00
  0.00000000E+00  0.00000000E+00  0.00000000E+00
  0.00000000E+00  0.00000000E+00  0.00000000E+00
