La Co Ni Sn Bi O  C  H                  
   1.00000000000000     
    29.1044006348000011    0.0000000000000000    0.0000000000000000
     0.4451680315000000   28.3694074727000007    0.0000000000000000
     0.0682082826000000    0.3036559964000000   28.5240018092999996
   La   Co   Ni   Sn   Bi   O    C    H 
    14    13    13    14    14     2     1     1
Selective dynamics
Direct
  0.5922572946711987  0.4206579449363640  0.4076352162332568   T   T   T
  0.6854154922784694  0.5712584480014956  0.3814324518681541   T   T   T
  0.4953658545013747  0.5275341295629216  0.2824022503413020   T   T   T
  0.5623340393462857  0.5213688155414494  0.6022329292346938   T   T   T
  0.5089921438920755  0.3866925345673532  0.3056190189863078   T   T   T
  0.5753872156062397  0.6553925789296861  0.4837665623288034   T   T   T
  0.5073445974218818  0.3387440888816873  0.5004607934334928   T   T   T
  0.5350913525098293  0.6377118841459468  0.3752577066054626   T   T   T
  0.4360870487854500  0.6436539641077778  0.5354170850434611   T   T   T
  0.4373551010143757  0.5015757590148624  0.3842817269995109   F   F   F
  0.4437846394494898  0.4460183835780285  0.5005161578087822   F   F   F
  0.3842419128434849  0.4674383664529392  0.6111624707805611   T   T   T
  0.3445175067860878  0.4440603056986591  0.3467274180231521   T   T   T
  0.3619228846423694  0.5861455706317448  0.3935659283621882   T   T   T
  0.4217425606853311  0.4061295180575186  0.3699802678458894   F   F   F
  0.5011311695957161  0.4887203336762909  0.4395023580252015   F   F   F
  0.4044148221271726  0.6101724300038001  0.4624736492929173   F   F   F
  0.4722931245665194  0.5596737886932672  0.5729988711091565   F   F   F
  0.6552684236953183  0.5165424048424470  0.4543399438695133   F   F   F
  0.5967309916701211  0.5535378348504167  0.5056109707055541   F   F   F
  0.5314074673932367  0.5941153005651714  0.5336729985293047   F   F   F
  0.5796732686089143  0.4997731718447866  0.4507473928409595   F   F   F
  0.4608135650289709  0.3307988562987458  0.3447438824055044   T   T   T
  0.3905180950192175  0.5252419063175111  0.4552418453041511   F   F   F
  0.4540013504880727  0.3243116982272405  0.4240405562180117   T   T   T
  0.5074804872141527  0.4592780196109629  0.3501259710292359   F   F   F
  0.6012877811302459  0.4669891268301640  0.5212355700313438   F   F   F
  0.5384608035519776  0.4312182275275163  0.4821288228790692   F   F   F
  0.4713083414346286  0.4805797151798927  0.5807598339419258   F   F   F
  0.3771163837573610  0.4514853175274567  0.4282230665427278   F   F   F
  0.4059018739390154  0.3822235888080883  0.4561785915149272   F   F   F
  0.5357818896390683  0.5680835373033233  0.4543473312664048   F   F   F
  0.4924712632432886  0.6367287407321953  0.4646113344718685   F   F   F
  0.4677327221812249  0.5829886973614862  0.4038343643763724   F   F   F
  0.5280944416629296  0.5063826634733033  0.5194466411805863   F   F   F
  0.6212454441397384  0.5105019604624417  0.3755946010283822   F   F   F
  0.6054499763524817  0.5821019035045651  0.4188664505762958   F   F   F
  0.4050790883739026  0.5245211222763402  0.5434909784116542   F   F   F
  0.3500882325878408  0.4703133202545802  0.5076568058812851   T   T   T
  0.4339742082286708  0.4570961416892481  0.3019578651148536   T   T   T
  0.5391162410611130  0.4219659154356284  0.5679540061324866   T   T   T
  0.3585091463275809  0.3874770778205984  0.5396169789934471   T   T   T
  0.4625951421883201  0.5516617238622956  0.4875128022361963   F   F   F
  0.6061014038202528  0.3743810951016319  0.5090212270648350   T   T   T
  0.4948105381055971  0.4391003701526478  0.6588258542219212   T   T   T
  0.5872333286449644  0.4676261552779400  0.3063012001038968   T   T   T
  0.4900497958562298  0.4037080615820798  0.4151644571778519   F   F   F
  0.4355525663008412  0.6747634062495328  0.4128467826323913   T   T   T
  0.4672792877278653  0.5373159004755584  0.6594021159566181   T   T   T
  0.5397532608265934  0.5319899791087650  0.3771480104995177   F   F   F
  0.6685285890429659  0.6004095497924905  0.4840217940765059   T   T   T
  0.6657760621736010  0.5190168915341851  0.5506587559265799   T   T   T
  0.3743125953688086  0.3349433277252383  0.3849678189923137   T   T   T
  0.6787121684329062  0.4362133525768789  0.4870550261910915   T   T   T
  0.5393895471938135  0.3185487478701554  0.3927631945028536   T   T   T
  0.3024405052562355  0.5034041584550661  0.4354463550397636   T   T   T
  0.3132198880702874  0.3962328352353114  0.4496114600847357   T   T   T
  0.5121874335033049  0.6251139095515700  0.6169728749075021   T   T   T
  0.4493435021922909  0.3773342265198791  0.5878537038846999   T   T   T
  0.3901056425860537  0.5811669470008722  0.6123630509427546   T   T   T
  0.4043220263220372  0.3054523395100332  0.5009618131308403   T   T   T
  0.4026871266791764  0.3713385708527802  0.2870235798905655   T   T   T
  0.3837502216564769  0.5336885177876594  0.2926016215279529   T   T   T
  0.6927980735338530  0.4602981640860501  0.3878009768684705   T   T   T
  0.3375278030689119  0.5720152500907806  0.5125867307240444   T   T   T
  0.5996474964522297  0.5724958490559432  0.3080564690579771   T   T   T
  0.6124293688206581  0.6139474848480752  0.5759504583012388   T   T   T
  0.4401331217562270  0.6153081529652265  0.3236544929459936   T   T   T
  0.3763956205351578  0.4444013846774025  0.6907282033412584   T   T   T
  0.4424779030245916  0.4237650454473333  0.7288296942129124   T   T   T
  0.3997261937342298  0.4301834728865978  0.7266128248675615   T   T   T
  0.3792191124318461  0.4227976644447619  0.7587852798107536   T   T   T
 
  0.00000000E+00  0.00000000E+00  0.00000000E+00
  0.00000000E+00  0.00000000E+00  0.00000000E+00
  0.00000000E+00  0.00000000E+00  0.00000000E+00
  0.00000000E+00  0.00000000E+00  0.00000000E+00
  0.00000000E+00  0.00000000E+00  0.00000000E+00
  0.00000000E+00  0.00000000E+00  0.00000000E+00
  0.00000000E+00  0.00000000E+00  0.00000000E+00
  0.00000000E+00  0.00000000E+00  0.00000000E+00
  0.00000000E+00  0.00000000E+00  0.00000000E+00
  0.00000000E+00  0.00000000E+00  0.00000000E+00
  0.00000000E+00  0.00000000E+00  0.00000000E+00
  0.00000000E+00  0.00000000E+00  0.00000000E+00
  0.00000000E+00  0.00000000E+00  0.00000000E+00
  0.00000000E+00  0.00000000E+00  0.00000000E+00
  0.00000000E+00  0.00000000E+00  0.00000000E+00
  0.00000000E+00  0.00000000E+00  0.00000000E+00
  0.00000000E+00  0.00000000E+00  0.00000000E+00
  0.00000000E+00  0.00000000E+00  0.00000000E+00
  0.00000000E+00  0.00000000E+00  0.00000000E+00
  0.00000000E+00  0.00000000E+00  0.00000000E+00
  0.00000000E+00  0.00000000E+00  0.00000000E+00
  0.00000000E+00  0.00000000E+00  0.00000000E+00
  0.00000000E+00  0.00000000E+00  0.00000000E+00
  0.00000000E+00  0.00000000E+00  0.00000000E+00
  0.00000000E+00  0.00000000E+00  0.00000000E+00
  0.00000000E+00  0.00000000E+00  0.00000000E+00
  0.00000000E+00  0.00000000E+00  0.00000000E+00
  0.00000000E+00  0.00000000E+00  0.00000000E+00
  0.00000000E+00  0.00000000E+00  0.00000000E+00
  0.00000000E+00  0.00000000E+00  0.00000000E+00
  0.00000000E+00  0.00000000E+00  0.00000000E+00
  0.00000000E+00  0.00000000E+00  0.00000000E+00
  0.00000000E+00  0.00000000E+00  0.00000000E+00
  0.00000000E+00  0.00000000E+00  0.00000000E+00
  0.00000000E+00  0.00000000E+00  0.00000000E+00
  0.00000000E+00  0.00000000E+00  0.00000000E+00
  0.00000000E+00  0.00000000E+00  0.00000000E+00
  0.00000000E+00  0.00000000E+00  0.00000000E+00
  0.00000000E+00  0.00000000E+00  0.00000000E+00
  0.00000000E+00  0.00000000E+00  0.00000000E+00
  0.00000000E+00  0.00000000E+00  0.00000000E+00
  0.00000000E+00  0.00000000E+00  0.00000000E+00
  0.00000000E+00  0.00000000E+00  0.00000000E+00
  0.00000000E+00  0.00000000E+00  0.00000000E+00
  0.00000000E+00  0.00000000E+00  0.00000000E+00
  0.00000000E+00  0.00000000E+00  0.00000000E+00
  0.00000000E+00  0.00000000E+00  0.00000000E+00
  0.00000000E+00  0.00000000E+00  0.00000000E+00
  0.00000000E+00  0.00000000E+00  0.00000000E+00
  0.00000000E+00  0.00000000E+00  0.00000000E+00
  0.00000000E+00  0.00000000E+00  0.00000000E+00
  0.00000000E+00  0.00000000E+00  0.00000000E+00
  0.00000000E+00  0.00000000E+00  0.00000000E+00
  0.00000000E+00  0.00000000E+00  0.00000000E+00
  0.00000000E+00  0.00000000E+00  0.00000000E+00
  0.00000000E+00  0.00000000E+00  0.00000000E+00
  0.00000000E+00  0.00000000E+00  0.00000000E+00
  0.00000000E+00  0.00000000E+00  0.00000000E+00
  0.00000000E+00  0.00000000E+00  0.00000000E+00
  0.00000000E+00  0.00000000E+00  0.00000000E+00
  0.00000000E+00  0.00000000E+00  0.00000000E+00
  0.00000000E+00  0.00000000E+00  0.00000000E+00
  0.00000000E+00  0.00000000E+00  0.00000000E+00
  0.00000000E+00  0.00000000E+00  0.00000000E+00
  0.00000000E+00  0.00000000E+00  0.00000000E+00
  0.00000000E+00  0.00000000E+00  0.00000000E+00
  0.00000000E+00  0.00000000E+00  0.00000000E+00
  0.00000000E+00  0.00000000E+00  0.00000000E+00
  0.00000000E+00  0.00000000E+00  0.00000000E+00
  0.00000000E+00  0.00000000E+00  0.00000000E+00
  0.00000000E+00  0.00000000E+00  0.00000000E+00
  0.00000000E+00  0.00000000E+00  0.00000000E+00
