La Co Ni Sn Bi O  C  H                  
   1.00000000000000     
    29.1044006348000011    0.0000000000000000    0.0000000000000000
     0.4451680315000000   28.3694074727000007    0.0000000000000000
     0.0682082826000000    0.3036559964000000   28.5240018092999996
   La   Co   Ni   Sn   Bi   O    C    H 
    14    13    13    14    14     2     1     1
Selective dynamics
Direct
  0.5921080803665646  0.4205424290303518  0.4075497024357720   T   T   T
  0.6851076750444364  0.5710793038127312  0.3805793668386448   T   T   T
  0.4960313731947740  0.5253293860997952  0.2785125496466458   T   T   T
  0.5625021724630267  0.5212768298660803  0.6020253135628633   T   T   T
  0.5076648814239871  0.3917186100572619  0.3015680542987972   T   T   T
  0.5752555026295569  0.6555103363623719  0.4835271323995106   T   T   T
  0.5101931488877138  0.3374817392800187  0.4979969964217377   T   T   T
  0.5351974319895413  0.6376940479800439  0.3752215106552159   T   T   T
  0.4358378310008428  0.6429719119015923  0.5361055485596680   T   T   T
  0.4373551010143757  0.5015757590148624  0.3842817269995109   F   F   F
  0.4437846394494898  0.4460183835780285  0.5005161578087822   F   F   F
  0.3878352288018456  0.4659488684695666  0.6092746626153250   T   T   T
  0.3437341787883578  0.4447594341697998  0.3470870094753128   T   T   T
  0.3621403839116463  0.5859420505866400  0.3937673990366977   T   T   T
  0.4217425606853311  0.4061295180575186  0.3699802678458894   F   F   F
  0.5011311695957161  0.4887203336762909  0.4395023580252015   F   F   F
  0.4044148221271726  0.6101724300038001  0.4624736492929173   F   F   F
  0.4722931245665194  0.5596737886932672  0.5729988711091565   F   F   F
  0.6552684236953183  0.5165424048424470  0.4543399438695133   F   F   F
  0.5967309916701211  0.5535378348504167  0.5056109707055541   F   F   F
  0.5314074673932367  0.5941153005651714  0.5336729985293047   F   F   F
  0.5796732686089143  0.4997731718447866  0.4507473928409595   F   F   F
  0.4586479383296082  0.3293997010087107  0.3448126444787185   T   T   T
  0.3905180950192175  0.5252419063175111  0.4552418453041511   F   F   F
  0.4544827184685951  0.3247085737394039  0.4237893095244107   T   T   T
  0.5074804872141527  0.4592780196109629  0.3501259710292359   F   F   F
  0.6012877811302459  0.4669891268301640  0.5212355700313438   F   F   F
  0.5384608035519776  0.4312182275275163  0.4821288228790692   F   F   F
  0.4713083414346286  0.4805797151798927  0.5807598339419258   F   F   F
  0.3771163837573610  0.4514853175274567  0.4282230665427278   F   F   F
  0.4059018739390154  0.3822235888080883  0.4561785915149272   F   F   F
  0.5357818896390683  0.5680835373033233  0.4543473312664048   F   F   F
  0.4924712632432886  0.6367287407321953  0.4646113344718685   F   F   F
  0.4677327221812249  0.5829886973614862  0.4038343643763724   F   F   F
  0.5280944416629296  0.5063826634733033  0.5194466411805863   F   F   F
  0.6212454441397384  0.5105019604624417  0.3755946010283822   F   F   F
  0.6054499763524817  0.5821019035045651  0.4188664505762958   F   F   F
  0.4050790883739026  0.5245211222763402  0.5434909784116542   F   F   F
  0.3510621356796070  0.4699613261384947  0.5088833038834708   T   T   T
  0.4312373636908665  0.4576475336316213  0.3033666533409903   T   T   T
  0.5379630825416805  0.4214071847425312  0.5685486993687683   T   T   T
  0.3577344108267778  0.3863866415854099  0.5391630647744257   T   T   T
  0.4625951421883201  0.5516617238622956  0.4875128022361963   F   F   F
  0.6072625220166689  0.3757391919237381  0.5100915749990890   T   T   T
  0.4918785817238491  0.4378026092784399  0.6574043823432092   T   T   T
  0.5889145029734004  0.4680792226633855  0.3068959862814593   T   T   T
  0.4900497958562298  0.4037080615820798  0.4151644571778519   F   F   F
  0.4355196982233325  0.6744933807262585  0.4125195914860295   T   T   T
  0.4686310011519958  0.5362551894716484  0.6602286608179523   T   T   T
  0.5397532608265934  0.5319899791087650  0.3771480104995177   F   F   F
  0.6685067605666081  0.6003068359727707  0.4834852784078627   T   T   T
  0.6658167883910292  0.5191766134453781  0.5506846969840082   T   T   T
  0.3739432770112274  0.3348523365129235  0.3854892097333955   T   T   T
  0.6793291197258691  0.4368426246904954  0.4865542516189916   T   T   T
  0.5390236675949421  0.3198329585850440  0.3885004824557163   T   T   T
  0.3025830778946869  0.5033961493593155  0.4370929898806546   T   T   T
  0.3132791081975858  0.3956064122925647  0.4490487733102113   T   T   T
  0.5126577501832810  0.6247517392993824  0.6171551474399659   T   T   T
  0.4494971213443612  0.3732111796801356  0.5843588254426936   T   T   T
  0.3905713681914939  0.5795610926304032  0.6136204292962240   T   T   T
  0.4063539007948743  0.3051395838239136  0.5006689478269730   T   T   T
  0.4008504315294344  0.3710503496109016  0.2879514224046903   T   T   T
  0.3834214919098394  0.5344137015038324  0.2923269602305425   T   T   T
  0.6923963330837772  0.4601731090360293  0.3868506686132757   T   T   T
  0.3378651602822995  0.5726086732206093  0.5128167422243187   T   T   T
  0.5990249949836048  0.5724836991102731  0.3076609545699193   T   T   T
  0.6126921806157830  0.6140406929778166  0.5755523552396441   T   T   T
  0.4411816031864012  0.6139524489517399  0.3233851209826847   T   T   T
  0.5010056230197063  0.4439805999022975  0.2291353603447016   T   T   T
  0.5143607595074443  0.5134327475028948  0.1933085549171768   T   T   T
  0.5102235900723969  0.4690403889013359  0.1925393398052995   T   T   T
  0.5147842452708463  0.4504753840505039  0.1588032443809224   T   T   T
 
  0.00000000E+00  0.00000000E+00  0.00000000E+00
  0.00000000E+00  0.00000000E+00  0.00000000E+00
  0.00000000E+00  0.00000000E+00  0.00000000E+00
  0.00000000E+00  0.00000000E+00  0.00000000E+00
  0.00000000E+00  0.00000000E+00  0.00000000E+00
  0.00000000E+00  0.00000000E+00  0.00000000E+00
  0.00000000E+00  0.00000000E+00  0.00000000E+00
  0.00000000E+00  0.00000000E+00  0.00000000E+00
  0.00000000E+00  0.00000000E+00  0.00000000E+00
  0.00000000E+00  0.00000000E+00  0.00000000E+00
  0.00000000E+00  0.00000000E+00  0.00000000E+00
  0.00000000E+00  0.00000000E+00  0.00000000E+00
  0.00000000E+00  0.00000000E+00  0.00000000E+00
  0.00000000E+00  0.00000000E+00  0.00000000E+00
  0.00000000E+00  0.00000000E+00  0.00000000E+00
  0.00000000E+00  0.00000000E+00  0.00000000E+00
  0.00000000E+00  0.00000000E+00  0.00000000E+00
  0.00000000E+00  0.00000000E+00  0.00000000E+00
  0.00000000E+00  0.00000000E+00  0.00000000E+00
  0.00000000E+00  0.00000000E+00  0.00000000E+00
  0.00000000E+00  0.00000000E+00  0.00000000E+00
  0.00000000E+00  0.00000000E+00  0.00000000E+00
  0.00000000E+00  0.00000000E+00  0.00000000E+00
  0.00000000E+00  0.00000000E+00  0.00000000E+00
  0.00000000E+00  0.00000000E+00  0.00000000E+00
  0.00000000E+00  0.00000000E+00  0.00000000E+00
  0.00000000E+00  0.00000000E+00  0.00000000E+00
  0.00000000E+00  0.00000000E+00  0.00000000E+00
  0.00000000E+00  0.00000000E+00  0.00000000E+00
  0.00000000E+00  0.00000000E+00  0.00000000E+00
  0.00000000E+00  0.00000000E+00  0.00000000E+00
  0.00000000E+00  0.00000000E+00  0.00000000E+00
  0.00000000E+00  0.00000000E+00  0.00000000E+00
  0.00000000E+00  0.00000000E+00  0.00000000E+00
  0.00000000E+00  0.00000000E+00  0.00000000E+00
  0.00000000E+00  0.00000000E+00  0.00000000E+00
  0.00000000E+00  0.00000000E+00  0.00000000E+00
  0.00000000E+00  0.00000000E+00  0.00000000E+00
  0.00000000E+00  0.00000000E+00  0.00000000E+00
  0.00000000E+00  0.00000000E+00  0.00000000E+00
  0.00000000E+00  0.00000000E+00  0.00000000E+00
  0.00000000E+00  0.00000000E+00  0.00000000E+00
  0.00000000E+00  0.00000000E+00  0.00000000E+00
  0.00000000E+00  0.00000000E+00  0.00000000E+00
  0.00000000E+00  0.00000000E+00  0.00000000E+00
  0.00000000E+00  0.00000000E+00  0.00000000E+00
  0.00000000E+00  0.00000000E+00  0.00000000E+00
  0.00000000E+00  0.00000000E+00  0.00000000E+00
  0.00000000E+00  0.00000000E+00  0.00000000E+00
  0.00000000E+00  0.00000000E+00  0.00000000E+00
  0.00000000E+00  0.00000000E+00  0.00000000E+00
  0.00000000E+00  0.00000000E+00  0.00000000E+00
  0.00000000E+00  0.00000000E+00  0.00000000E+00
  0.00000000E+00  0.00000000E+00  0.00000000E+00
  0.00000000E+00  0.00000000E+00  0.00000000E+00
  0.00000000E+00  0.00000000E+00  0.00000000E+00
  0.00000000E+00  0.00000000E+00  0.00000000E+00
  0.00000000E+00  0.00000000E+00  0.00000000E+00
  0.00000000E+00  0.00000000E+00  0.00000000E+00
  0.00000000E+00  0.00000000E+00  0.00000000E+00
  0.00000000E+00  0.00000000E+00  0.00000000E+00
  0.00000000E+00  0.00000000E+00  0.00000000E+00
  0.00000000E+00  0.00000000E+00  0.00000000E+00
  0.00000000E+00  0.00000000E+00  0.00000000E+00
  0.00000000E+00  0.00000000E+00  0.00000000E+00
  0.00000000E+00  0.00000000E+00  0.00000000E+00
  0.00000000E+00  0.00000000E+00  0.00000000E+00
  0.00000000E+00  0.00000000E+00  0.00000000E+00
  0.00000000E+00  0.00000000E+00  0.00000000E+00
  0.00000000E+00  0.00000000E+00  0.00000000E+00
  0.00000000E+00  0.00000000E+00  0.00000000E+00
  0.00000000E+00  0.00000000E+00  0.00000000E+00
