La Co Ni Sn Bi O  C  H                  
   1.00000000000000     
    29.1044006348000011    0.0000000000000000    0.0000000000000000
     0.4451680315000000   28.3694074727000007    0.0000000000000000
     0.0682082826000000    0.3036559964000000   28.5240018092999996
   La   Co   Ni   Sn   Bi   O    C    H 
    14    13    13    14    14     2     1     1
Selective dynamics
Direct
  0.5920271731795091  0.4204647632620599  0.4070395404712261   T   T   T
  0.6846446479626556  0.5726443534340829  0.3811623070113164   T   T   T
  0.4948660733537124  0.5274920861613928  0.2826104225566688   T   T   T
  0.5624983396133415  0.5217480500297461  0.6019579272228426   T   T   T
  0.5083593463531555  0.3867653361740248  0.3054200945385460   T   T   T
  0.5751833893571449  0.6555421662459819  0.4840710636847375   T   T   T
  0.5079968134491913  0.3383358263556827  0.4997697953904672   T   T   T
  0.5352337812451531  0.6375597322608704  0.3753969986247747   T   T   T
  0.4360249817658256  0.6434985554161436  0.5356646412304945   T   T   T
  0.4373551010143757  0.5015757590148624  0.3842817269995109   F   F   F
  0.4437846394494898  0.4460183835780285  0.5005161578087822   F   F   F
  0.3874570636580281  0.4672520114324298  0.6096428430668179   T   T   T
  0.3443458448099924  0.4442281863457729  0.3469682143895617   T   T   T
  0.3617035268079294  0.5854353954455692  0.3940277369767494   T   T   T
  0.4217425606853311  0.4061295180575186  0.3699802678458894   F   F   F
  0.5011311695957161  0.4887203336762909  0.4395023580252015   F   F   F
  0.4044148221271726  0.6101724300038001  0.4624736492929173   F   F   F
  0.4722931245665194  0.5596737886932672  0.5729988711091565   F   F   F
  0.6552684236953183  0.5165424048424470  0.4543399438695133   F   F   F
  0.5967309916701211  0.5535378348504167  0.5056109707055541   F   F   F
  0.5314074673932367  0.5941153005651714  0.5336729985293047   F   F   F
  0.5796732686089143  0.4997731718447866  0.4507473928409595   F   F   F
  0.4608668576420717  0.3311034460127362  0.3441247689754559   T   T   T
  0.3905180950192175  0.5252419063175111  0.4552418453041511   F   F   F
  0.4539307603609890  0.3245120036211775  0.4237653437994654   T   T   T
  0.5074804872141527  0.4592780196109629  0.3501259710292359   F   F   F
  0.6012877811302459  0.4669891268301640  0.5212355700313438   F   F   F
  0.5384608035519776  0.4312182275275163  0.4821288228790692   F   F   F
  0.4713083414346286  0.4805797151798927  0.5807598339419258   F   F   F
  0.3771163837573610  0.4514853175274567  0.4282230665427278   F   F   F
  0.4059018739390154  0.3822235888080883  0.4561785915149272   F   F   F
  0.5357818896390683  0.5680835373033233  0.4543473312664048   F   F   F
  0.4924712632432886  0.6367287407321953  0.4646113344718685   F   F   F
  0.4677327221812249  0.5829886973614862  0.4038343643763724   F   F   F
  0.5280944416629296  0.5063826634733033  0.5194466411805863   F   F   F
  0.6212454441397384  0.5105019604624417  0.3755946010283822   F   F   F
  0.6054499763524817  0.5821019035045651  0.4188664505762958   F   F   F
  0.4050790883739026  0.5245211222763402  0.5434909784116542   F   F   F
  0.3507774897386129  0.4702440060178346  0.5088624336081431   T   T   T
  0.4335218000944323  0.4572856645345829  0.3020031317322978   T   T   T
  0.5387278174112198  0.4217744975909120  0.5685978585220555   T   T   T
  0.3579301278668687  0.3872053773180836  0.5400517826370952   T   T   T
  0.4625951421883201  0.5516617238622956  0.4875128022361963   F   F   F
  0.6062625464616820  0.3725433425869933  0.5098889974382418   T   T   T
  0.4921738078739243  0.4391287625166071  0.6579355251825113   T   T   T
  0.5868973782621802  0.4674735362346689  0.3061519747670434   T   T   T
  0.4900497958562298  0.4037080615820798  0.4151644571778519   F   F   F
  0.4354689506800812  0.6747271610822366  0.4128972646177203   T   T   T
  0.4682048175247606  0.5370726470056559  0.6602083806324058   T   T   T
  0.5397532608265934  0.5319899791087650  0.3771480104995177   F   F   F
  0.6683666122404793  0.6002263662738838  0.4841224300131409   T   T   T
  0.6658888919252620  0.5181947194085980  0.5496174759490623   T   T   T
  0.3746086520275749  0.3348526458410601  0.3847699422166342   T   T   T
  0.6722101825414389  0.4357640178471522  0.4805322493482082   T   T   T
  0.5393470656624429  0.3186531976829802  0.3920886811016686   T   T   T
  0.3023050286936760  0.5027966721247733  0.4367894106789579   T   T   T
  0.3134805327441137  0.3956623138460557  0.4498404680623125   T   T   T
  0.5123343909056087  0.6251611667251286  0.6169720026333185   T   T   T
  0.4490002925103347  0.3748848532933704  0.5857616392149141   T   T   T
  0.3906057572723719  0.5806467196948347  0.6130743198204619   T   T   T
  0.4043609109096572  0.3054368960917842  0.5008473449811902   T   T   T
  0.4020525686449054  0.3718648243466181  0.2868785813174115   T   T   T
  0.3834935707128892  0.5338549405147989  0.2926037260052967   T   T   T
  0.6935929209874587  0.4618736230358951  0.3845624038612614   T   T   T
  0.3377058591689799  0.5721659192684577  0.5128278520139007   T   T   T
  0.5992214332535116  0.5721710153413077  0.3075193191213172   T   T   T
  0.6131155539709371  0.6138847038979705  0.5756899110865714   T   T   T
  0.4398435285056200  0.6154090449362735  0.3239267398495831   T   T   T
  0.6922147129662033  0.3555248463608486  0.5499182633350194   T   T   T
  0.7355964263990713  0.4122493539616974  0.5140707266040953   T   T   T
  0.7291786028011257  0.3755726295601271  0.5412768569071263   T   T   T
  0.7615660077657643  0.3620899805877001  0.5576620034444307   T   T   T
 
  0.00000000E+00  0.00000000E+00  0.00000000E+00
  0.00000000E+00  0.00000000E+00  0.00000000E+00
  0.00000000E+00  0.00000000E+00  0.00000000E+00
  0.00000000E+00  0.00000000E+00  0.00000000E+00
  0.00000000E+00  0.00000000E+00  0.00000000E+00
  0.00000000E+00  0.00000000E+00  0.00000000E+00
  0.00000000E+00  0.00000000E+00  0.00000000E+00
  0.00000000E+00  0.00000000E+00  0.00000000E+00
  0.00000000E+00  0.00000000E+00  0.00000000E+00
  0.00000000E+00  0.00000000E+00  0.00000000E+00
  0.00000000E+00  0.00000000E+00  0.00000000E+00
  0.00000000E+00  0.00000000E+00  0.00000000E+00
  0.00000000E+00  0.00000000E+00  0.00000000E+00
  0.00000000E+00  0.00000000E+00  0.00000000E+00
  0.00000000E+00  0.00000000E+00  0.00000000E+00
  0.00000000E+00  0.00000000E+00  0.00000000E+00
  0.00000000E+00  0.00000000E+00  0.00000000E+00
  0.00000000E+00  0.00000000E+00  0.00000000E+00
  0.00000000E+00  0.00000000E+00  0.00000000E+00
  0.00000000E+00  0.00000000E+00  0.00000000E+00
  0.00000000E+00  0.00000000E+00  0.00000000E+00
  0.00000000E+00  0.00000000E+00  0.00000000E+00
  0.00000000E+00  0.00000000E+00  0.00000000E+00
  0.00000000E+00  0.00000000E+00  0.00000000E+00
  0.00000000E+00  0.00000000E+00  0.00000000E+00
  0.00000000E+00  0.00000000E+00  0.00000000E+00
  0.00000000E+00  0.00000000E+00  0.00000000E+00
  0.00000000E+00  0.00000000E+00  0.00000000E+00
  0.00000000E+00  0.00000000E+00  0.00000000E+00
  0.00000000E+00  0.00000000E+00  0.00000000E+00
  0.00000000E+00  0.00000000E+00  0.00000000E+00
  0.00000000E+00  0.00000000E+00  0.00000000E+00
  0.00000000E+00  0.00000000E+00  0.00000000E+00
  0.00000000E+00  0.00000000E+00  0.00000000E+00
  0.00000000E+00  0.00000000E+00  0.00000000E+00
  0.00000000E+00  0.00000000E+00  0.00000000E+00
  0.00000000E+00  0.00000000E+00  0.00000000E+00
  0.00000000E+00  0.00000000E+00  0.00000000E+00
  0.00000000E+00  0.00000000E+00  0.00000000E+00
  0.00000000E+00  0.00000000E+00  0.00000000E+00
  0.00000000E+00  0.00000000E+00  0.00000000E+00
  0.00000000E+00  0.00000000E+00  0.00000000E+00
  0.00000000E+00  0.00000000E+00  0.00000000E+00
  0.00000000E+00  0.00000000E+00  0.00000000E+00
  0.00000000E+00  0.00000000E+00  0.00000000E+00
  0.00000000E+00  0.00000000E+00  0.00000000E+00
  0.00000000E+00  0.00000000E+00  0.00000000E+00
  0.00000000E+00  0.00000000E+00  0.00000000E+00
  0.00000000E+00  0.00000000E+00  0.00000000E+00
  0.00000000E+00  0.00000000E+00  0.00000000E+00
  0.00000000E+00  0.00000000E+00  0.00000000E+00
  0.00000000E+00  0.00000000E+00  0.00000000E+00
  0.00000000E+00  0.00000000E+00  0.00000000E+00
  0.00000000E+00  0.00000000E+00  0.00000000E+00
  0.00000000E+00  0.00000000E+00  0.00000000E+00
  0.00000000E+00  0.00000000E+00  0.00000000E+00
  0.00000000E+00  0.00000000E+00  0.00000000E+00
  0.00000000E+00  0.00000000E+00  0.00000000E+00
  0.00000000E+00  0.00000000E+00  0.00000000E+00
  0.00000000E+00  0.00000000E+00  0.00000000E+00
  0.00000000E+00  0.00000000E+00  0.00000000E+00
  0.00000000E+00  0.00000000E+00  0.00000000E+00
  0.00000000E+00  0.00000000E+00  0.00000000E+00
  0.00000000E+00  0.00000000E+00  0.00000000E+00
  0.00000000E+00  0.00000000E+00  0.00000000E+00
  0.00000000E+00  0.00000000E+00  0.00000000E+00
  0.00000000E+00  0.00000000E+00  0.00000000E+00
  0.00000000E+00  0.00000000E+00  0.00000000E+00
  0.00000000E+00  0.00000000E+00  0.00000000E+00
  0.00000000E+00  0.00000000E+00  0.00000000E+00
  0.00000000E+00  0.00000000E+00  0.00000000E+00
  0.00000000E+00  0.00000000E+00  0.00000000E+00
