La Co Ni Sn Bi O  C  H                  
   1.00000000000000     
    29.1044006348000011    0.0000000000000000    0.0000000000000000
     0.4451680315000000   28.3694074727000007    0.0000000000000000
     0.0682082826000000    0.3036559964000000   28.5240018092999996
   La   Co   Ni   Sn   Bi   O    C    H 
    14    13    13    14    14     2     1     1
Selective dynamics
Direct
  0.5922283999331880  0.4208761092767014  0.4063791344856351   T   T   T
  0.6847026758430333  0.5718063695448556  0.3807764767116714   T   T   T
  0.4951123706161257  0.5278020050871484  0.2823198155092289   T   T   T
  0.5620068489768654  0.5221644119448754  0.6026047708388862   T   T   T
  0.5085471708321787  0.3873156779253886  0.3052823463130453   T   T   T
  0.5754245681057738  0.6551020482693221  0.4833890701002272   T   T   T
  0.5103702471924244  0.3371008714715280  0.5006415270305626   T   T   T
  0.5351656594800240  0.6378345422360300  0.3749882182113993   T   T   T
  0.4362186485786046  0.6434134973086897  0.5356311601804610   T   T   T
  0.4373551010143757  0.5015757590148624  0.3842817269995109   F   F   F
  0.4437846394494898  0.4460183835780285  0.5005161578087822   F   F   F
  0.3870607022373954  0.4673286840733077  0.6095230622532688   T   T   T
  0.3444740280963973  0.4442232528805651  0.3470127324024871   T   T   T
  0.3620669456938383  0.5855782094490973  0.3937665269355841   T   T   T
  0.4217425606853311  0.4061295180575186  0.3699802678458894   F   F   F
  0.5011311695957161  0.4887203336762909  0.4395023580252015   F   F   F
  0.4044148221271726  0.6101724300038001  0.4624736492929173   F   F   F
  0.4722931245665194  0.5596737886932672  0.5729988711091565   F   F   F
  0.6552684236953183  0.5165424048424470  0.4543399438695133   F   F   F
  0.5967309916701211  0.5535378348504167  0.5056109707055541   F   F   F
  0.5314074673932367  0.5941153005651714  0.5336729985293047   F   F   F
  0.5796732686089143  0.4997731718447866  0.4507473928409595   F   F   F
  0.4602287655275009  0.3304226110857504  0.3442221672439114   T   T   T
  0.3905180950192175  0.5252419063175111  0.4552418453041511   F   F   F
  0.4540306370928359  0.3242029053549134  0.4238519670951016   T   T   T
  0.5074804872141527  0.4592780196109629  0.3501259710292359   F   F   F
  0.6012877811302459  0.4669891268301640  0.5212355700313438   F   F   F
  0.5384608035519776  0.4312182275275163  0.4821288228790692   F   F   F
  0.4713083414346286  0.4805797151798927  0.5807598339419258   F   F   F
  0.3771163837573610  0.4514853175274567  0.4282230665427278   F   F   F
  0.4059018739390154  0.3822235888080883  0.4561785915149272   F   F   F
  0.5357818896390683  0.5680835373033233  0.4543473312664048   F   F   F
  0.4924712632432886  0.6367287407321953  0.4646113344718685   F   F   F
  0.4677327221812249  0.5829886973614862  0.4038343643763724   F   F   F
  0.5280944416629296  0.5063826634733033  0.5194466411805863   F   F   F
  0.6212454441397384  0.5105019604624417  0.3755946010283822   F   F   F
  0.6054499763524817  0.5821019035045651  0.4188664505762958   F   F   F
  0.4050790883739026  0.5245211222763402  0.5434909784116542   F   F   F
  0.3505981870962961  0.4701588712482818  0.5088369550972425   T   T   T
  0.4338835872602303  0.4573165673990311  0.3021345989250741   T   T   T
  0.5384709477100499  0.4230222971607332  0.5687245664328111   T   T   T
  0.3579457996037680  0.3871434667424032  0.5400194684837826   T   T   T
  0.4625951421883201  0.5516617238622956  0.4875128022361963   F   F   F
  0.6092053256127177  0.3774874571999211  0.5041709765115592   T   T   T
  0.4918040995832177  0.4391339913004841  0.6578655664134596   T   T   T
  0.5870567317820550  0.4681241101435880  0.3056504219190586   T   T   T
  0.4900497958562298  0.4037080615820798  0.4151644571778519   F   F   F
  0.4355812090230926  0.6746960415609330  0.4128486714836778   T   T   T
  0.4680249775885236  0.5372564151960543  0.6600232904512155   T   T   T
  0.5397532608265934  0.5319899791087650  0.3771480104995177   F   F   F
  0.6691325693442169  0.5995337184848160  0.4841956847697280   T   T   T
  0.6648832475844423  0.5194322425882721  0.5521280775887295   T   T   T
  0.3746017161510496  0.3348452010869832  0.3847356621691166   T   T   T
  0.6826805920976997  0.4389839494573843  0.4891109255655710   T   T   T
  0.5389024639997450  0.3184663789446736  0.3913682261209434   T   T   T
  0.3024394305020597  0.5032016463696886  0.4366988698208012   T   T   T
  0.3135046737748432  0.3958338207975817  0.4497513818854520   T   T   T
  0.5121724971851070  0.6257732592867240  0.6168081542477376   T   T   T
  0.4494738326153322  0.3752078898865864  0.5856887226517902   T   T   T
  0.3903760016909064  0.5807157754360142  0.6128896541893201   T   T   T
  0.4062645544814706  0.3059947797294468  0.5015888618356680   T   T   T
  0.4021763236865843  0.3719513309149777  0.2867746093409230   T   T   T
  0.3836891023699343  0.5335493021226128  0.2924315056649034   T   T   T
  0.6930976233857733  0.4608784884917440  0.3884516506828399   T   T   T
  0.3376278268850865  0.5722296692981532  0.5127416172939027   T   T   T
  0.5989322374720348  0.5726631584717722  0.3075492549803089   T   T   T
  0.6127553127767849  0.6143411602352145  0.5757093914601474   T   T   T
  0.4400465457165867  0.6154630805187293  0.3236860519385023   T   T   T
  0.5623672326352467  0.2970759885000983  0.5571987726643154   T   T   T
  0.6255625007993428  0.3399674527327735  0.5734661656584095   T   T   T
  0.5964814912431753  0.3078143613972381  0.5824040481701153   T   T   T
  0.6019693722902879  0.2878916222389556  0.6156856417597738   T   T   T
 
  0.00000000E+00  0.00000000E+00  0.00000000E+00
  0.00000000E+00  0.00000000E+00  0.00000000E+00
  0.00000000E+00  0.00000000E+00  0.00000000E+00
  0.00000000E+00  0.00000000E+00  0.00000000E+00
  0.00000000E+00  0.00000000E+00  0.00000000E+00
  0.00000000E+00  0.00000000E+00  0.00000000E+00
  0.00000000E+00  0.00000000E+00  0.00000000E+00
  0.00000000E+00  0.00000000E+00  0.00000000E+00
  0.00000000E+00  0.00000000E+00  0.00000000E+00
  0.00000000E+00  0.00000000E+00  0.00000000E+00
  0.00000000E+00  0.00000000E+00  0.00000000E+00
  0.00000000E+00  0.00000000E+00  0.00000000E+00
  0.00000000E+00  0.00000000E+00  0.00000000E+00
  0.00000000E+00  0.00000000E+00  0.00000000E+00
  0.00000000E+00  0.00000000E+00  0.00000000E+00
  0.00000000E+00  0.00000000E+00  0.00000000E+00
  0.00000000E+00  0.00000000E+00  0.00000000E+00
  0.00000000E+00  0.00000000E+00  0.00000000E+00
  0.00000000E+00  0.00000000E+00  0.00000000E+00
  0.00000000E+00  0.00000000E+00  0.00000000E+00
  0.00000000E+00  0.00000000E+00  0.00000000E+00
  0.00000000E+00  0.00000000E+00  0.00000000E+00
  0.00000000E+00  0.00000000E+00  0.00000000E+00
  0.00000000E+00  0.00000000E+00  0.00000000E+00
  0.00000000E+00  0.00000000E+00  0.00000000E+00
  0.00000000E+00  0.00000000E+00  0.00000000E+00
  0.00000000E+00  0.00000000E+00  0.00000000E+00
  0.00000000E+00  0.00000000E+00  0.00000000E+00
  0.00000000E+00  0.00000000E+00  0.00000000E+00
  0.00000000E+00  0.00000000E+00  0.00000000E+00
  0.00000000E+00  0.00000000E+00  0.00000000E+00
  0.00000000E+00  0.00000000E+00  0.00000000E+00
  0.00000000E+00  0.00000000E+00  0.00000000E+00
  0.00000000E+00  0.00000000E+00  0.00000000E+00
  0.00000000E+00  0.00000000E+00  0.00000000E+00
  0.00000000E+00  0.00000000E+00  0.00000000E+00
  0.00000000E+00  0.00000000E+00  0.00000000E+00
  0.00000000E+00  0.00000000E+00  0.00000000E+00
  0.00000000E+00  0.00000000E+00  0.00000000E+00
  0.00000000E+00  0.00000000E+00  0.00000000E+00
  0.00000000E+00  0.00000000E+00  0.00000000E+00
  0.00000000E+00  0.00000000E+00  0.00000000E+00
  0.00000000E+00  0.00000000E+00  0.00000000E+00
  0.00000000E+00  0.00000000E+00  0.00000000E+00
  0.00000000E+00  0.00000000E+00  0.00000000E+00
  0.00000000E+00  0.00000000E+00  0.00000000E+00
  0.00000000E+00  0.00000000E+00  0.00000000E+00
  0.00000000E+00  0.00000000E+00  0.00000000E+00
  0.00000000E+00  0.00000000E+00  0.00000000E+00
  0.00000000E+00  0.00000000E+00  0.00000000E+00
  0.00000000E+00  0.00000000E+00  0.00000000E+00
  0.00000000E+00  0.00000000E+00  0.00000000E+00
  0.00000000E+00  0.00000000E+00  0.00000000E+00
  0.00000000E+00  0.00000000E+00  0.00000000E+00
  0.00000000E+00  0.00000000E+00  0.00000000E+00
  0.00000000E+00  0.00000000E+00  0.00000000E+00
  0.00000000E+00  0.00000000E+00  0.00000000E+00
  0.00000000E+00  0.00000000E+00  0.00000000E+00
  0.00000000E+00  0.00000000E+00  0.00000000E+00
  0.00000000E+00  0.00000000E+00  0.00000000E+00
  0.00000000E+00  0.00000000E+00  0.00000000E+00
  0.00000000E+00  0.00000000E+00  0.00000000E+00
  0.00000000E+00  0.00000000E+00  0.00000000E+00
  0.00000000E+00  0.00000000E+00  0.00000000E+00
  0.00000000E+00  0.00000000E+00  0.00000000E+00
  0.00000000E+00  0.00000000E+00  0.00000000E+00
  0.00000000E+00  0.00000000E+00  0.00000000E+00
  0.00000000E+00  0.00000000E+00  0.00000000E+00
  0.00000000E+00  0.00000000E+00  0.00000000E+00
  0.00000000E+00  0.00000000E+00  0.00000000E+00
  0.00000000E+00  0.00000000E+00  0.00000000E+00
  0.00000000E+00  0.00000000E+00  0.00000000E+00
