La Co Ni Sn Bi O  C  H                  
   1.00000000000000     
    29.1044006348000011    0.0000000000000000    0.0000000000000000
     0.4451680315000000   28.3694074727000007    0.0000000000000000
     0.0682082826000000    0.3036559964000000   28.5240018092999996
   La   Co   Ni   Sn   Bi   O    C    H 
    14    13    13    14    14     2     1     1
Selective dynamics
Direct
  0.5923709292125882  0.4204431483575590  0.4077987607354291   T   T   T
  0.6852425103069875  0.5711350339632367  0.3809001876760705   T   T   T
  0.4958659288866868  0.5271831667749014  0.2819822008554473   T   T   T
  0.5623467792683235  0.5218798042506618  0.6021317431981513   T   T   T
  0.5088266448088286  0.3872056267345980  0.3052860421034214   T   T   T
  0.5749646936314685  0.6556111445833963  0.4834824408558159   T   T   T
  0.5089620132570145  0.3379744820102951  0.4994133379328032   T   T   T
  0.5351937865734618  0.6375125758699961  0.3750049626535418   T   T   T
  0.4338110073228174  0.6430142290365012  0.5346683528721751   T   T   T
  0.4373551010143757  0.5015757590148624  0.3842817269995109   F   F   F
  0.4437846394494898  0.4460183835780285  0.5005161578087822   F   F   F
  0.3874747915112360  0.4663379941647178  0.6094192818773675   T   T   T
  0.3445312245003801  0.4446579684393944  0.3466875348580387   T   T   T
  0.3586343171337834  0.5873647994699605  0.3909668169844381   T   T   T
  0.4217425606853311  0.4061295180575186  0.3699802678458894   F   F   F
  0.5011311695957161  0.4887203336762909  0.4395023580252015   F   F   F
  0.4044148221271726  0.6101724300038001  0.4624736492929173   F   F   F
  0.4722931245665194  0.5596737886932672  0.5729988711091565   F   F   F
  0.6552684236953183  0.5165424048424470  0.4543399438695133   F   F   F
  0.5967309916701211  0.5535378348504167  0.5056109707055541   F   F   F
  0.5314074673932367  0.5941153005651714  0.5336729985293047   F   F   F
  0.5796732686089143  0.4997731718447866  0.4507473928409595   F   F   F
  0.4607652150721493  0.3308700275180113  0.3444548452131644   T   T   T
  0.3905180950192175  0.5252419063175111  0.4552418453041511   F   F   F
  0.4543855559816471  0.3244805225712948  0.4238015717455936   T   T   T
  0.5074804872141527  0.4592780196109629  0.3501259710292359   F   F   F
  0.6012877811302459  0.4669891268301640  0.5212355700313438   F   F   F
  0.5384608035519776  0.4312182275275163  0.4821288228790692   F   F   F
  0.4713083414346286  0.4805797151798927  0.5807598339419258   F   F   F
  0.3771163837573610  0.4514853175274567  0.4282230665427278   F   F   F
  0.4059018739390154  0.3822235888080883  0.4561785915149272   F   F   F
  0.5357818896390683  0.5680835373033233  0.4543473312664048   F   F   F
  0.4924712632432886  0.6367287407321953  0.4646113344718685   F   F   F
  0.4677327221812249  0.5829886973614862  0.4038343643763724   F   F   F
  0.5280944416629296  0.5063826634733033  0.5194466411805863   F   F   F
  0.6212454441397384  0.5105019604624417  0.3755946010283822   F   F   F
  0.6054499763524817  0.5821019035045651  0.4188664505762958   F   F   F
  0.4050790883739026  0.5245211222763402  0.5434909784116542   F   F   F
  0.3511075651764851  0.4698584725753018  0.5088153853462188   T   T   T
  0.4342378005912897  0.4569386415561310  0.3021637451819491   T   T   T
  0.5381903851863514  0.4218534327804336  0.5689625057926276   T   T   T
  0.3578350062080480  0.3865411429647373  0.5392619579914385   T   T   T
  0.4625951421883201  0.5516617238622956  0.4875128022361963   F   F   F
  0.6066141071771660  0.3752104402376243  0.5102358715424520   T   T   T
  0.4918481304871151  0.4388608574065723  0.6581025444198790   T   T   T
  0.5876640798193153  0.4674060414770091  0.3063880648359740   T   T   T
  0.4900497958562298  0.4037080615820798  0.4151644571778519   F   F   F
  0.4352855328557397  0.6738969313975375  0.4120919529831052   T   T   T
  0.4681883366782316  0.5371374751482092  0.6599401324109919   T   T   T
  0.5397532608265934  0.5319899791087650  0.3771480104995177   F   F   F
  0.6682637763674943  0.6005533898721577  0.4836573032522189   T   T   T
  0.6657264847552289  0.5193194239410415  0.5506422605942486   T   T   T
  0.3747222798550531  0.3347032118176106  0.3847744119191073   T   T   T
  0.6788590155500401  0.4365630998169002  0.4868696703815346   T   T   T
  0.5396489494106689  0.3186754104882246  0.3915711187884346   T   T   T
  0.3028645841862396  0.5031124208123835  0.4367256181833667   T   T   T
  0.3133949160145023  0.3956959212207011  0.4488517726650141   T   T   T
  0.5116870969396021  0.6260445035661978  0.6157865610545610   T   T   T
  0.4491535961601569  0.3744293596637615  0.5853836410406297   T   T   T
  0.3897005478080102  0.5795019810358732  0.6129367470353565   T   T   T
  0.4056530494540833  0.3052857808893462  0.5009558998962265   T   T   T
  0.4022970065864257  0.3716001179335647  0.2870299020523187   T   T   T
  0.3845103486641797  0.5332299242028161  0.2911733345818395   T   T   T
  0.6926553110245109  0.4602689522110231  0.3874709517903505   T   T   T
  0.3370191603043497  0.5727061311281616  0.5116629239347726   T   T   T
  0.5995914972576476  0.5723093482965282  0.3077118893606803   T   T   T
  0.6125252145383417  0.6143637263558603  0.5756046794455106   T   T   T
  0.4406474693113500  0.6145511985425264  0.3233102312340930   T   T   T
  0.2872818946700746  0.6256356050081958  0.3959993257380408   T   T   T
  0.2745951694155673  0.6434938833482391  0.4727436727684694   T   T   T
  0.2649662484800791  0.6457801950502472  0.4302471357324948   T   T   T
  0.2341284106693102  0.6666879189617855  0.4187782156223910   T   T   T
 
  0.00000000E+00  0.00000000E+00  0.00000000E+00
  0.00000000E+00  0.00000000E+00  0.00000000E+00
  0.00000000E+00  0.00000000E+00  0.00000000E+00
  0.00000000E+00  0.00000000E+00  0.00000000E+00
  0.00000000E+00  0.00000000E+00  0.00000000E+00
  0.00000000E+00  0.00000000E+00  0.00000000E+00
  0.00000000E+00  0.00000000E+00  0.00000000E+00
  0.00000000E+00  0.00000000E+00  0.00000000E+00
  0.00000000E+00  0.00000000E+00  0.00000000E+00
  0.00000000E+00  0.00000000E+00  0.00000000E+00
  0.00000000E+00  0.00000000E+00  0.00000000E+00
  0.00000000E+00  0.00000000E+00  0.00000000E+00
  0.00000000E+00  0.00000000E+00  0.00000000E+00
  0.00000000E+00  0.00000000E+00  0.00000000E+00
  0.00000000E+00  0.00000000E+00  0.00000000E+00
  0.00000000E+00  0.00000000E+00  0.00000000E+00
  0.00000000E+00  0.00000000E+00  0.00000000E+00
  0.00000000E+00  0.00000000E+00  0.00000000E+00
  0.00000000E+00  0.00000000E+00  0.00000000E+00
  0.00000000E+00  0.00000000E+00  0.00000000E+00
  0.00000000E+00  0.00000000E+00  0.00000000E+00
  0.00000000E+00  0.00000000E+00  0.00000000E+00
  0.00000000E+00  0.00000000E+00  0.00000000E+00
  0.00000000E+00  0.00000000E+00  0.00000000E+00
  0.00000000E+00  0.00000000E+00  0.00000000E+00
  0.00000000E+00  0.00000000E+00  0.00000000E+00
  0.00000000E+00  0.00000000E+00  0.00000000E+00
  0.00000000E+00  0.00000000E+00  0.00000000E+00
  0.00000000E+00  0.00000000E+00  0.00000000E+00
  0.00000000E+00  0.00000000E+00  0.00000000E+00
  0.00000000E+00  0.00000000E+00  0.00000000E+00
  0.00000000E+00  0.00000000E+00  0.00000000E+00
  0.00000000E+00  0.00000000E+00  0.00000000E+00
  0.00000000E+00  0.00000000E+00  0.00000000E+00
  0.00000000E+00  0.00000000E+00  0.00000000E+00
  0.00000000E+00  0.00000000E+00  0.00000000E+00
  0.00000000E+00  0.00000000E+00  0.00000000E+00
  0.00000000E+00  0.00000000E+00  0.00000000E+00
  0.00000000E+00  0.00000000E+00  0.00000000E+00
  0.00000000E+00  0.00000000E+00  0.00000000E+00
  0.00000000E+00  0.00000000E+00  0.00000000E+00
  0.00000000E+00  0.00000000E+00  0.00000000E+00
  0.00000000E+00  0.00000000E+00  0.00000000E+00
  0.00000000E+00  0.00000000E+00  0.00000000E+00
  0.00000000E+00  0.00000000E+00  0.00000000E+00
  0.00000000E+00  0.00000000E+00  0.00000000E+00
  0.00000000E+00  0.00000000E+00  0.00000000E+00
  0.00000000E+00  0.00000000E+00  0.00000000E+00
  0.00000000E+00  0.00000000E+00  0.00000000E+00
  0.00000000E+00  0.00000000E+00  0.00000000E+00
  0.00000000E+00  0.00000000E+00  0.00000000E+00
  0.00000000E+00  0.00000000E+00  0.00000000E+00
  0.00000000E+00  0.00000000E+00  0.00000000E+00
  0.00000000E+00  0.00000000E+00  0.00000000E+00
  0.00000000E+00  0.00000000E+00  0.00000000E+00
  0.00000000E+00  0.00000000E+00  0.00000000E+00
  0.00000000E+00  0.00000000E+00  0.00000000E+00
  0.00000000E+00  0.00000000E+00  0.00000000E+00
  0.00000000E+00  0.00000000E+00  0.00000000E+00
  0.00000000E+00  0.00000000E+00  0.00000000E+00
  0.00000000E+00  0.00000000E+00  0.00000000E+00
  0.00000000E+00  0.00000000E+00  0.00000000E+00
  0.00000000E+00  0.00000000E+00  0.00000000E+00
  0.00000000E+00  0.00000000E+00  0.00000000E+00
  0.00000000E+00  0.00000000E+00  0.00000000E+00
  0.00000000E+00  0.00000000E+00  0.00000000E+00
  0.00000000E+00  0.00000000E+00  0.00000000E+00
  0.00000000E+00  0.00000000E+00  0.00000000E+00
  0.00000000E+00  0.00000000E+00  0.00000000E+00
  0.00000000E+00  0.00000000E+00  0.00000000E+00
  0.00000000E+00  0.00000000E+00  0.00000000E+00
  0.00000000E+00  0.00000000E+00  0.00000000E+00
