La Co Ni Sn Bi O  C  H                  
   1.00000000000000     
    29.1044006348000011    0.0000000000000000    0.0000000000000000
     0.4451680315000000   28.3694074727000007    0.0000000000000000
     0.0682082826000000    0.3036559964000000   28.5240018092999996
   La   Co   Ni   Sn   Bi   O    C    H 
    14    13    13    14    14     2     1     1
Selective dynamics
Direct
  0.5914310222227834  0.4209422949901190  0.4059095608306010   T   T   T
  0.6852616020479222  0.5713738245623030  0.3808118172458922   T   T   T
  0.4948788906530410  0.5299911771210504  0.2828396585088979   T   T   T
  0.5630393050204874  0.5229693105441799  0.6016203602185803   T   T   T
  0.5086041631360331  0.3879079217726452  0.3052386000581559   T   T   T
  0.5751123802635486  0.6555217988757740  0.4830480172697042   T   T   T
  0.4970308276387329  0.3354912407483821  0.5008041264648834   T   T   T
  0.5347226694734719  0.6378226801208956  0.3752650771595825   T   T   T
  0.4364292392552765  0.6439167314456212  0.5352554256892479   T   T   T
  0.4373551010143757  0.5015757590148624  0.3842817269995109   F   F   F
  0.4437846394494898  0.4460183835780285  0.5005161578087822   F   F   F
  0.3855454604962807  0.4685356973297956  0.6093639111103623   T   T   T
  0.3432909676193807  0.4465505582909436  0.3479636982246005   T   T   T
  0.3611032698937657  0.5851648431449783  0.3947425149559432   T   T   T
  0.4217425606853311  0.4061295180575186  0.3699802678458894   F   F   F
  0.5011311695957161  0.4887203336762909  0.4395023580252015   F   F   F
  0.4044148221271726  0.6101724300038001  0.4624736492929173   F   F   F
  0.4722931245665194  0.5596737886932672  0.5729988711091565   F   F   F
  0.6552684236953183  0.5165424048424470  0.4543399438695133   F   F   F
  0.5967309916701211  0.5535378348504167  0.5056109707055541   F   F   F
  0.5314074673932367  0.5941153005651714  0.5336729985293047   F   F   F
  0.5796732686089143  0.4997731718447866  0.4507473928409595   F   F   F
  0.4591907535237491  0.3312705227119751  0.3403966637787673   T   T   T
  0.3905180950192175  0.5252419063175111  0.4552418453041511   F   F   F
  0.4502356158230363  0.3259521931844958  0.4182181583734179   T   T   T
  0.5074804872141527  0.4592780196109629  0.3501259710292359   F   F   F
  0.6012877811302459  0.4669891268301640  0.5212355700313438   F   F   F
  0.5384608035519776  0.4312182275275163  0.4821288228790692   F   F   F
  0.4713083414346286  0.4805797151798927  0.5807598339419258   F   F   F
  0.3771163837573610  0.4514853175274567  0.4282230665427278   F   F   F
  0.4059018739390154  0.3822235888080883  0.4561785915149272   F   F   F
  0.5357818896390683  0.5680835373033233  0.4543473312664048   F   F   F
  0.4924712632432886  0.6367287407321953  0.4646113344718685   F   F   F
  0.4677327221812249  0.5829886973614862  0.4038343643763724   F   F   F
  0.5280944416629296  0.5063826634733033  0.5194466411805863   F   F   F
  0.6212454441397384  0.5105019604624417  0.3755946010283822   F   F   F
  0.6054499763524817  0.5821019035045651  0.4188664505762958   F   F   F
  0.4050790883739026  0.5245211222763402  0.5434909784116542   F   F   F
  0.3528506411542368  0.4659870790246047  0.5102462379605887   T   T   T
  0.4336705235667191  0.4596323497255166  0.3025232112149460   T   T   T
  0.5393665381300721  0.4224564930123305  0.5681789321693550   T   T   T
  0.3635138286170166  0.3810089721602659  0.5405060062418608   T   T   T
  0.4625951421883201  0.5516617238622956  0.4875128022361963   F   F   F
  0.6001426958435483  0.3703680921748616  0.5058441302918986   T   T   T
  0.4960445055213167  0.4428306538479833  0.6597741066173464   T   T   T
  0.5865302003213755  0.4689277380718693  0.3052768867753000   T   T   T
  0.4900497958562298  0.4037080615820798  0.4151644571778519   F   F   F
  0.4351462392834477  0.6751164892067852  0.4134041023666650   T   T   T
  0.4668688327515176  0.5388647605186980  0.6592796234362773   T   T   T
  0.5397532608265934  0.5319899791087650  0.3771480104995177   F   F   F
  0.6686934849778521  0.6005555403381490  0.4833444300572846   T   T   T
  0.6662452653002858  0.5187718551385139  0.5495746130274016   T   T   T
  0.3694662641768595  0.3383522193853800  0.3798153792357232   T   T   T
  0.6744053671086745  0.4335369202960926  0.4863155592973007   T   T   T
  0.5373231831629067  0.3185152282863993  0.3925013325975247   T   T   T
  0.3026318452881690  0.5017997019149985  0.4405914053555510   T   T   T
  0.3140708160341271  0.3937563662544848  0.4514287398261279   T   T   T
  0.5126102871347126  0.6261062679221746  0.6161492384307533   T   T   T
  0.4515264752136186  0.3802272909953925  0.5929818726680934   T   T   T
  0.3893778570375427  0.5818966451440244  0.6120943517152556   T   T   T
  0.3872173720169627  0.2998556655540355  0.4793651147087223   T   T   T
  0.4015608666594260  0.3764848943538974  0.2850363557656450   T   T   T
  0.3831409660471298  0.5350569923039906  0.2926157817971035   T   T   T
  0.6928596190368793  0.4604176995126035  0.3889033419696350   T   T   T
  0.3381596248474721  0.5726147630034928  0.5132869796815689   T   T   T
  0.5992780574339708  0.5732170589938611  0.3080141075579597   T   T   T
  0.6132620858282195  0.6150389032955451  0.5748683783028952   T   T   T
  0.4387779083839379  0.6165742209175611  0.3245806825392634   T   T   T
  0.4086497211646992  0.2884987266286053  0.5996278601489865   T   T   T
  0.4648960943041303  0.2741226361118099  0.5460684245798431   T   T   T
  0.4377775572412592  0.2623350459088573  0.5806893947062259   T   T   T
  0.4419004871071716  0.2250813961774432  0.5928567449090132   T   T   T
 
  0.00000000E+00  0.00000000E+00  0.00000000E+00
  0.00000000E+00  0.00000000E+00  0.00000000E+00
  0.00000000E+00  0.00000000E+00  0.00000000E+00
  0.00000000E+00  0.00000000E+00  0.00000000E+00
  0.00000000E+00  0.00000000E+00  0.00000000E+00
  0.00000000E+00  0.00000000E+00  0.00000000E+00
  0.00000000E+00  0.00000000E+00  0.00000000E+00
  0.00000000E+00  0.00000000E+00  0.00000000E+00
  0.00000000E+00  0.00000000E+00  0.00000000E+00
  0.00000000E+00  0.00000000E+00  0.00000000E+00
  0.00000000E+00  0.00000000E+00  0.00000000E+00
  0.00000000E+00  0.00000000E+00  0.00000000E+00
  0.00000000E+00  0.00000000E+00  0.00000000E+00
  0.00000000E+00  0.00000000E+00  0.00000000E+00
  0.00000000E+00  0.00000000E+00  0.00000000E+00
  0.00000000E+00  0.00000000E+00  0.00000000E+00
  0.00000000E+00  0.00000000E+00  0.00000000E+00
  0.00000000E+00  0.00000000E+00  0.00000000E+00
  0.00000000E+00  0.00000000E+00  0.00000000E+00
  0.00000000E+00  0.00000000E+00  0.00000000E+00
  0.00000000E+00  0.00000000E+00  0.00000000E+00
  0.00000000E+00  0.00000000E+00  0.00000000E+00
  0.00000000E+00  0.00000000E+00  0.00000000E+00
  0.00000000E+00  0.00000000E+00  0.00000000E+00
  0.00000000E+00  0.00000000E+00  0.00000000E+00
  0.00000000E+00  0.00000000E+00  0.00000000E+00
  0.00000000E+00  0.00000000E+00  0.00000000E+00
  0.00000000E+00  0.00000000E+00  0.00000000E+00
  0.00000000E+00  0.00000000E+00  0.00000000E+00
  0.00000000E+00  0.00000000E+00  0.00000000E+00
  0.00000000E+00  0.00000000E+00  0.00000000E+00
  0.00000000E+00  0.00000000E+00  0.00000000E+00
  0.00000000E+00  0.00000000E+00  0.00000000E+00
  0.00000000E+00  0.00000000E+00  0.00000000E+00
  0.00000000E+00  0.00000000E+00  0.00000000E+00
  0.00000000E+00  0.00000000E+00  0.00000000E+00
  0.00000000E+00  0.00000000E+00  0.00000000E+00
  0.00000000E+00  0.00000000E+00  0.00000000E+00
  0.00000000E+00  0.00000000E+00  0.00000000E+00
  0.00000000E+00  0.00000000E+00  0.00000000E+00
  0.00000000E+00  0.00000000E+00  0.00000000E+00
  0.00000000E+00  0.00000000E+00  0.00000000E+00
  0.00000000E+00  0.00000000E+00  0.00000000E+00
  0.00000000E+00  0.00000000E+00  0.00000000E+00
  0.00000000E+00  0.00000000E+00  0.00000000E+00
  0.00000000E+00  0.00000000E+00  0.00000000E+00
  0.00000000E+00  0.00000000E+00  0.00000000E+00
  0.00000000E+00  0.00000000E+00  0.00000000E+00
  0.00000000E+00  0.00000000E+00  0.00000000E+00
  0.00000000E+00  0.00000000E+00  0.00000000E+00
  0.00000000E+00  0.00000000E+00  0.00000000E+00
  0.00000000E+00  0.00000000E+00  0.00000000E+00
  0.00000000E+00  0.00000000E+00  0.00000000E+00
  0.00000000E+00  0.00000000E+00  0.00000000E+00
  0.00000000E+00  0.00000000E+00  0.00000000E+00
  0.00000000E+00  0.00000000E+00  0.00000000E+00
  0.00000000E+00  0.00000000E+00  0.00000000E+00
  0.00000000E+00  0.00000000E+00  0.00000000E+00
  0.00000000E+00  0.00000000E+00  0.00000000E+00
  0.00000000E+00  0.00000000E+00  0.00000000E+00
  0.00000000E+00  0.00000000E+00  0.00000000E+00
  0.00000000E+00  0.00000000E+00  0.00000000E+00
  0.00000000E+00  0.00000000E+00  0.00000000E+00
  0.00000000E+00  0.00000000E+00  0.00000000E+00
  0.00000000E+00  0.00000000E+00  0.00000000E+00
  0.00000000E+00  0.00000000E+00  0.00000000E+00
  0.00000000E+00  0.00000000E+00  0.00000000E+00
  0.00000000E+00  0.00000000E+00  0.00000000E+00
  0.00000000E+00  0.00000000E+00  0.00000000E+00
  0.00000000E+00  0.00000000E+00  0.00000000E+00
  0.00000000E+00  0.00000000E+00  0.00000000E+00
  0.00000000E+00  0.00000000E+00  0.00000000E+00
