La Co Ni Sn Bi O  C  H                  
   1.00000000000000     
    29.1044006348000011    0.0000000000000000    0.0000000000000000
     0.4451680315000000   28.3694074727000007    0.0000000000000000
     0.0682082826000000    0.3036559964000000   28.5240018092999996
   La   Co   Ni   Sn   Bi   O    C    H 
    14    13    13    14    14     2     1     1
Selective dynamics
Direct
  0.5922345211345426  0.4207300986975487  0.4072944736806575   T   T   T
  0.6853854403366628  0.5711717851629766  0.3810115045053540   T   T   T
  0.4951017508776045  0.5283244997254777  0.2827220968406929   T   T   T
  0.5628841185938229  0.5214229800715271  0.6018082207685990   T   T   T
  0.5085450039245819  0.3873621867007183  0.3050660062738239   T   T   T
  0.5745145288480249  0.6558941751173686  0.4838204436898334   T   T   T
  0.5084926915074287  0.3376380033458676  0.4990360342726419   T   T   T
  0.5349382739221535  0.6376903317503250  0.3754812273114407   T   T   T
  0.4312475561231318  0.6473706531019094  0.5361933712084263   T   T   T
  0.4373551010143757  0.5015757590148624  0.3842817269995109   F   F   F
  0.4437846394494898  0.4460183835780285  0.5005161578087822   F   F   F
  0.3877021748278611  0.4654568335935595  0.6093060200173632   T   T   T
  0.3442875432816735  0.4444965904707963  0.3471349166406027   T   T   T
  0.3616485291675516  0.5861803788315380  0.3943717166915204   T   T   T
  0.4217425606853311  0.4061295180575186  0.3699802678458894   F   F   F
  0.5011311695957161  0.4887203336762909  0.4395023580252015   F   F   F
  0.4044148221271726  0.6101724300038001  0.4624736492929173   F   F   F
  0.4722931245665194  0.5596737886932672  0.5729988711091565   F   F   F
  0.6552684236953183  0.5165424048424470  0.4543399438695133   F   F   F
  0.5967309916701211  0.5535378348504167  0.5056109707055541   F   F   F
  0.5314074673932367  0.5941153005651714  0.5336729985293047   F   F   F
  0.5796732686089143  0.4997731718447866  0.4507473928409595   F   F   F
  0.4607712274583793  0.3308622486161937  0.3434005052579003   T   T   T
  0.3905180950192175  0.5252419063175111  0.4552418453041511   F   F   F
  0.4542220890107998  0.3248648008211450  0.4227083924778905   T   T   T
  0.5074804872141527  0.4592780196109629  0.3501259710292359   F   F   F
  0.6012877811302459  0.4669891268301640  0.5212355700313438   F   F   F
  0.5384608035519776  0.4312182275275163  0.4821288228790692   F   F   F
  0.4713083414346286  0.4805797151798927  0.5807598339419258   F   F   F
  0.3771163837573610  0.4514853175274567  0.4282230665427278   F   F   F
  0.4059018739390154  0.3822235888080883  0.4561785915149272   F   F   F
  0.5357818896390683  0.5680835373033233  0.4543473312664048   F   F   F
  0.4924712632432886  0.6367287407321953  0.4646113344718685   F   F   F
  0.4677327221812249  0.5829886973614862  0.4038343643763724   F   F   F
  0.5280944416629296  0.5063826634733033  0.5194466411805863   F   F   F
  0.6212454441397384  0.5105019604624417  0.3755946010283822   F   F   F
  0.6054499763524817  0.5821019035045651  0.4188664505762958   F   F   F
  0.4050790883739026  0.5245211222763402  0.5434909784116542   F   F   F
  0.3510769345968306  0.4697978535645226  0.5087978151144988   T   T   T
  0.4337153213558284  0.4576667093030336  0.3022010974092431   T   T   T
  0.5377862790768828  0.4215291382169932  0.5685628503025727   T   T   T
  0.3577326636774242  0.3862558428489826  0.5392205379171322   T   T   T
  0.4625951421883201  0.5516617238622956  0.4875128022361963   F   F   F
  0.6062831871241773  0.3749570284407678  0.5095005641610391   T   T   T
  0.4916109319344974  0.4370024029370840  0.6573600816513895   T   T   T
  0.5871745519579087  0.4680434938456482  0.3059370516421263   T   T   T
  0.4900497958562298  0.4037080615820798  0.4151644571778519   F   F   F
  0.4353456300248533  0.6748758517702920  0.4133104419048871   T   T   T
  0.4697148040423041  0.5355820185055262  0.6604366794809939   T   T   T
  0.5397532608265934  0.5319899791087650  0.3771480104995177   F   F   F
  0.6679885183127420  0.6007559247887585  0.4835991281929584   T   T   T
  0.6659654552232016  0.5191664481508440  0.5502373006848700   T   T   T
  0.3744807510955629  0.3347468409194853  0.3846374245646167   T   T   T
  0.6785053011651507  0.4362901903780920  0.4862834713775719   T   T   T
  0.5396783837180124  0.3190394453758256  0.3912286514735638   T   T   T
  0.3025459569890683  0.5031948311161341  0.4371141752878050   T   T   T
  0.3134205258969600  0.3954501139657854  0.4491485778428231   T   T   T
  0.5116659171152769  0.6252600570944885  0.6159074764701902   T   T   T
  0.4487653406401483  0.3731269413222603  0.5846793535525022   T   T   T
  0.3921429159939097  0.5788633853149733  0.6142907321048353   T   T   T
  0.4047793926301538  0.3047361349045080  0.4994781525867808   T   T   T
  0.4020488230677349  0.3721666841229376  0.2868982189842361   T   T   T
  0.3834046198926196  0.5341736323978329  0.2928365361496981   T   T   T
  0.6928326094069341  0.4604245629955339  0.3871254602433201   T   T   T
  0.3375512690079832  0.5720592742905369  0.5130076862516054   T   T   T
  0.5995816087429464  0.5727916386747729  0.3080727736275994   T   T   T
  0.6125053471517170  0.6142933638277601  0.5755565820595104   T   T   T
  0.4397208624742431  0.6157745598711215  0.3241444759509440   T   T   T
  0.4047401969609142  0.7299550879292297  0.5536362258244499   T   T   T
  0.3495711745636538  0.6749549376606705  0.5560347882097572   T   T   T
  0.3628105950144327  0.7175839803130405  0.5582567471744848   T   T   T
  0.3362743638381748  0.7455250549115214  0.5645998996624009   T   T   T
 
  0.00000000E+00  0.00000000E+00  0.00000000E+00
  0.00000000E+00  0.00000000E+00  0.00000000E+00
  0.00000000E+00  0.00000000E+00  0.00000000E+00
  0.00000000E+00  0.00000000E+00  0.00000000E+00
  0.00000000E+00  0.00000000E+00  0.00000000E+00
  0.00000000E+00  0.00000000E+00  0.00000000E+00
  0.00000000E+00  0.00000000E+00  0.00000000E+00
  0.00000000E+00  0.00000000E+00  0.00000000E+00
  0.00000000E+00  0.00000000E+00  0.00000000E+00
  0.00000000E+00  0.00000000E+00  0.00000000E+00
  0.00000000E+00  0.00000000E+00  0.00000000E+00
  0.00000000E+00  0.00000000E+00  0.00000000E+00
  0.00000000E+00  0.00000000E+00  0.00000000E+00
  0.00000000E+00  0.00000000E+00  0.00000000E+00
  0.00000000E+00  0.00000000E+00  0.00000000E+00
  0.00000000E+00  0.00000000E+00  0.00000000E+00
  0.00000000E+00  0.00000000E+00  0.00000000E+00
  0.00000000E+00  0.00000000E+00  0.00000000E+00
  0.00000000E+00  0.00000000E+00  0.00000000E+00
  0.00000000E+00  0.00000000E+00  0.00000000E+00
  0.00000000E+00  0.00000000E+00  0.00000000E+00
  0.00000000E+00  0.00000000E+00  0.00000000E+00
  0.00000000E+00  0.00000000E+00  0.00000000E+00
  0.00000000E+00  0.00000000E+00  0.00000000E+00
  0.00000000E+00  0.00000000E+00  0.00000000E+00
  0.00000000E+00  0.00000000E+00  0.00000000E+00
  0.00000000E+00  0.00000000E+00  0.00000000E+00
  0.00000000E+00  0.00000000E+00  0.00000000E+00
  0.00000000E+00  0.00000000E+00  0.00000000E+00
  0.00000000E+00  0.00000000E+00  0.00000000E+00
  0.00000000E+00  0.00000000E+00  0.00000000E+00
  0.00000000E+00  0.00000000E+00  0.00000000E+00
  0.00000000E+00  0.00000000E+00  0.00000000E+00
  0.00000000E+00  0.00000000E+00  0.00000000E+00
  0.00000000E+00  0.00000000E+00  0.00000000E+00
  0.00000000E+00  0.00000000E+00  0.00000000E+00
  0.00000000E+00  0.00000000E+00  0.00000000E+00
  0.00000000E+00  0.00000000E+00  0.00000000E+00
  0.00000000E+00  0.00000000E+00  0.00000000E+00
  0.00000000E+00  0.00000000E+00  0.00000000E+00
  0.00000000E+00  0.00000000E+00  0.00000000E+00
  0.00000000E+00  0.00000000E+00  0.00000000E+00
  0.00000000E+00  0.00000000E+00  0.00000000E+00
  0.00000000E+00  0.00000000E+00  0.00000000E+00
  0.00000000E+00  0.00000000E+00  0.00000000E+00
  0.00000000E+00  0.00000000E+00  0.00000000E+00
  0.00000000E+00  0.00000000E+00  0.00000000E+00
  0.00000000E+00  0.00000000E+00  0.00000000E+00
  0.00000000E+00  0.00000000E+00  0.00000000E+00
  0.00000000E+00  0.00000000E+00  0.00000000E+00
  0.00000000E+00  0.00000000E+00  0.00000000E+00
  0.00000000E+00  0.00000000E+00  0.00000000E+00
  0.00000000E+00  0.00000000E+00  0.00000000E+00
  0.00000000E+00  0.00000000E+00  0.00000000E+00
  0.00000000E+00  0.00000000E+00  0.00000000E+00
  0.00000000E+00  0.00000000E+00  0.00000000E+00
  0.00000000E+00  0.00000000E+00  0.00000000E+00
  0.00000000E+00  0.00000000E+00  0.00000000E+00
  0.00000000E+00  0.00000000E+00  0.00000000E+00
  0.00000000E+00  0.00000000E+00  0.00000000E+00
  0.00000000E+00  0.00000000E+00  0.00000000E+00
  0.00000000E+00  0.00000000E+00  0.00000000E+00
  0.00000000E+00  0.00000000E+00  0.00000000E+00
  0.00000000E+00  0.00000000E+00  0.00000000E+00
  0.00000000E+00  0.00000000E+00  0.00000000E+00
  0.00000000E+00  0.00000000E+00  0.00000000E+00
  0.00000000E+00  0.00000000E+00  0.00000000E+00
  0.00000000E+00  0.00000000E+00  0.00000000E+00
  0.00000000E+00  0.00000000E+00  0.00000000E+00
  0.00000000E+00  0.00000000E+00  0.00000000E+00
  0.00000000E+00  0.00000000E+00  0.00000000E+00
  0.00000000E+00  0.00000000E+00  0.00000000E+00
