La Co Ni Sn Bi O  C  H                  
   1.00000000000000     
    29.1044006348000011    0.0000000000000000    0.0000000000000000
     0.4451680315000000   28.3694074727000007    0.0000000000000000
     0.0682082826000000    0.3036559964000000   28.5240018092999996
   La   Co   Ni   Sn   Bi   O    C    H 
    14    13    13    14    14     2     1     1
Selective dynamics
Direct
  0.5922757881501581  0.4205942578453621  0.4080653111226528   T   T   T
  0.6860249727967174  0.5707106309362782  0.3815790775731333   T   T   T
  0.4956745853061040  0.5280899980056986  0.2823769536100194   T   T   T
  0.5624223315627158  0.5222025970255250  0.6020425403031728   T   T   T
  0.5090165783863513  0.3871072762144519  0.3053731103847357   T   T   T
  0.5752996113021324  0.6601483257053817  0.4857027010933747   T   T   T
  0.5091007433974442  0.3380250283133457  0.4995126926439794   T   T   T
  0.5349496166217701  0.6379800869951469  0.3764036024900453   T   T   T
  0.4373231828180150  0.6443286611736572  0.5355107922524232   T   T   T
  0.4373551010143757  0.5015757590148624  0.3842817269995109   F   F   F
  0.4437846394494898  0.4460183835780285  0.5005161578087822   F   F   F
  0.3875388153681005  0.4674346748080471  0.6098768503705784   T   T   T
  0.3446301546424183  0.4444468117677037  0.3468478923166568   T   T   T
  0.3621304245878156  0.5857331171850076  0.3938505306905362   T   T   T
  0.4217425606853311  0.4061295180575186  0.3699802678458894   F   F   F
  0.5011311695957161  0.4887203336762909  0.4395023580252015   F   F   F
  0.4044148221271726  0.6101724300038001  0.4624736492929173   F   F   F
  0.4722931245665194  0.5596737886932672  0.5729988711091565   F   F   F
  0.6552684236953183  0.5165424048424470  0.4543399438695133   F   F   F
  0.5967309916701211  0.5535378348504167  0.5056109707055541   F   F   F
  0.5314074673932367  0.5941153005651714  0.5336729985293047   F   F   F
  0.5796732686089143  0.4997731718447866  0.4507473928409595   F   F   F
  0.4606363236211162  0.3307392533792010  0.3445981991960347   T   T   T
  0.3905180950192175  0.5252419063175111  0.4552418453041511   F   F   F
  0.4543135815135663  0.3246546456510728  0.4240425924234295   T   T   T
  0.5074804872141527  0.4592780196109629  0.3501259710292359   F   F   F
  0.6012877811302459  0.4669891268301640  0.5212355700313438   F   F   F
  0.5384608035519776  0.4312182275275163  0.4821288228790692   F   F   F
  0.4713083414346286  0.4805797151798927  0.5807598339419258   F   F   F
  0.3771163837573610  0.4514853175274567  0.4282230665427278   F   F   F
  0.4059018739390154  0.3822235888080883  0.4561785915149272   F   F   F
  0.5357818896390683  0.5680835373033233  0.4543473312664048   F   F   F
  0.4924712632432886  0.6367287407321953  0.4646113344718685   F   F   F
  0.4677327221812249  0.5829886973614862  0.4038343643763724   F   F   F
  0.5280944416629296  0.5063826634733033  0.5194466411805863   F   F   F
  0.6212454441397384  0.5105019604624417  0.3755946010283822   F   F   F
  0.6054499763524817  0.5821019035045651  0.4188664505762958   F   F   F
  0.4050790883739026  0.5245211222763402  0.5434909784116542   F   F   F
  0.3508019702485498  0.4703162896278856  0.5088841204063934   T   T   T
  0.4342038582615958  0.4576242777872271  0.3022137273841077   T   T   T
  0.5381669140115327  0.4219965056885476  0.5690848938200407   T   T   T
  0.3578058734099926  0.3873245695671447  0.5401890324895885   T   T   T
  0.4625951421883201  0.5516617238622956  0.4875128022361963   F   F   F
  0.6067830917610172  0.3756531494058433  0.5112199696620376   T   T   T
  0.4919743898757443  0.4394500552771627  0.6581721136890755   T   T   T
  0.5874063001210226  0.4679807406312335  0.3063821097929456   T   T   T
  0.4900497958562298  0.4037080615820798  0.4151644571778519   F   F   F
  0.4351724633473147  0.6750048545979352  0.4133184766189357   T   T   T
  0.4683630983793484  0.5374961705901570  0.6601605015606470   T   T   T
  0.5397532608265934  0.5319899791087650  0.3771480104995177   F   F   F
  0.6676845758813242  0.6005868070499465  0.4835911294122796   T   T   T
  0.6653809108354507  0.5195498197231161  0.5512564701604948   T   T   T
  0.3747611569796426  0.3347847175563958  0.3846627508708051   T   T   T
  0.6794824736270030  0.4369511870676846  0.4871305507938072   T   T   T
  0.5395067608035348  0.3184936552317122  0.3916797255753420   T   T   T
  0.3025088877728559  0.5030990071126319  0.4366527736520495   T   T   T
  0.3136673748966058  0.3957434614290367  0.4498171307937034   T   T   T
  0.5126711047958904  0.6253814114750800  0.6171767364688240   T   T   T
  0.4492042971737806  0.3748427357298633  0.5857136586387121   T   T   T
  0.3909391435436161  0.5811716988472727  0.6124954398776589   T   T   T
  0.4055185179462183  0.3058728986822656  0.5015187085019321   T   T   T
  0.4026765862619017  0.3721027982852762  0.2868908585113639   T   T   T
  0.3839740461537546  0.5340144447636621  0.2923833249615775   T   T   T
  0.6924787181151523  0.4599091368545908  0.3873286631861989   T   T   T
  0.3378132303889934  0.5724759496894520  0.5128186844259469   T   T   T
  0.5998985313109122  0.5733677097790544  0.3088287400089583   T   T   T
  0.6135745401969507  0.6141946741007582  0.5752701451163935   T   T   T
  0.4403582959079205  0.6155507116319904  0.3239209033594799   T   T   T
  0.5775780502095557  0.7297859183434742  0.5304762893888049   T   T   T
  0.5767916849303718  0.7078233642342141  0.6075564791797660   T   T   T
  0.5817600421996637  0.7372635069222591  0.5751173079286674   T   T   T
  0.5911029685337641  0.7740211034713010  0.5841470312764389   T   T   T
 
  0.00000000E+00  0.00000000E+00  0.00000000E+00
  0.00000000E+00  0.00000000E+00  0.00000000E+00
  0.00000000E+00  0.00000000E+00  0.00000000E+00
  0.00000000E+00  0.00000000E+00  0.00000000E+00
  0.00000000E+00  0.00000000E+00  0.00000000E+00
  0.00000000E+00  0.00000000E+00  0.00000000E+00
  0.00000000E+00  0.00000000E+00  0.00000000E+00
  0.00000000E+00  0.00000000E+00  0.00000000E+00
  0.00000000E+00  0.00000000E+00  0.00000000E+00
  0.00000000E+00  0.00000000E+00  0.00000000E+00
  0.00000000E+00  0.00000000E+00  0.00000000E+00
  0.00000000E+00  0.00000000E+00  0.00000000E+00
  0.00000000E+00  0.00000000E+00  0.00000000E+00
  0.00000000E+00  0.00000000E+00  0.00000000E+00
  0.00000000E+00  0.00000000E+00  0.00000000E+00
  0.00000000E+00  0.00000000E+00  0.00000000E+00
  0.00000000E+00  0.00000000E+00  0.00000000E+00
  0.00000000E+00  0.00000000E+00  0.00000000E+00
  0.00000000E+00  0.00000000E+00  0.00000000E+00
  0.00000000E+00  0.00000000E+00  0.00000000E+00
  0.00000000E+00  0.00000000E+00  0.00000000E+00
  0.00000000E+00  0.00000000E+00  0.00000000E+00
  0.00000000E+00  0.00000000E+00  0.00000000E+00
  0.00000000E+00  0.00000000E+00  0.00000000E+00
  0.00000000E+00  0.00000000E+00  0.00000000E+00
  0.00000000E+00  0.00000000E+00  0.00000000E+00
  0.00000000E+00  0.00000000E+00  0.00000000E+00
  0.00000000E+00  0.00000000E+00  0.00000000E+00
  0.00000000E+00  0.00000000E+00  0.00000000E+00
  0.00000000E+00  0.00000000E+00  0.00000000E+00
  0.00000000E+00  0.00000000E+00  0.00000000E+00
  0.00000000E+00  0.00000000E+00  0.00000000E+00
  0.00000000E+00  0.00000000E+00  0.00000000E+00
  0.00000000E+00  0.00000000E+00  0.00000000E+00
  0.00000000E+00  0.00000000E+00  0.00000000E+00
  0.00000000E+00  0.00000000E+00  0.00000000E+00
  0.00000000E+00  0.00000000E+00  0.00000000E+00
  0.00000000E+00  0.00000000E+00  0.00000000E+00
  0.00000000E+00  0.00000000E+00  0.00000000E+00
  0.00000000E+00  0.00000000E+00  0.00000000E+00
  0.00000000E+00  0.00000000E+00  0.00000000E+00
  0.00000000E+00  0.00000000E+00  0.00000000E+00
  0.00000000E+00  0.00000000E+00  0.00000000E+00
  0.00000000E+00  0.00000000E+00  0.00000000E+00
  0.00000000E+00  0.00000000E+00  0.00000000E+00
  0.00000000E+00  0.00000000E+00  0.00000000E+00
  0.00000000E+00  0.00000000E+00  0.00000000E+00
  0.00000000E+00  0.00000000E+00  0.00000000E+00
  0.00000000E+00  0.00000000E+00  0.00000000E+00
  0.00000000E+00  0.00000000E+00  0.00000000E+00
  0.00000000E+00  0.00000000E+00  0.00000000E+00
  0.00000000E+00  0.00000000E+00  0.00000000E+00
  0.00000000E+00  0.00000000E+00  0.00000000E+00
  0.00000000E+00  0.00000000E+00  0.00000000E+00
  0.00000000E+00  0.00000000E+00  0.00000000E+00
  0.00000000E+00  0.00000000E+00  0.00000000E+00
  0.00000000E+00  0.00000000E+00  0.00000000E+00
  0.00000000E+00  0.00000000E+00  0.00000000E+00
  0.00000000E+00  0.00000000E+00  0.00000000E+00
  0.00000000E+00  0.00000000E+00  0.00000000E+00
  0.00000000E+00  0.00000000E+00  0.00000000E+00
  0.00000000E+00  0.00000000E+00  0.00000000E+00
  0.00000000E+00  0.00000000E+00  0.00000000E+00
  0.00000000E+00  0.00000000E+00  0.00000000E+00
  0.00000000E+00  0.00000000E+00  0.00000000E+00
  0.00000000E+00  0.00000000E+00  0.00000000E+00
  0.00000000E+00  0.00000000E+00  0.00000000E+00
  0.00000000E+00  0.00000000E+00  0.00000000E+00
  0.00000000E+00  0.00000000E+00  0.00000000E+00
  0.00000000E+00  0.00000000E+00  0.00000000E+00
  0.00000000E+00  0.00000000E+00  0.00000000E+00
  0.00000000E+00  0.00000000E+00  0.00000000E+00
