La Co Ni Sn Bi O  C  H                  
   1.00000000000000     
    29.1044006348000011    0.0000000000000000    0.0000000000000000
     0.4451680315000000   28.3694074727000007    0.0000000000000000
     0.0682082826000000    0.3036559964000000   28.5240018092999996
   La   Co   Ni   Sn   Bi   O    C    H 
    14    13    13    14    14     2     1     1
Selective dynamics
Direct
  0.5918979746417117  0.4210015161851366  0.4068689044088938   T   T   T
  0.6855695754652832  0.5711088632986872  0.3813753644249815   T   T   T
  0.4949248525817572  0.5310431173372474  0.2829540259204081   T   T   T
  0.5627876557605584  0.5212863550195489  0.6020114857598562   T   T   T
  0.5090106854469244  0.3873505307452537  0.3040390152911395   T   T   T
  0.5752047350050530  0.6555428377871474  0.4836956127088141   T   T   T
  0.5083434077456005  0.3377320272683011  0.4984345151412472   T   T   T
  0.5345925919345597  0.6379258946942825  0.3756384809133702   T   T   T
  0.4359299138490726  0.6431701081053114  0.5360835697012678   T   T   T
  0.4373551010143757  0.5015757590148624  0.3842817269995109   F   F   F
  0.4437846394494898  0.4460183835780285  0.5005161578087822   F   F   F
  0.3878779112703634  0.4659494488234446  0.6092122076161882   T   T   T
  0.3429963297023815  0.4470924397330835  0.3477995979696429   T   T   T
  0.3614909046825856  0.5857671652799792  0.3947386488297333   T   T   T
  0.4217425606853311  0.4061295180575186  0.3699802678458894   F   F   F
  0.5011311695957161  0.4887203336762909  0.4395023580252015   F   F   F
  0.4044148221271726  0.6101724300038001  0.4624736492929173   F   F   F
  0.4722931245665194  0.5596737886932672  0.5729988711091565   F   F   F
  0.6552684236953183  0.5165424048424470  0.4543399438695133   F   F   F
  0.5967309916701211  0.5535378348504167  0.5056109707055541   F   F   F
  0.5314074673932367  0.5941153005651714  0.5336729985293047   F   F   F
  0.5796732686089143  0.4997731718447866  0.4507473928409595   F   F   F
  0.4575721573441420  0.3278398388870098  0.3402416658803967   T   T   T
  0.3905180950192175  0.5252419063175111  0.4552418453041511   F   F   F
  0.4524074623972908  0.3256020372310506  0.4195969097673755   T   T   T
  0.5074804872141527  0.4592780196109629  0.3501259710292359   F   F   F
  0.6012877811302459  0.4669891268301640  0.5212355700313438   F   F   F
  0.5384608035519776  0.4312182275275163  0.4821288228790692   F   F   F
  0.4713083414346286  0.4805797151798927  0.5807598339419258   F   F   F
  0.3771163837573610  0.4514853175274567  0.4282230665427278   F   F   F
  0.4059018739390154  0.3822235888080883  0.4561785915149272   F   F   F
  0.5357818896390683  0.5680835373033233  0.4543473312664048   F   F   F
  0.4924712632432886  0.6367287407321953  0.4646113344718685   F   F   F
  0.4677327221812249  0.5829886973614862  0.4038343643763724   F   F   F
  0.5280944416629296  0.5063826634733033  0.5194466411805863   F   F   F
  0.6212454441397384  0.5105019604624417  0.3755946010283822   F   F   F
  0.6054499763524817  0.5821019035045651  0.4188664505762958   F   F   F
  0.4050790883739026  0.5245211222763402  0.5434909784116542   F   F   F
  0.3514653894886078  0.4697530984499907  0.5092882914997616   T   T   T
  0.4340289646689051  0.4602349286092317  0.3031560281679865   T   T   T
  0.5381386612736714  0.4213801905321401  0.5684366837037641   T   T   T
  0.3579814432932695  0.3859902128395452  0.5393789043582861   T   T   T
  0.4625951421883201  0.5516617238622956  0.4875128022361963   F   F   F
  0.6059876819509796  0.3746369162243534  0.5090255815826965   T   T   T
  0.4920720229273909  0.4377106606965362  0.6573383354094132   T   T   T
  0.5867622412388160  0.4695473617093722  0.3055694100148452   T   T   T
  0.4900497958562298  0.4037080615820798  0.4151644571778519   F   F   F
  0.4352583856505302  0.6755944238674602  0.4139221084226472   T   T   T
  0.4687377810147695  0.5362102079455909  0.6601222628045584   T   T   T
  0.5397532608265934  0.5319899791087650  0.3771480104995177   F   F   F
  0.6685106916151352  0.6003898840742461  0.4841301344139618   T   T   T
  0.6659994213409358  0.5191285478592473  0.5504713636355164   T   T   T
  0.3725343648429028  0.3367430498278695  0.3834865921012672   T   T   T
  0.6780176363357145  0.4361411393057386  0.4864304363569698   T   T   T
  0.5386282278304365  0.3195710770373079  0.3909887923444264   T   T   T
  0.3021299302847818  0.5031342731643538  0.4386327346342330   T   T   T
  0.3131404967075189  0.3955812455883921  0.4495329169300446   T   T   T
  0.5125928362193581  0.6248280155861322  0.6170262734821921   T   T   T
  0.4492553508830361  0.3733923909599722  0.5849103305135271   T   T   T
  0.3905660775381580  0.5796441890754271  0.6136028612615397   T   T   T
  0.4051033720156766  0.3050395624965271  0.4988480651661214   T   T   T
  0.4013890619430884  0.3773190987503815  0.2864240280292880   T   T   T
  0.3832602919004843  0.5354151648480419  0.2926419199938488   T   T   T
  0.6927999578128762  0.4603616786082969  0.3874276875537102   T   T   T
  0.3380003238067324  0.5726192070362309  0.5133181632755637   T   T   T
  0.5998442185342856  0.5739711912423446  0.3086235740928547   T   T   T
  0.6126611238529888  0.6142389474715908  0.5756135200944857   T   T   T
  0.4386877215180073  0.6175910357603629  0.3248076847730848   T   T   T
  0.5101825255066881  0.3254383420542445  0.2434096672787775   T   T   T
  0.4700930141757949  0.2790410759717012  0.2941426096140972   T   T   T
  0.4926076704363028  0.2865100685422281  0.2563176789478523   T   T   T
  0.4968646507489907  0.2557617023999137  0.2328990213567207   T   T   T
 
  0.00000000E+00  0.00000000E+00  0.00000000E+00
  0.00000000E+00  0.00000000E+00  0.00000000E+00
  0.00000000E+00  0.00000000E+00  0.00000000E+00
  0.00000000E+00  0.00000000E+00  0.00000000E+00
  0.00000000E+00  0.00000000E+00  0.00000000E+00
  0.00000000E+00  0.00000000E+00  0.00000000E+00
  0.00000000E+00  0.00000000E+00  0.00000000E+00
  0.00000000E+00  0.00000000E+00  0.00000000E+00
  0.00000000E+00  0.00000000E+00  0.00000000E+00
  0.00000000E+00  0.00000000E+00  0.00000000E+00
  0.00000000E+00  0.00000000E+00  0.00000000E+00
  0.00000000E+00  0.00000000E+00  0.00000000E+00
  0.00000000E+00  0.00000000E+00  0.00000000E+00
  0.00000000E+00  0.00000000E+00  0.00000000E+00
  0.00000000E+00  0.00000000E+00  0.00000000E+00
  0.00000000E+00  0.00000000E+00  0.00000000E+00
  0.00000000E+00  0.00000000E+00  0.00000000E+00
  0.00000000E+00  0.00000000E+00  0.00000000E+00
  0.00000000E+00  0.00000000E+00  0.00000000E+00
  0.00000000E+00  0.00000000E+00  0.00000000E+00
  0.00000000E+00  0.00000000E+00  0.00000000E+00
  0.00000000E+00  0.00000000E+00  0.00000000E+00
  0.00000000E+00  0.00000000E+00  0.00000000E+00
  0.00000000E+00  0.00000000E+00  0.00000000E+00
  0.00000000E+00  0.00000000E+00  0.00000000E+00
  0.00000000E+00  0.00000000E+00  0.00000000E+00
  0.00000000E+00  0.00000000E+00  0.00000000E+00
  0.00000000E+00  0.00000000E+00  0.00000000E+00
  0.00000000E+00  0.00000000E+00  0.00000000E+00
  0.00000000E+00  0.00000000E+00  0.00000000E+00
  0.00000000E+00  0.00000000E+00  0.00000000E+00
  0.00000000E+00  0.00000000E+00  0.00000000E+00
  0.00000000E+00  0.00000000E+00  0.00000000E+00
  0.00000000E+00  0.00000000E+00  0.00000000E+00
  0.00000000E+00  0.00000000E+00  0.00000000E+00
  0.00000000E+00  0.00000000E+00  0.00000000E+00
  0.00000000E+00  0.00000000E+00  0.00000000E+00
  0.00000000E+00  0.00000000E+00  0.00000000E+00
  0.00000000E+00  0.00000000E+00  0.00000000E+00
  0.00000000E+00  0.00000000E+00  0.00000000E+00
  0.00000000E+00  0.00000000E+00  0.00000000E+00
  0.00000000E+00  0.00000000E+00  0.00000000E+00
  0.00000000E+00  0.00000000E+00  0.00000000E+00
  0.00000000E+00  0.00000000E+00  0.00000000E+00
  0.00000000E+00  0.00000000E+00  0.00000000E+00
  0.00000000E+00  0.00000000E+00  0.00000000E+00
  0.00000000E+00  0.00000000E+00  0.00000000E+00
  0.00000000E+00  0.00000000E+00  0.00000000E+00
  0.00000000E+00  0.00000000E+00  0.00000000E+00
  0.00000000E+00  0.00000000E+00  0.00000000E+00
  0.00000000E+00  0.00000000E+00  0.00000000E+00
  0.00000000E+00  0.00000000E+00  0.00000000E+00
  0.00000000E+00  0.00000000E+00  0.00000000E+00
  0.00000000E+00  0.00000000E+00  0.00000000E+00
  0.00000000E+00  0.00000000E+00  0.00000000E+00
  0.00000000E+00  0.00000000E+00  0.00000000E+00
  0.00000000E+00  0.00000000E+00  0.00000000E+00
  0.00000000E+00  0.00000000E+00  0.00000000E+00
  0.00000000E+00  0.00000000E+00  0.00000000E+00
  0.00000000E+00  0.00000000E+00  0.00000000E+00
  0.00000000E+00  0.00000000E+00  0.00000000E+00
  0.00000000E+00  0.00000000E+00  0.00000000E+00
  0.00000000E+00  0.00000000E+00  0.00000000E+00
  0.00000000E+00  0.00000000E+00  0.00000000E+00
  0.00000000E+00  0.00000000E+00  0.00000000E+00
  0.00000000E+00  0.00000000E+00  0.00000000E+00
  0.00000000E+00  0.00000000E+00  0.00000000E+00
  0.00000000E+00  0.00000000E+00  0.00000000E+00
  0.00000000E+00  0.00000000E+00  0.00000000E+00
  0.00000000E+00  0.00000000E+00  0.00000000E+00
  0.00000000E+00  0.00000000E+00  0.00000000E+00
  0.00000000E+00  0.00000000E+00  0.00000000E+00
