La Co Ni Sn Bi O  C  H                  
   1.00000000000000     
    29.1044006348000011    0.0000000000000000    0.0000000000000000
     0.4451680315000000   28.3694074727000007    0.0000000000000000
     0.0682082826000000    0.3036559964000000   28.5240018092999996
   La   Co   Ni   Sn   Bi   O    C    H 
    14    13    13    14    14     2     1     1
Selective dynamics
Direct
  0.5921710273170128  0.4206028097978783  0.4074915223474534   T   T   T
  0.6859766402597527  0.5707493343790995  0.3816035250794747   T   T   T
  0.4955293140784259  0.5283302038665323  0.2825680573369000   T   T   T
  0.5632430472197395  0.5200372770035360  0.6019103339730317   T   T   T
  0.5088734624780206  0.3873453507500715  0.3052595458043345   T   T   T
  0.5726481619889784  0.6607911721117261  0.4881679519249505   T   T   T
  0.5083111122995002  0.3376708837173508  0.4992257198493462   T   T   T
  0.5354647390266571  0.6378593560831689  0.3765863542210163   T   T   T
  0.4390350938949255  0.6479401330401625  0.5362800372459136   T   T   T
  0.4373551010143757  0.5015757590148624  0.3842817269995109   F   F   F
  0.4437846394494898  0.4460183835780285  0.5005161578087822   F   F   F
  0.3875829613505204  0.4672712113607955  0.6096357898923253   T   T   T
  0.3444269185529987  0.4446225685501377  0.3468989064355908   T   T   T
  0.3621178297854935  0.5863451085988133  0.3945287558394080   T   T   T
  0.4217425606853311  0.4061295180575186  0.3699802678458894   F   F   F
  0.5011311695957161  0.4887203336762909  0.4395023580252015   F   F   F
  0.4044148221271726  0.6101724300038001  0.4624736492929173   F   F   F
  0.4722931245665194  0.5596737886932672  0.5729988711091565   F   F   F
  0.6552684236953183  0.5165424048424470  0.4543399438695133   F   F   F
  0.5967309916701211  0.5535378348504167  0.5056109707055541   F   F   F
  0.5314074673932367  0.5941153005651714  0.5336729985293047   F   F   F
  0.5796732686089143  0.4997731718447866  0.4507473928409595   F   F   F
  0.4606426922124784  0.3310661046463714  0.3442419053316698   T   T   T
  0.3905180950192175  0.5252419063175111  0.4552418453041511   F   F   F
  0.4542635026058167  0.3246674904753114  0.4236816260760183   T   T   T
  0.5074804872141527  0.4592780196109629  0.3501259710292359   F   F   F
  0.6012877811302459  0.4669891268301640  0.5212355700313438   F   F   F
  0.5384608035519776  0.4312182275275163  0.4821288228790692   F   F   F
  0.4713083414346286  0.4805797151798927  0.5807598339419258   F   F   F
  0.3771163837573610  0.4514853175274567  0.4282230665427278   F   F   F
  0.4059018739390154  0.3822235888080883  0.4561785915149272   F   F   F
  0.5357818896390683  0.5680835373033233  0.4543473312664048   F   F   F
  0.4924712632432886  0.6367287407321953  0.4646113344718685   F   F   F
  0.4677327221812249  0.5829886973614862  0.4038343643763724   F   F   F
  0.5280944416629296  0.5063826634733033  0.5194466411805863   F   F   F
  0.6212454441397384  0.5105019604624417  0.3755946010283822   F   F   F
  0.6054499763524817  0.5821019035045651  0.4188664505762958   F   F   F
  0.4050790883739026  0.5245211222763402  0.5434909784116542   F   F   F
  0.3506909936926517  0.4703966983593654  0.5088864855588525   T   T   T
  0.4340555421631890  0.4578929542768867  0.3022123943227978   T   T   T
  0.5376159223396162  0.4211133575346025  0.5684510638331041   T   T   T
  0.3574714026520989  0.3872525177985283  0.5399160370690087   T   T   T
  0.4625951421883201  0.5516617238622956  0.4875128022361963   F   F   F
  0.6063513466726437  0.3750036756728310  0.5099030464559933   T   T   T
  0.4920195571466101  0.4377809169058697  0.6576386994819131   T   T   T
  0.5874397373373140  0.4679994074743608  0.3061007838325057   T   T   T
  0.4900497958562298  0.4037080615820798  0.4151644571778519   F   F   F
  0.4353315060923598  0.6750413567233357  0.4134196995381839   T   T   T
  0.4685099446931340  0.5359531362592411  0.6602428839468779   T   T   T
  0.5397532608265934  0.5319899791087650  0.3771480104995177   F   F   F
  0.6661441105661965  0.6021302406085661  0.4831124450896442   T   T   T
  0.6664974099766159  0.5194455248393566  0.5497024594817373   T   T   T
  0.3746286482579999  0.3348437789243023  0.3848643811449820   T   T   T
  0.6787361696005096  0.4361786798658366  0.4863705293661428   T   T   T
  0.5395450547757104  0.3187242036262643  0.3914691401811102   T   T   T
  0.3025158563600673  0.5033448003039219  0.4367761974968574   T   T   T
  0.3134079191994719  0.3961569347986375  0.4496483958883012   T   T   T
  0.5136691120986253  0.6228656794688400  0.6181496842645390   T   T   T
  0.4485049754387133  0.3739569350472601  0.5852232375516796   T   T   T
  0.3918808730213472  0.5816230520170022  0.6120465026761399   T   T   T
  0.4044177307942971  0.3055919268990022  0.5006490622223885   T   T   T
  0.4026008739632188  0.3724229609886554  0.2868797151727044   T   T   T
  0.3836712330621239  0.5343999237796470  0.2927464775981397   T   T   T
  0.6925185776940945  0.4600449394953691  0.3871842875765790   T   T   T
  0.3380728244057342  0.5727012300861150  0.5131411518477494   T   T   T
  0.5999397594565096  0.5731133723638187  0.3086407110093412   T   T   T
  0.6128624304101281  0.6130931618531504  0.5762514730506491   T   T   T
  0.4403575036167192  0.6157521414385202  0.3240966462252348   T   T   T
  0.4706648041956973  0.7243496529823907  0.5564490988508605   T   T   T
  0.5442248960515895  0.7297471029239954  0.5303644596753324   T   T   T
  0.5094302971024538  0.7441915066642247  0.5535310400777983   T   T   T
  0.5134197477070416  0.7773294791829236  0.5734708769291443   T   T   T
 
  0.00000000E+00  0.00000000E+00  0.00000000E+00
  0.00000000E+00  0.00000000E+00  0.00000000E+00
  0.00000000E+00  0.00000000E+00  0.00000000E+00
  0.00000000E+00  0.00000000E+00  0.00000000E+00
  0.00000000E+00  0.00000000E+00  0.00000000E+00
  0.00000000E+00  0.00000000E+00  0.00000000E+00
  0.00000000E+00  0.00000000E+00  0.00000000E+00
  0.00000000E+00  0.00000000E+00  0.00000000E+00
  0.00000000E+00  0.00000000E+00  0.00000000E+00
  0.00000000E+00  0.00000000E+00  0.00000000E+00
  0.00000000E+00  0.00000000E+00  0.00000000E+00
  0.00000000E+00  0.00000000E+00  0.00000000E+00
  0.00000000E+00  0.00000000E+00  0.00000000E+00
  0.00000000E+00  0.00000000E+00  0.00000000E+00
  0.00000000E+00  0.00000000E+00  0.00000000E+00
  0.00000000E+00  0.00000000E+00  0.00000000E+00
  0.00000000E+00  0.00000000E+00  0.00000000E+00
  0.00000000E+00  0.00000000E+00  0.00000000E+00
  0.00000000E+00  0.00000000E+00  0.00000000E+00
  0.00000000E+00  0.00000000E+00  0.00000000E+00
  0.00000000E+00  0.00000000E+00  0.00000000E+00
  0.00000000E+00  0.00000000E+00  0.00000000E+00
  0.00000000E+00  0.00000000E+00  0.00000000E+00
  0.00000000E+00  0.00000000E+00  0.00000000E+00
  0.00000000E+00  0.00000000E+00  0.00000000E+00
  0.00000000E+00  0.00000000E+00  0.00000000E+00
  0.00000000E+00  0.00000000E+00  0.00000000E+00
  0.00000000E+00  0.00000000E+00  0.00000000E+00
  0.00000000E+00  0.00000000E+00  0.00000000E+00
  0.00000000E+00  0.00000000E+00  0.00000000E+00
  0.00000000E+00  0.00000000E+00  0.00000000E+00
  0.00000000E+00  0.00000000E+00  0.00000000E+00
  0.00000000E+00  0.00000000E+00  0.00000000E+00
  0.00000000E+00  0.00000000E+00  0.00000000E+00
  0.00000000E+00  0.00000000E+00  0.00000000E+00
  0.00000000E+00  0.00000000E+00  0.00000000E+00
  0.00000000E+00  0.00000000E+00  0.00000000E+00
  0.00000000E+00  0.00000000E+00  0.00000000E+00
  0.00000000E+00  0.00000000E+00  0.00000000E+00
  0.00000000E+00  0.00000000E+00  0.00000000E+00
  0.00000000E+00  0.00000000E+00  0.00000000E+00
  0.00000000E+00  0.00000000E+00  0.00000000E+00
  0.00000000E+00  0.00000000E+00  0.00000000E+00
  0.00000000E+00  0.00000000E+00  0.00000000E+00
  0.00000000E+00  0.00000000E+00  0.00000000E+00
  0.00000000E+00  0.00000000E+00  0.00000000E+00
  0.00000000E+00  0.00000000E+00  0.00000000E+00
  0.00000000E+00  0.00000000E+00  0.00000000E+00
  0.00000000E+00  0.00000000E+00  0.00000000E+00
  0.00000000E+00  0.00000000E+00  0.00000000E+00
  0.00000000E+00  0.00000000E+00  0.00000000E+00
  0.00000000E+00  0.00000000E+00  0.00000000E+00
  0.00000000E+00  0.00000000E+00  0.00000000E+00
  0.00000000E+00  0.00000000E+00  0.00000000E+00
  0.00000000E+00  0.00000000E+00  0.00000000E+00
  0.00000000E+00  0.00000000E+00  0.00000000E+00
  0.00000000E+00  0.00000000E+00  0.00000000E+00
  0.00000000E+00  0.00000000E+00  0.00000000E+00
  0.00000000E+00  0.00000000E+00  0.00000000E+00
  0.00000000E+00  0.00000000E+00  0.00000000E+00
  0.00000000E+00  0.00000000E+00  0.00000000E+00
  0.00000000E+00  0.00000000E+00  0.00000000E+00
  0.00000000E+00  0.00000000E+00  0.00000000E+00
  0.00000000E+00  0.00000000E+00  0.00000000E+00
  0.00000000E+00  0.00000000E+00  0.00000000E+00
  0.00000000E+00  0.00000000E+00  0.00000000E+00
  0.00000000E+00  0.00000000E+00  0.00000000E+00
  0.00000000E+00  0.00000000E+00  0.00000000E+00
  0.00000000E+00  0.00000000E+00  0.00000000E+00
  0.00000000E+00  0.00000000E+00  0.00000000E+00
  0.00000000E+00  0.00000000E+00  0.00000000E+00
  0.00000000E+00  0.00000000E+00  0.00000000E+00
