La Co Ni Sn Bi O  C  H                  
   1.00000000000000     
    29.1044006348000011    0.0000000000000000    0.0000000000000000
     0.4451680315000000   28.3694074727000007    0.0000000000000000
     0.0682082826000000    0.3036559964000000   28.5240018092999996
   La   Co   Ni   Sn   Bi   O    C    H 
    14    13    13    14    14     2     1     1
Selective dynamics
Direct
  0.5921201540165520  0.4204583119971566  0.4076501080850977   T   T   T
  0.6849602467108535  0.5710978831540904  0.3804978068358205   T   T   T
  0.4961379042431982  0.5249541362796414  0.2782180195684057   T   T   T
  0.5624410359796036  0.5214249092850513  0.6020433306747067   T   T   T
  0.5082875275727965  0.3915150075663721  0.3018049713909012   T   T   T
  0.5753049516126865  0.6554844749912463  0.4834954645576833   T   T   T
  0.5100010590141909  0.3374934345870326  0.4980348030168515   T   T   T
  0.5353114117819783  0.6377173096083855  0.3752267046320867   T   T   T
  0.4357775279062902  0.6429735201610900  0.5359685250920015   T   T   T
  0.4373551010143757  0.5015757590148624  0.3842817269995109   F   F   F
  0.4437846394494898  0.4460183835780285  0.5005161578087822   F   F   F
  0.3877989866419995  0.4660964426551914  0.6093202198546124   T   T   T
  0.3439772166036260  0.4444991473754871  0.3469119128261340   T   T   T
  0.3622206640520357  0.5858410651758084  0.3936145741445210   T   T   T
  0.4217425606853311  0.4061295180575186  0.3699802678458894   F   F   F
  0.5011311695957161  0.4887203336762909  0.4395023580252015   F   F   F
  0.4044148221271726  0.6101724300038001  0.4624736492929173   F   F   F
  0.4722931245665194  0.5596737886932672  0.5729988711091565   F   F   F
  0.6552684236953183  0.5165424048424470  0.4543399438695133   F   F   F
  0.5967309916701211  0.5535378348504167  0.5056109707055541   F   F   F
  0.5314074673932367  0.5941153005651714  0.5336729985293047   F   F   F
  0.5796732686089143  0.4997731718447866  0.4507473928409595   F   F   F
  0.4589446249583163  0.3295403677788720  0.3446998283022602   T   T   T
  0.3905180950192175  0.5252419063175111  0.4552418453041511   F   F   F
  0.4542769438699538  0.3246488122482165  0.4236882676581448   T   T   T
  0.5074804872141527  0.4592780196109629  0.3501259710292359   F   F   F
  0.6012877811302459  0.4669891268301640  0.5212355700313438   F   F   F
  0.5384608035519776  0.4312182275275163  0.4821288228790692   F   F   F
  0.4713083414346286  0.4805797151798927  0.5807598339419258   F   F   F
  0.3771163837573610  0.4514853175274567  0.4282230665427278   F   F   F
  0.4059018739390154  0.3822235888080883  0.4561785915149272   F   F   F
  0.5357818896390683  0.5680835373033233  0.4543473312664048   F   F   F
  0.4924712632432886  0.6367287407321953  0.4646113344718685   F   F   F
  0.4677327221812249  0.5829886973614862  0.4038343643763724   F   F   F
  0.5280944416629296  0.5063826634733033  0.5194466411805863   F   F   F
  0.6212454441397384  0.5105019604624417  0.3755946010283822   F   F   F
  0.6054499763524817  0.5821019035045651  0.4188664505762958   F   F   F
  0.4050790883739026  0.5245211222763402  0.5434909784116542   F   F   F
  0.3509517129494138  0.4701233520520545  0.5088434925606379   T   T   T
  0.4317574136650281  0.4576924272020596  0.3033334439433427   T   T   T
  0.5378942584878325  0.4214547434458648  0.5686410050269742   T   T   T
  0.3575685859260934  0.3866468706763865  0.5391445658115905   T   T   T
  0.4625951421883201  0.5516617238622956  0.4875128022361963   F   F   F
  0.6070716942608655  0.3757743196706615  0.5102823965020675   T   T   T
  0.4917207904448820  0.4378886295455807  0.6574367625293892   T   T   T
  0.5891669385583264  0.4680648864462661  0.3069272694096064   T   T   T
  0.4900497958562298  0.4037080615820798  0.4151644571778519   F   F   F
  0.4355059589827354  0.6742464347339499  0.4122335571891997   T   T   T
  0.4685978356430703  0.5363183863044850  0.6601991451640260   T   T   T
  0.5397532608265934  0.5319899791087650  0.3771480104995177   F   F   F
  0.6685853262232441  0.6002438044396797  0.4834799510058369   T   T   T
  0.6657877454142711  0.5192109342459148  0.5506952619800481   T   T   T
  0.3740330894055292  0.3348310968645981  0.3850570380803967   T   T   T
  0.6793195234512022  0.4368424140721699  0.4866384082046948   T   T   T
  0.5389918317374022  0.3195796241579124  0.3888497838809482   T   T   T
  0.3026462140840910  0.5033930149224399  0.4368119718312531   T   T   T
  0.3133435056774936  0.3956545921786479  0.4489093991637279   T   T   T
  0.5125297419676981  0.6249182077435624  0.6170402784947855   T   T   T
  0.4493174511223754  0.3732525378101389  0.5843917531056713   T   T   T
  0.3904947615901961  0.5796708804004876  0.6135415901054837   T   T   T
  0.4061412657317529  0.3053312923351013  0.5007777649655299   T   T   T
  0.4015493754513212  0.3712417682563351  0.2875254128832920   T   T   T
  0.3835239603297792  0.5341300261147401  0.2922386622202093   T   T   T
  0.6924066478274928  0.4601513522719472  0.3869522854981576   T   T   T
  0.3377394696846673  0.5724750324300835  0.5127374677918577   T   T   T
  0.5988834649569493  0.5724576937259142  0.3075277893890114   T   T   T
  0.6127473614848160  0.6140884182626097  0.5755008069719929   T   T   T
  0.4414484215068636  0.6135348847618688  0.3231423705772619   T   T   T
  0.5011711744130094  0.4431448628439719  0.2293848147845167   T   T   T
  0.5092141848457378  0.5128201197310838  0.1921534154131505   T   T   T
  0.5073632302761860  0.4682025892927492  0.1921111167351333   T   T   T
  0.5111705118873632  0.4493639258939962  0.1583374042287786   T   T   T
 
  0.00000000E+00  0.00000000E+00  0.00000000E+00
  0.00000000E+00  0.00000000E+00  0.00000000E+00
  0.00000000E+00  0.00000000E+00  0.00000000E+00
  0.00000000E+00  0.00000000E+00  0.00000000E+00
  0.00000000E+00  0.00000000E+00  0.00000000E+00
  0.00000000E+00  0.00000000E+00  0.00000000E+00
  0.00000000E+00  0.00000000E+00  0.00000000E+00
  0.00000000E+00  0.00000000E+00  0.00000000E+00
  0.00000000E+00  0.00000000E+00  0.00000000E+00
  0.00000000E+00  0.00000000E+00  0.00000000E+00
  0.00000000E+00  0.00000000E+00  0.00000000E+00
  0.00000000E+00  0.00000000E+00  0.00000000E+00
  0.00000000E+00  0.00000000E+00  0.00000000E+00
  0.00000000E+00  0.00000000E+00  0.00000000E+00
  0.00000000E+00  0.00000000E+00  0.00000000E+00
  0.00000000E+00  0.00000000E+00  0.00000000E+00
  0.00000000E+00  0.00000000E+00  0.00000000E+00
  0.00000000E+00  0.00000000E+00  0.00000000E+00
  0.00000000E+00  0.00000000E+00  0.00000000E+00
  0.00000000E+00  0.00000000E+00  0.00000000E+00
  0.00000000E+00  0.00000000E+00  0.00000000E+00
  0.00000000E+00  0.00000000E+00  0.00000000E+00
  0.00000000E+00  0.00000000E+00  0.00000000E+00
  0.00000000E+00  0.00000000E+00  0.00000000E+00
  0.00000000E+00  0.00000000E+00  0.00000000E+00
  0.00000000E+00  0.00000000E+00  0.00000000E+00
  0.00000000E+00  0.00000000E+00  0.00000000E+00
  0.00000000E+00  0.00000000E+00  0.00000000E+00
  0.00000000E+00  0.00000000E+00  0.00000000E+00
  0.00000000E+00  0.00000000E+00  0.00000000E+00
  0.00000000E+00  0.00000000E+00  0.00000000E+00
  0.00000000E+00  0.00000000E+00  0.00000000E+00
  0.00000000E+00  0.00000000E+00  0.00000000E+00
  0.00000000E+00  0.00000000E+00  0.00000000E+00
  0.00000000E+00  0.00000000E+00  0.00000000E+00
  0.00000000E+00  0.00000000E+00  0.00000000E+00
  0.00000000E+00  0.00000000E+00  0.00000000E+00
  0.00000000E+00  0.00000000E+00  0.00000000E+00
  0.00000000E+00  0.00000000E+00  0.00000000E+00
  0.00000000E+00  0.00000000E+00  0.00000000E+00
  0.00000000E+00  0.00000000E+00  0.00000000E+00
  0.00000000E+00  0.00000000E+00  0.00000000E+00
  0.00000000E+00  0.00000000E+00  0.00000000E+00
  0.00000000E+00  0.00000000E+00  0.00000000E+00
  0.00000000E+00  0.00000000E+00  0.00000000E+00
  0.00000000E+00  0.00000000E+00  0.00000000E+00
  0.00000000E+00  0.00000000E+00  0.00000000E+00
  0.00000000E+00  0.00000000E+00  0.00000000E+00
  0.00000000E+00  0.00000000E+00  0.00000000E+00
  0.00000000E+00  0.00000000E+00  0.00000000E+00
  0.00000000E+00  0.00000000E+00  0.00000000E+00
  0.00000000E+00  0.00000000E+00  0.00000000E+00
  0.00000000E+00  0.00000000E+00  0.00000000E+00
  0.00000000E+00  0.00000000E+00  0.00000000E+00
  0.00000000E+00  0.00000000E+00  0.00000000E+00
  0.00000000E+00  0.00000000E+00  0.00000000E+00
  0.00000000E+00  0.00000000E+00  0.00000000E+00
  0.00000000E+00  0.00000000E+00  0.00000000E+00
  0.00000000E+00  0.00000000E+00  0.00000000E+00
  0.00000000E+00  0.00000000E+00  0.00000000E+00
  0.00000000E+00  0.00000000E+00  0.00000000E+00
  0.00000000E+00  0.00000000E+00  0.00000000E+00
  0.00000000E+00  0.00000000E+00  0.00000000E+00
  0.00000000E+00  0.00000000E+00  0.00000000E+00
  0.00000000E+00  0.00000000E+00  0.00000000E+00
  0.00000000E+00  0.00000000E+00  0.00000000E+00
  0.00000000E+00  0.00000000E+00  0.00000000E+00
  0.00000000E+00  0.00000000E+00  0.00000000E+00
  0.00000000E+00  0.00000000E+00  0.00000000E+00
  0.00000000E+00  0.00000000E+00  0.00000000E+00
  0.00000000E+00  0.00000000E+00  0.00000000E+00
  0.00000000E+00  0.00000000E+00  0.00000000E+00
