La Co Ni Sn Bi O  C  H                  
   1.00000000000000     
    29.1044006348000011    0.0000000000000000    0.0000000000000000
     0.4451680315000000   28.3694074727000007    0.0000000000000000
     0.0682082826000000    0.3036559964000000   28.5240018092999996
   La   Co   Ni   Sn   Bi   O    C    H 
    14    13    13    14    14     2     1     1
Selective dynamics
Direct
  0.5921047445120394  0.4204063468780516  0.4074502107502324   T   T   T
  0.6855714096774280  0.5709812196334784  0.3812177337836115   T   T   T
  0.4953026603650330  0.5277650141331396  0.2825222590271198   T   T   T
  0.5626537652522403  0.5217130790183819  0.6016736746246704   T   T   T
  0.5089107115091807  0.3869296748414546  0.3054696121665237   T   T   T
  0.5751928337806127  0.6554799097176390  0.4834068687435707   T   T   T
  0.5083729493358111  0.3383580980488829  0.4999700440729176   T   T   T
  0.5349551638538057  0.6376418725262462  0.3751188788544480   T   T   T
  0.4363535378538229  0.6438948050350944  0.5353200609111515   T   T   T
  0.4373551010143757  0.5015757590148624  0.3842817269995109   F   F   F
  0.4437846394494898  0.4460183835780285  0.5005161578087822   F   F   F
  0.3840868129073027  0.4668771811265817  0.6132948553421197   T   T   T
  0.3442252885139036  0.4442886915830486  0.3468669247648760   T   T   T
  0.3617111327991571  0.5860503071701276  0.3937789770186876   T   T   T
  0.4217425606853311  0.4061295180575186  0.3699802678458894   F   F   F
  0.5011311695957161  0.4887203336762909  0.4395023580252015   F   F   F
  0.4044148221271726  0.6101724300038001  0.4624736492929173   F   F   F
  0.4722931245665194  0.5596737886932672  0.5729988711091565   F   F   F
  0.6552684236953183  0.5165424048424470  0.4543399438695133   F   F   F
  0.5967309916701211  0.5535378348504167  0.5056109707055541   F   F   F
  0.5314074673932367  0.5941153005651714  0.5336729985293047   F   F   F
  0.5796732686089143  0.4997731718447866  0.4507473928409595   F   F   F
  0.4605659839319544  0.3307507110713072  0.3445977755955202   T   T   T
  0.3905180950192175  0.5252419063175111  0.4552418453041511   F   F   F
  0.4539216711212922  0.3244419522303850  0.4239298336468748   T   T   T
  0.5074804872141527  0.4592780196109629  0.3501259710292359   F   F   F
  0.6012877811302459  0.4669891268301640  0.5212355700313438   F   F   F
  0.5384608035519776  0.4312182275275163  0.4821288228790692   F   F   F
  0.4713083414346286  0.4805797151798927  0.5807598339419258   F   F   F
  0.3771163837573610  0.4514853175274567  0.4282230665427278   F   F   F
  0.4059018739390154  0.3822235888080883  0.4561785915149272   F   F   F
  0.5357818896390683  0.5680835373033233  0.4543473312664048   F   F   F
  0.4924712632432886  0.6367287407321953  0.4646113344718685   F   F   F
  0.4677327221812249  0.5829886973614862  0.4038343643763724   F   F   F
  0.5280944416629296  0.5063826634733033  0.5194466411805863   F   F   F
  0.6212454441397384  0.5105019604624417  0.3755946010283822   F   F   F
  0.6054499763524817  0.5821019035045651  0.4188664505762958   F   F   F
  0.4050790883739026  0.5245211222763402  0.5434909784116542   F   F   F
  0.3501837152837721  0.4706570504480494  0.5082277882574646   T   T   T
  0.4337510408870978  0.4574789355318025  0.3021489184859462   T   T   T
  0.5390522008868984  0.4217877356023689  0.5685312896578292   T   T   T
  0.3585091720134739  0.3878727375256552  0.5399974005729002   T   T   T
  0.4625951421883201  0.5516617238622956  0.4875128022361963   F   F   F
  0.6066115693181307  0.3747919563596099  0.5094243550186458   T   T   T
  0.4947429600244987  0.4379470138439651  0.6573928078548216   T   T   T
  0.5872551759567937  0.4677052391061109  0.3062453623333387   T   T   T
  0.4900497958562298  0.4037080615820798  0.4151644571778519   F   F   F
  0.4354484092387449  0.6747906532102663  0.4128848986453311   T   T   T
  0.4685045921323348  0.5363733923242243  0.6597248453472480   T   T   T
  0.5397532608265934  0.5319899791087650  0.3771480104995177   F   F   F
  0.6684107063478391  0.6005514190730460  0.4836477799410237   T   T   T
  0.6658231891388290  0.5193171017497227  0.5505173972055033   T   T   T
  0.3741986911297572  0.3351186858755936  0.3848880538908662   T   T   T
  0.6787449411138091  0.4363933726868884  0.4868108495210936   T   T   T
  0.5392957001168055  0.3183913103115906  0.3920771350161812   T   T   T
  0.3024399969499912  0.5033776670355153  0.4361203414219391   T   T   T
  0.3133494494657948  0.3961865248866286  0.4499518115757767   T   T   T
  0.5120785805294187  0.6249866427684813  0.6170387127257474   T   T   T
  0.4495874494821991  0.3761451354823647  0.5866704851786375   T   T   T
  0.3917324813759075  0.5808847368659424  0.6128767196678351   T   T   T
  0.4049154829355056  0.3058908736949528  0.5014284506516498   T   T   T
  0.4025612083091467  0.3718407885258265  0.2869821532211088   T   T   T
  0.3835282156638196  0.5338636965241838  0.2925865251291249   T   T   T
  0.6925466146903829  0.4600962142427097  0.3875420361564884   T   T   T
  0.3377044209789033  0.5722411735889595  0.5129425799978871   T   T   T
  0.5996347655579229  0.5725624448005010  0.3080868437037013   T   T   T
  0.6124887644475481  0.6143785918036516  0.5754379224713855   T   T   T
  0.4399401486559725  0.6153965730696549  0.3237516785019392   T   T   T
  0.3311966221875714  0.4837899376290801  0.6807076971035415   T   T   T
  0.3909375365768518  0.4342495070998975  0.6955414709717448   T   T   T
  0.3554530344033646  0.4580179920373818  0.7085242085254336   T   T   T
  0.3453483061049338  0.4561563340128296  0.7460934781884696   T   T   T
 
  0.00000000E+00  0.00000000E+00  0.00000000E+00
  0.00000000E+00  0.00000000E+00  0.00000000E+00
  0.00000000E+00  0.00000000E+00  0.00000000E+00
  0.00000000E+00  0.00000000E+00  0.00000000E+00
  0.00000000E+00  0.00000000E+00  0.00000000E+00
  0.00000000E+00  0.00000000E+00  0.00000000E+00
  0.00000000E+00  0.00000000E+00  0.00000000E+00
  0.00000000E+00  0.00000000E+00  0.00000000E+00
  0.00000000E+00  0.00000000E+00  0.00000000E+00
  0.00000000E+00  0.00000000E+00  0.00000000E+00
  0.00000000E+00  0.00000000E+00  0.00000000E+00
  0.00000000E+00  0.00000000E+00  0.00000000E+00
  0.00000000E+00  0.00000000E+00  0.00000000E+00
  0.00000000E+00  0.00000000E+00  0.00000000E+00
  0.00000000E+00  0.00000000E+00  0.00000000E+00
  0.00000000E+00  0.00000000E+00  0.00000000E+00
  0.00000000E+00  0.00000000E+00  0.00000000E+00
  0.00000000E+00  0.00000000E+00  0.00000000E+00
  0.00000000E+00  0.00000000E+00  0.00000000E+00
  0.00000000E+00  0.00000000E+00  0.00000000E+00
  0.00000000E+00  0.00000000E+00  0.00000000E+00
  0.00000000E+00  0.00000000E+00  0.00000000E+00
  0.00000000E+00  0.00000000E+00  0.00000000E+00
  0.00000000E+00  0.00000000E+00  0.00000000E+00
  0.00000000E+00  0.00000000E+00  0.00000000E+00
  0.00000000E+00  0.00000000E+00  0.00000000E+00
  0.00000000E+00  0.00000000E+00  0.00000000E+00
  0.00000000E+00  0.00000000E+00  0.00000000E+00
  0.00000000E+00  0.00000000E+00  0.00000000E+00
  0.00000000E+00  0.00000000E+00  0.00000000E+00
  0.00000000E+00  0.00000000E+00  0.00000000E+00
  0.00000000E+00  0.00000000E+00  0.00000000E+00
  0.00000000E+00  0.00000000E+00  0.00000000E+00
  0.00000000E+00  0.00000000E+00  0.00000000E+00
  0.00000000E+00  0.00000000E+00  0.00000000E+00
  0.00000000E+00  0.00000000E+00  0.00000000E+00
  0.00000000E+00  0.00000000E+00  0.00000000E+00
  0.00000000E+00  0.00000000E+00  0.00000000E+00
  0.00000000E+00  0.00000000E+00  0.00000000E+00
  0.00000000E+00  0.00000000E+00  0.00000000E+00
  0.00000000E+00  0.00000000E+00  0.00000000E+00
  0.00000000E+00  0.00000000E+00  0.00000000E+00
  0.00000000E+00  0.00000000E+00  0.00000000E+00
  0.00000000E+00  0.00000000E+00  0.00000000E+00
  0.00000000E+00  0.00000000E+00  0.00000000E+00
  0.00000000E+00  0.00000000E+00  0.00000000E+00
  0.00000000E+00  0.00000000E+00  0.00000000E+00
  0.00000000E+00  0.00000000E+00  0.00000000E+00
  0.00000000E+00  0.00000000E+00  0.00000000E+00
  0.00000000E+00  0.00000000E+00  0.00000000E+00
  0.00000000E+00  0.00000000E+00  0.00000000E+00
  0.00000000E+00  0.00000000E+00  0.00000000E+00
  0.00000000E+00  0.00000000E+00  0.00000000E+00
  0.00000000E+00  0.00000000E+00  0.00000000E+00
  0.00000000E+00  0.00000000E+00  0.00000000E+00
  0.00000000E+00  0.00000000E+00  0.00000000E+00
  0.00000000E+00  0.00000000E+00  0.00000000E+00
  0.00000000E+00  0.00000000E+00  0.00000000E+00
  0.00000000E+00  0.00000000E+00  0.00000000E+00
  0.00000000E+00  0.00000000E+00  0.00000000E+00
  0.00000000E+00  0.00000000E+00  0.00000000E+00
  0.00000000E+00  0.00000000E+00  0.00000000E+00
  0.00000000E+00  0.00000000E+00  0.00000000E+00
  0.00000000E+00  0.00000000E+00  0.00000000E+00
  0.00000000E+00  0.00000000E+00  0.00000000E+00
  0.00000000E+00  0.00000000E+00  0.00000000E+00
  0.00000000E+00  0.00000000E+00  0.00000000E+00
  0.00000000E+00  0.00000000E+00  0.00000000E+00
  0.00000000E+00  0.00000000E+00  0.00000000E+00
  0.00000000E+00  0.00000000E+00  0.00000000E+00
  0.00000000E+00  0.00000000E+00  0.00000000E+00
  0.00000000E+00  0.00000000E+00  0.00000000E+00
