La Co Ni Sn Bi O  C  H                  
   1.00000000000000     
    29.1044006348000011    0.0000000000000000    0.0000000000000000
     0.4451680315000000   28.3694074727000007    0.0000000000000000
     0.0682082826000000    0.3036559964000000   28.5240018092999996
   La   Co   Ni   Sn   Bi   O    C    H 
    14    13    13    14    14     2     1     1
Selective dynamics
Direct
  0.5923117022561171  0.4207062402592918  0.4074059729627466   T   T   T
  0.6854043762625623  0.5713079878202415  0.3812278046192789   T   T   T
  0.4950428165748451  0.5287161272290326  0.2828305895123706   T   T   T
  0.5628286967599506  0.5209234860292875  0.6018738304526318   T   T   T
  0.5086273041895648  0.3876000652304624  0.3050222195984041   T   T   T
  0.5746248487928358  0.6557814097522998  0.4840674102946482   T   T   T
  0.5085443710433126  0.3374595908130634  0.4988453503522578   T   T   T
  0.5348341798333399  0.6377843729372239  0.3756591053272280   T   T   T
  0.4311908313127434  0.6475623004455686  0.5363965610065992   T   T   T
  0.4373551010143757  0.5015757590148624  0.3842817269995109   F   F   F
  0.4437846394494898  0.4460183835780285  0.5005161578087822   F   F   F
  0.3876940810490068  0.4654367720257474  0.6092499491469977   T   T   T
  0.3441777306899457  0.4448224084398139  0.3472183477898483   T   T   T
  0.3615415204938734  0.5862532886237086  0.3945906604979448   T   T   T
  0.4217425606853311  0.4061295180575186  0.3699802678458894   F   F   F
  0.5011311695957161  0.4887203336762909  0.4395023580252015   F   F   F
  0.4044148221271726  0.6101724300038001  0.4624736492929173   F   F   F
  0.4722931245665194  0.5596737886932672  0.5729988711091565   F   F   F
  0.6552684236953183  0.5165424048424470  0.4543399438695133   F   F   F
  0.5967309916701211  0.5535378348504167  0.5056109707055541   F   F   F
  0.5314074673932367  0.5941153005651714  0.5336729985293047   F   F   F
  0.5796732686089143  0.4997731718447866  0.4507473928409595   F   F   F
  0.4608825601400691  0.3313208488103205  0.3433203736495049   T   T   T
  0.3905180950192175  0.5252419063175111  0.4552418453041511   F   F   F
  0.4542010559720467  0.3248836382861185  0.4226408780090282   T   T   T
  0.5074804872141527  0.4592780196109629  0.3501259710292359   F   F   F
  0.6012877811302459  0.4669891268301640  0.5212355700313438   F   F   F
  0.5384608035519776  0.4312182275275163  0.4821288228790692   F   F   F
  0.4713083414346286  0.4805797151798927  0.5807598339419258   F   F   F
  0.3771163837573610  0.4514853175274567  0.4282230665427278   F   F   F
  0.4059018739390154  0.3822235888080883  0.4561785915149272   F   F   F
  0.5357818896390683  0.5680835373033233  0.4543473312664048   F   F   F
  0.4924712632432886  0.6367287407321953  0.4646113344718685   F   F   F
  0.4677327221812249  0.5829886973614862  0.4038343643763724   F   F   F
  0.5280944416629296  0.5063826634733033  0.5194466411805863   F   F   F
  0.6212454441397384  0.5105019604624417  0.3755946010283822   F   F   F
  0.6054499763524817  0.5821019035045651  0.4188664505762958   F   F   F
  0.4050790883739026  0.5245211222763402  0.5434909784116542   F   F   F
  0.3510889727833605  0.4698308245799797  0.5088682200014206   T   T   T
  0.4336933374854759  0.4580979913040371  0.3022644709413846   T   T   T
  0.5375578578415515  0.4213012656431659  0.5684196008081437   T   T   T
  0.3576836770160914  0.3862019579916419  0.5391883754892498   T   T   T
  0.4625951421883201  0.5516617238622956  0.4875128022361963   F   F   F
  0.6062381509647591  0.3750482360601091  0.5098553560033710   T   T   T
  0.4916124307260009  0.4366035627279501  0.6572460253069262   T   T   T
  0.5871380416049862  0.4682893013155770  0.3059750643754128   T   T   T
  0.4900497958562298  0.4037080615820798  0.4151644571778519   F   F   F
  0.4352258236064281  0.6748817761096040  0.4134128642468967   T   T   T
  0.4694173055778717  0.5351164439221047  0.6603833309038718   T   T   T
  0.5397532608265934  0.5319899791087650  0.3771480104995177   F   F   F
  0.6679871150090284  0.6006275333286786  0.4839527845791568   T   T   T
  0.6659746364235931  0.5189885416024771  0.5503511348486939   T   T   T
  0.3744706624293230  0.3349261457807937  0.3845549580442310   T   T   T
  0.6785863575099582  0.4362877937634878  0.4862927583891309   T   T   T
  0.5397017509059501  0.3190525369338101  0.3910882754637941   T   T   T
  0.3024099563367796  0.5032145737527376  0.4374198223847879   T   T   T
  0.3134107332432094  0.3955316177171462  0.4491505187122733   T   T   T
  0.5116092800978924  0.6246801964000942  0.6162594357953965   T   T   T
  0.4486380293155468  0.3727961098554677  0.5845155255999224   T   T   T
  0.3920509627137411  0.5789540370852787  0.6140211082987749   T   T   T
  0.4047652469583908  0.3046803999784443  0.4993502137184717   T   T   T
  0.4020852901018362  0.3726677925445470  0.2868545232281472   T   T   T
  0.3833076274141354  0.5344437820890237  0.2928502369680721   T   T   T
  0.6928249375520409  0.4605176977632079  0.3870753943328459   T   T   T
  0.3376035123553951  0.5721580621876490  0.5130446063838906   T   T   T
  0.5996283107943409  0.5731717476243240  0.3084317426473818   T   T   T
  0.6122733611965920  0.6139540150125479  0.5759514599110992   T   T   T
  0.4395863552344274  0.6160045853043069  0.3242648100505926   T   T   T
  0.3485375573379959  0.6766329217900007  0.5515446152360948   T   T   T
  0.4064142430428736  0.7233412316911325  0.5738209923216974   T   T   T
  0.3636347180686625  0.7138712245921501  0.5705022239448546   T   T   T
  0.3381681908408099  0.7395520487965642  0.5851072976593912   T   T   T
 
  0.00000000E+00  0.00000000E+00  0.00000000E+00
  0.00000000E+00  0.00000000E+00  0.00000000E+00
  0.00000000E+00  0.00000000E+00  0.00000000E+00
  0.00000000E+00  0.00000000E+00  0.00000000E+00
  0.00000000E+00  0.00000000E+00  0.00000000E+00
  0.00000000E+00  0.00000000E+00  0.00000000E+00
  0.00000000E+00  0.00000000E+00  0.00000000E+00
  0.00000000E+00  0.00000000E+00  0.00000000E+00
  0.00000000E+00  0.00000000E+00  0.00000000E+00
  0.00000000E+00  0.00000000E+00  0.00000000E+00
  0.00000000E+00  0.00000000E+00  0.00000000E+00
  0.00000000E+00  0.00000000E+00  0.00000000E+00
  0.00000000E+00  0.00000000E+00  0.00000000E+00
  0.00000000E+00  0.00000000E+00  0.00000000E+00
  0.00000000E+00  0.00000000E+00  0.00000000E+00
  0.00000000E+00  0.00000000E+00  0.00000000E+00
  0.00000000E+00  0.00000000E+00  0.00000000E+00
  0.00000000E+00  0.00000000E+00  0.00000000E+00
  0.00000000E+00  0.00000000E+00  0.00000000E+00
  0.00000000E+00  0.00000000E+00  0.00000000E+00
  0.00000000E+00  0.00000000E+00  0.00000000E+00
  0.00000000E+00  0.00000000E+00  0.00000000E+00
  0.00000000E+00  0.00000000E+00  0.00000000E+00
  0.00000000E+00  0.00000000E+00  0.00000000E+00
  0.00000000E+00  0.00000000E+00  0.00000000E+00
  0.00000000E+00  0.00000000E+00  0.00000000E+00
  0.00000000E+00  0.00000000E+00  0.00000000E+00
  0.00000000E+00  0.00000000E+00  0.00000000E+00
  0.00000000E+00  0.00000000E+00  0.00000000E+00
  0.00000000E+00  0.00000000E+00  0.00000000E+00
  0.00000000E+00  0.00000000E+00  0.00000000E+00
  0.00000000E+00  0.00000000E+00  0.00000000E+00
  0.00000000E+00  0.00000000E+00  0.00000000E+00
  0.00000000E+00  0.00000000E+00  0.00000000E+00
  0.00000000E+00  0.00000000E+00  0.00000000E+00
  0.00000000E+00  0.00000000E+00  0.00000000E+00
  0.00000000E+00  0.00000000E+00  0.00000000E+00
  0.00000000E+00  0.00000000E+00  0.00000000E+00
  0.00000000E+00  0.00000000E+00  0.00000000E+00
  0.00000000E+00  0.00000000E+00  0.00000000E+00
  0.00000000E+00  0.00000000E+00  0.00000000E+00
  0.00000000E+00  0.00000000E+00  0.00000000E+00
  0.00000000E+00  0.00000000E+00  0.00000000E+00
  0.00000000E+00  0.00000000E+00  0.00000000E+00
  0.00000000E+00  0.00000000E+00  0.00000000E+00
  0.00000000E+00  0.00000000E+00  0.00000000E+00
  0.00000000E+00  0.00000000E+00  0.00000000E+00
  0.00000000E+00  0.00000000E+00  0.00000000E+00
  0.00000000E+00  0.00000000E+00  0.00000000E+00
  0.00000000E+00  0.00000000E+00  0.00000000E+00
  0.00000000E+00  0.00000000E+00  0.00000000E+00
  0.00000000E+00  0.00000000E+00  0.00000000E+00
  0.00000000E+00  0.00000000E+00  0.00000000E+00
  0.00000000E+00  0.00000000E+00  0.00000000E+00
  0.00000000E+00  0.00000000E+00  0.00000000E+00
  0.00000000E+00  0.00000000E+00  0.00000000E+00
  0.00000000E+00  0.00000000E+00  0.00000000E+00
  0.00000000E+00  0.00000000E+00  0.00000000E+00
  0.00000000E+00  0.00000000E+00  0.00000000E+00
  0.00000000E+00  0.00000000E+00  0.00000000E+00
  0.00000000E+00  0.00000000E+00  0.00000000E+00
  0.00000000E+00  0.00000000E+00  0.00000000E+00
  0.00000000E+00  0.00000000E+00  0.00000000E+00
  0.00000000E+00  0.00000000E+00  0.00000000E+00
  0.00000000E+00  0.00000000E+00  0.00000000E+00
  0.00000000E+00  0.00000000E+00  0.00000000E+00
  0.00000000E+00  0.00000000E+00  0.00000000E+00
  0.00000000E+00  0.00000000E+00  0.00000000E+00
  0.00000000E+00  0.00000000E+00  0.00000000E+00
  0.00000000E+00  0.00000000E+00  0.00000000E+00
  0.00000000E+00  0.00000000E+00  0.00000000E+00
  0.00000000E+00  0.00000000E+00  0.00000000E+00
