La Co Ni Sn Bi O  C  H                  
   1.00000000000000     
    29.1044006348000011    0.0000000000000000    0.0000000000000000
     0.4451680315000000   28.3694074727000007    0.0000000000000000
     0.0682082826000000    0.3036559964000000   28.5240018092999996
   La   Co   Ni   Sn   Bi   O    C    H 
    14    13    13    14    14     2     1     1
Selective dynamics
Direct
  0.5923669532248911  0.4204174327146183  0.4077120542868906   T   T   T
  0.6852901567593227  0.5712605354086577  0.3810635426001193   T   T   T
  0.4957990114610356  0.5274978075119976  0.2821072652117393   T   T   T
  0.5624500504949743  0.5219546705040552  0.6020998855744255   T   T   T
  0.5088283562264265  0.3872470525226881  0.3053818219556685   T   T   T
  0.5750625463607829  0.6555359954359637  0.4832280433033749   T   T   T
  0.5087754785443350  0.3380932934165974  0.4995607887572325   T   T   T
  0.5350210467599000  0.6375453418516280  0.3748846053516844   T   T   T
  0.4343867950586432  0.6432365104102251  0.5345467109734927   T   T   T
  0.4373551010143757  0.5015757590148624  0.3842817269995109   F   F   F
  0.4437846394494898  0.4460183835780285  0.5005161578087822   F   F   F
  0.3874846067038366  0.4667306138846825  0.6095769420383479   T   T   T
  0.3444667266812255  0.4446435191877686  0.3466142534621595   T   T   T
  0.3573438410486550  0.5884489210699057  0.3908563499359900   T   T   T
  0.4217425606853311  0.4061295180575186  0.3699802678458894   F   F   F
  0.5011311695957161  0.4887203336762909  0.4395023580252015   F   F   F
  0.4044148221271726  0.6101724300038001  0.4624736492929173   F   F   F
  0.4722931245665194  0.5596737886932672  0.5729988711091565   F   F   F
  0.6552684236953183  0.5165424048424470  0.4543399438695133   F   F   F
  0.5967309916701211  0.5535378348504167  0.5056109707055541   F   F   F
  0.5314074673932367  0.5941153005651714  0.5336729985293047   F   F   F
  0.5796732686089143  0.4997731718447866  0.4507473928409595   F   F   F
  0.4608722589685976  0.3310841209942282  0.3443189879307763   T   T   T
  0.3905180950192175  0.5252419063175111  0.4552418453041511   F   F   F
  0.4542279496059354  0.3243680178194779  0.4238509425026398   T   T   T
  0.5074804872141527  0.4592780196109629  0.3501259710292359   F   F   F
  0.6012877811302459  0.4669891268301640  0.5212355700313438   F   F   F
  0.5384608035519776  0.4312182275275163  0.4821288228790692   F   F   F
  0.4713083414346286  0.4805797151798927  0.5807598339419258   F   F   F
  0.3771163837573610  0.4514853175274567  0.4282230665427278   F   F   F
  0.4059018739390154  0.3822235888080883  0.4561785915149272   F   F   F
  0.5357818896390683  0.5680835373033233  0.4543473312664048   F   F   F
  0.4924712632432886  0.6367287407321953  0.4646113344718685   F   F   F
  0.4677327221812249  0.5829886973614862  0.4038343643763724   F   F   F
  0.5280944416629296  0.5063826634733033  0.5194466411805863   F   F   F
  0.6212454441397384  0.5105019604624417  0.3755946010283822   F   F   F
  0.6054499763524817  0.5821019035045651  0.4188664505762958   F   F   F
  0.4050790883739026  0.5245211222763402  0.5434909784116542   F   F   F
  0.3511209169195063  0.4697156081595142  0.5089548746528874   T   T   T
  0.4342693434522744  0.4570762623953857  0.3023041210772548   T   T   T
  0.5382209551916518  0.4219440803367038  0.5689591092580185   T   T   T
  0.3581351582684978  0.3865283533135562  0.5396242561015735   T   T   T
  0.4625951421883201  0.5516617238622956  0.4875128022361963   F   F   F
  0.6065721700129038  0.3752065957294748  0.5102868946785634   T   T   T
  0.4919457137343830  0.4390699853655948  0.6581839948850687   T   T   T
  0.5875955570759547  0.4675401194982982  0.3063549052783371   T   T   T
  0.4900497958562298  0.4037080615820798  0.4151644571778519   F   F   F
  0.4351435153456857  0.6739083191411204  0.4120464839591527   T   T   T
  0.4682158782149666  0.5371678131202891  0.6601084264108920   T   T   T
  0.5397532608265934  0.5319899791087650  0.3771480104995177   F   F   F
  0.6683056804475254  0.6004635158002265  0.4838380205845890   T   T   T
  0.6656835521815522  0.5192720176047086  0.5506668936837705   T   T   T
  0.3746844041159508  0.3348810946459824  0.3846967381920387   T   T   T
  0.6787703397776618  0.4364911004349646  0.4865560827469410   T   T   T
  0.5396468236601102  0.3186424945558658  0.3918317457485534   T   T   T
  0.3029394180954918  0.5030526534557153  0.4367242153554060   T   T   T
  0.3133135022821337  0.3960646362910878  0.4494277027662504   T   T   T
  0.5117189534585873  0.6258441816381892  0.6160094811849683   T   T   T
  0.4492257014010579  0.3746790229967092  0.5857127848289690   T   T   T
  0.3901462600887521  0.5800710054012544  0.6128607748681740   T   T   T
  0.4054473924000787  0.3053170666835354  0.5009834182581960   T   T   T
  0.4023394959150183  0.3719219415211121  0.2869464444197849   T   T   T
  0.3844237174588707  0.5333265057812494  0.2915412855897786   T   T   T
  0.6927249560716638  0.4604052657428683  0.3872273967816596   T   T   T
  0.3376562781686316  0.5719628742001414  0.5123776060913712   T   T   T
  0.5996513002195725  0.5723788556601010  0.3078519491781093   T   T   T
  0.6125095782682825  0.6145621739041360  0.5754980963488494   T   T   T
  0.4403948678583168  0.6145923619969431  0.3234851938325625   T   T   T
  0.2828584172155743  0.6166996863961943  0.4294493159743553   T   T   T
  0.2915462255437926  0.6324580455348187  0.3524106507589900   T   T   T
  0.2684525329283602  0.6340908857827322  0.3905096428334585   T   T   T
  0.2338895038804459  0.6514831055666210  0.3900069991351148   T   T   T
 
  0.00000000E+00  0.00000000E+00  0.00000000E+00
  0.00000000E+00  0.00000000E+00  0.00000000E+00
  0.00000000E+00  0.00000000E+00  0.00000000E+00
  0.00000000E+00  0.00000000E+00  0.00000000E+00
  0.00000000E+00  0.00000000E+00  0.00000000E+00
  0.00000000E+00  0.00000000E+00  0.00000000E+00
  0.00000000E+00  0.00000000E+00  0.00000000E+00
  0.00000000E+00  0.00000000E+00  0.00000000E+00
  0.00000000E+00  0.00000000E+00  0.00000000E+00
  0.00000000E+00  0.00000000E+00  0.00000000E+00
  0.00000000E+00  0.00000000E+00  0.00000000E+00
  0.00000000E+00  0.00000000E+00  0.00000000E+00
  0.00000000E+00  0.00000000E+00  0.00000000E+00
  0.00000000E+00  0.00000000E+00  0.00000000E+00
  0.00000000E+00  0.00000000E+00  0.00000000E+00
  0.00000000E+00  0.00000000E+00  0.00000000E+00
  0.00000000E+00  0.00000000E+00  0.00000000E+00
  0.00000000E+00  0.00000000E+00  0.00000000E+00
  0.00000000E+00  0.00000000E+00  0.00000000E+00
  0.00000000E+00  0.00000000E+00  0.00000000E+00
  0.00000000E+00  0.00000000E+00  0.00000000E+00
  0.00000000E+00  0.00000000E+00  0.00000000E+00
  0.00000000E+00  0.00000000E+00  0.00000000E+00
  0.00000000E+00  0.00000000E+00  0.00000000E+00
  0.00000000E+00  0.00000000E+00  0.00000000E+00
  0.00000000E+00  0.00000000E+00  0.00000000E+00
  0.00000000E+00  0.00000000E+00  0.00000000E+00
  0.00000000E+00  0.00000000E+00  0.00000000E+00
  0.00000000E+00  0.00000000E+00  0.00000000E+00
  0.00000000E+00  0.00000000E+00  0.00000000E+00
  0.00000000E+00  0.00000000E+00  0.00000000E+00
  0.00000000E+00  0.00000000E+00  0.00000000E+00
  0.00000000E+00  0.00000000E+00  0.00000000E+00
  0.00000000E+00  0.00000000E+00  0.00000000E+00
  0.00000000E+00  0.00000000E+00  0.00000000E+00
  0.00000000E+00  0.00000000E+00  0.00000000E+00
  0.00000000E+00  0.00000000E+00  0.00000000E+00
  0.00000000E+00  0.00000000E+00  0.00000000E+00
  0.00000000E+00  0.00000000E+00  0.00000000E+00
  0.00000000E+00  0.00000000E+00  0.00000000E+00
  0.00000000E+00  0.00000000E+00  0.00000000E+00
  0.00000000E+00  0.00000000E+00  0.00000000E+00
  0.00000000E+00  0.00000000E+00  0.00000000E+00
  0.00000000E+00  0.00000000E+00  0.00000000E+00
  0.00000000E+00  0.00000000E+00  0.00000000E+00
  0.00000000E+00  0.00000000E+00  0.00000000E+00
  0.00000000E+00  0.00000000E+00  0.00000000E+00
  0.00000000E+00  0.00000000E+00  0.00000000E+00
  0.00000000E+00  0.00000000E+00  0.00000000E+00
  0.00000000E+00  0.00000000E+00  0.00000000E+00
  0.00000000E+00  0.00000000E+00  0.00000000E+00
  0.00000000E+00  0.00000000E+00  0.00000000E+00
  0.00000000E+00  0.00000000E+00  0.00000000E+00
  0.00000000E+00  0.00000000E+00  0.00000000E+00
  0.00000000E+00  0.00000000E+00  0.00000000E+00
  0.00000000E+00  0.00000000E+00  0.00000000E+00
  0.00000000E+00  0.00000000E+00  0.00000000E+00
  0.00000000E+00  0.00000000E+00  0.00000000E+00
  0.00000000E+00  0.00000000E+00  0.00000000E+00
  0.00000000E+00  0.00000000E+00  0.00000000E+00
  0.00000000E+00  0.00000000E+00  0.00000000E+00
  0.00000000E+00  0.00000000E+00  0.00000000E+00
  0.00000000E+00  0.00000000E+00  0.00000000E+00
  0.00000000E+00  0.00000000E+00  0.00000000E+00
  0.00000000E+00  0.00000000E+00  0.00000000E+00
  0.00000000E+00  0.00000000E+00  0.00000000E+00
  0.00000000E+00  0.00000000E+00  0.00000000E+00
  0.00000000E+00  0.00000000E+00  0.00000000E+00
  0.00000000E+00  0.00000000E+00  0.00000000E+00
  0.00000000E+00  0.00000000E+00  0.00000000E+00
  0.00000000E+00  0.00000000E+00  0.00000000E+00
  0.00000000E+00  0.00000000E+00  0.00000000E+00
