La Co Ni Sn Bi O  C  H                  
   1.00000000000000     
    29.1044006348000011    0.0000000000000000    0.0000000000000000
     0.4451680315000000   28.3694074727000007    0.0000000000000000
     0.0682082826000000    0.3036559964000000   28.5240018092999996
   La   Co   Ni   Sn   Bi   O    C    H 
    14    13    13    14    14     2     1     1
Selective dynamics
Direct
  0.5923992819623014  0.4207450558894416  0.4076296896303709   T   T   T
  0.6870785358270820  0.5741706766859307  0.3764489282761604   T   T   T
  0.4955751156680344  0.5271974044731579  0.2820999827514732   T   T   T
  0.5627128980346408  0.5220709795764271  0.6019778658561507   T   T   T
  0.5091212495588255  0.3872838611655604  0.3054663917346273   T   T   T
  0.5750644578951249  0.6557075393739772  0.4827406729359245   T   T   T
  0.5089558990473532  0.3382520606933578  0.4996129074328377   T   T   T
  0.5353669966343726  0.6375759750809951  0.3746174469318503   T   T   T
  0.4359229003274734  0.6433296897448222  0.5356305376013608   T   T   T
  0.4373551010143757  0.5015757590148624  0.3842817269995109   F   F   F
  0.4437846394494898  0.4460183835780285  0.5005161578087822   F   F   F
  0.3874167028937994  0.4670468762060164  0.6096802047673681   T   T   T
  0.3445193087026481  0.4441543417478281  0.3468934313131668   T   T   T
  0.3621390262433951  0.5856025556516765  0.3936662894784342   T   T   T
  0.4217425606853311  0.4061295180575186  0.3699802678458894   F   F   F
  0.5011311695957161  0.4887203336762909  0.4395023580252015   F   F   F
  0.4044148221271726  0.6101724300038001  0.4624736492929173   F   F   F
  0.4722931245665194  0.5596737886932672  0.5729988711091565   F   F   F
  0.6552684236953183  0.5165424048424470  0.4543399438695133   F   F   F
  0.5967309916701211  0.5535378348504167  0.5056109707055541   F   F   F
  0.5314074673932367  0.5941153005651714  0.5336729985293047   F   F   F
  0.5796732686089143  0.4997731718447866  0.4507473928409595   F   F   F
  0.4608475925168532  0.3308855135651522  0.3448011141277813   T   T   T
  0.3905180950192175  0.5252419063175111  0.4552418453041511   F   F   F
  0.4542704258225686  0.3245851732017117  0.4241725190940309   T   T   T
  0.5074804872141527  0.4592780196109629  0.3501259710292359   F   F   F
  0.6012877811302459  0.4669891268301640  0.5212355700313438   F   F   F
  0.5384608035519776  0.4312182275275163  0.4821288228790692   F   F   F
  0.4713083414346286  0.4805797151798927  0.5807598339419258   F   F   F
  0.3771163837573610  0.4514853175274567  0.4282230665427278   F   F   F
  0.4059018739390154  0.3822235888080883  0.4561785915149272   F   F   F
  0.5357818896390683  0.5680835373033233  0.4543473312664048   F   F   F
  0.4924712632432886  0.6367287407321953  0.4646113344718685   F   F   F
  0.4677327221812249  0.5829886973614862  0.4038343643763724   F   F   F
  0.5280944416629296  0.5063826634733033  0.5194466411805863   F   F   F
  0.6212454441397384  0.5105019604624417  0.3755946010283822   F   F   F
  0.6054499763524817  0.5821019035045651  0.4188664505762958   F   F   F
  0.4050790883739026  0.5245211222763402  0.5434909784116542   F   F   F
  0.3507360427262586  0.4702567489179096  0.5088113900079813   T   T   T
  0.4339104423742901  0.4571925790999493  0.3022000472604303   T   T   T
  0.5382988257991631  0.4220052513671005  0.5690589611484788   T   T   T
  0.3576128159400272  0.3871582473092035  0.5398535565679858   T   T   T
  0.4625951421883201  0.5516617238622956  0.4875128022361963   F   F   F
  0.6067355225296932  0.3755249506093776  0.5101847065754732   T   T   T
  0.4920417600333362  0.4391302069873472  0.6580564833608018   T   T   T
  0.5874649064497788  0.4678428132694592  0.3063728054005393   T   T   T
  0.4900497958562298  0.4037080615820798  0.4151644571778519   F   F   F
  0.4355526828212733  0.6744419845368399  0.4125203517692868   T   T   T
  0.4685030029743110  0.5371401013331295  0.6600718491642805   T   T   T
  0.5397532608265934  0.5319899791087650  0.3771480104995177   F   F   F
  0.6680730268026801  0.6002331696250086  0.4821044809291269   T   T   T
  0.6660234249254462  0.5193822136893659  0.5502692477999116   T   T   T
  0.3747665441273015  0.3347615033022991  0.3848192496541334   T   T   T
  0.6791607563294345  0.4366545735674195  0.4863729239449414   T   T   T
  0.5396360242851214  0.3186231467458702  0.3919246118146301   T   T   T
  0.3024710808034423  0.5032532326326680  0.4366664471494398   T   T   T
  0.3133776707035033  0.3960304909833414  0.4496578586944820   T   T   T
  0.5124662917153613  0.6253944176771746  0.6167256120396573   T   T   T
  0.4490582995403448  0.3748044306599314  0.5856338048605272   T   T   T
  0.3904770245301606  0.5803985676814037  0.6131065398152754   T   T   T
  0.4055294151839374  0.3057503310732207  0.5015058553738622   T   T   T
  0.4027509946481229  0.3715977010114885  0.2870125532024523   T   T   T
  0.3837877362657094  0.5334400703686456  0.2920787778260249   T   T   T
  0.6929034300621485  0.4615928688828881  0.3873067360452491   T   T   T
  0.3376749269223933  0.5723438893290018  0.5127951426818057   T   T   T
  0.5987086544972958  0.5724799188720613  0.3077106931072377   T   T   T
  0.6128240441092218  0.6146700881783933  0.5747899808328636   T   T   T
  0.4404138809107770  0.6145944811265287  0.3234913848887905   T   T   T
  0.7141737393491013  0.6078675509149392  0.3069250519175613   T   T   T
  0.6640082886249106  0.6214657047609252  0.2468177009114177   T   T   T
  0.7028792401909818  0.6222577628364339  0.2646985232614604   T   T   T
  0.7322174957424885  0.6364270474233877  0.2439711248349809   T   T   T
 
  0.00000000E+00  0.00000000E+00  0.00000000E+00
  0.00000000E+00  0.00000000E+00  0.00000000E+00
  0.00000000E+00  0.00000000E+00  0.00000000E+00
  0.00000000E+00  0.00000000E+00  0.00000000E+00
  0.00000000E+00  0.00000000E+00  0.00000000E+00
  0.00000000E+00  0.00000000E+00  0.00000000E+00
  0.00000000E+00  0.00000000E+00  0.00000000E+00
  0.00000000E+00  0.00000000E+00  0.00000000E+00
  0.00000000E+00  0.00000000E+00  0.00000000E+00
  0.00000000E+00  0.00000000E+00  0.00000000E+00
  0.00000000E+00  0.00000000E+00  0.00000000E+00
  0.00000000E+00  0.00000000E+00  0.00000000E+00
  0.00000000E+00  0.00000000E+00  0.00000000E+00
  0.00000000E+00  0.00000000E+00  0.00000000E+00
  0.00000000E+00  0.00000000E+00  0.00000000E+00
  0.00000000E+00  0.00000000E+00  0.00000000E+00
  0.00000000E+00  0.00000000E+00  0.00000000E+00
  0.00000000E+00  0.00000000E+00  0.00000000E+00
  0.00000000E+00  0.00000000E+00  0.00000000E+00
  0.00000000E+00  0.00000000E+00  0.00000000E+00
  0.00000000E+00  0.00000000E+00  0.00000000E+00
  0.00000000E+00  0.00000000E+00  0.00000000E+00
  0.00000000E+00  0.00000000E+00  0.00000000E+00
  0.00000000E+00  0.00000000E+00  0.00000000E+00
  0.00000000E+00  0.00000000E+00  0.00000000E+00
  0.00000000E+00  0.00000000E+00  0.00000000E+00
  0.00000000E+00  0.00000000E+00  0.00000000E+00
  0.00000000E+00  0.00000000E+00  0.00000000E+00
  0.00000000E+00  0.00000000E+00  0.00000000E+00
  0.00000000E+00  0.00000000E+00  0.00000000E+00
  0.00000000E+00  0.00000000E+00  0.00000000E+00
  0.00000000E+00  0.00000000E+00  0.00000000E+00
  0.00000000E+00  0.00000000E+00  0.00000000E+00
  0.00000000E+00  0.00000000E+00  0.00000000E+00
  0.00000000E+00  0.00000000E+00  0.00000000E+00
  0.00000000E+00  0.00000000E+00  0.00000000E+00
  0.00000000E+00  0.00000000E+00  0.00000000E+00
  0.00000000E+00  0.00000000E+00  0.00000000E+00
  0.00000000E+00  0.00000000E+00  0.00000000E+00
  0.00000000E+00  0.00000000E+00  0.00000000E+00
  0.00000000E+00  0.00000000E+00  0.00000000E+00
  0.00000000E+00  0.00000000E+00  0.00000000E+00
  0.00000000E+00  0.00000000E+00  0.00000000E+00
  0.00000000E+00  0.00000000E+00  0.00000000E+00
  0.00000000E+00  0.00000000E+00  0.00000000E+00
  0.00000000E+00  0.00000000E+00  0.00000000E+00
  0.00000000E+00  0.00000000E+00  0.00000000E+00
  0.00000000E+00  0.00000000E+00  0.00000000E+00
  0.00000000E+00  0.00000000E+00  0.00000000E+00
  0.00000000E+00  0.00000000E+00  0.00000000E+00
  0.00000000E+00  0.00000000E+00  0.00000000E+00
  0.00000000E+00  0.00000000E+00  0.00000000E+00
  0.00000000E+00  0.00000000E+00  0.00000000E+00
  0.00000000E+00  0.00000000E+00  0.00000000E+00
  0.00000000E+00  0.00000000E+00  0.00000000E+00
  0.00000000E+00  0.00000000E+00  0.00000000E+00
  0.00000000E+00  0.00000000E+00  0.00000000E+00
  0.00000000E+00  0.00000000E+00  0.00000000E+00
  0.00000000E+00  0.00000000E+00  0.00000000E+00
  0.00000000E+00  0.00000000E+00  0.00000000E+00
  0.00000000E+00  0.00000000E+00  0.00000000E+00
  0.00000000E+00  0.00000000E+00  0.00000000E+00
  0.00000000E+00  0.00000000E+00  0.00000000E+00
  0.00000000E+00  0.00000000E+00  0.00000000E+00
  0.00000000E+00  0.00000000E+00  0.00000000E+00
  0.00000000E+00  0.00000000E+00  0.00000000E+00
  0.00000000E+00  0.00000000E+00  0.00000000E+00
  0.00000000E+00  0.00000000E+00  0.00000000E+00
  0.00000000E+00  0.00000000E+00  0.00000000E+00
  0.00000000E+00  0.00000000E+00  0.00000000E+00
  0.00000000E+00  0.00000000E+00  0.00000000E+00
  0.00000000E+00  0.00000000E+00  0.00000000E+00
