La Co Ni Sn Bi O  C  H                  
   1.00000000000000     
    29.1044006348000011    0.0000000000000000    0.0000000000000000
     0.4451680315000000   28.3694074727000007    0.0000000000000000
     0.0682082826000000    0.3036559964000000   28.5240018092999996
   La   Co   Ni   Sn   Bi   O    C    H 
    14    13    13    14    14     2     1     1
Selective dynamics
Direct
  0.5924617052200831  0.4203779999006129  0.4082259522695545   T   T   T
  0.6858245890088164  0.5710759672409903  0.3816038342984927   T   T   T
  0.4963861573968757  0.5283722793638581  0.2820942140915079   T   T   T
  0.5624240199862525  0.5219502283071548  0.6023376681083928   T   T   T
  0.5111128899492007  0.3873264260399425  0.3056333142679861   T   T   T
  0.5749518849082175  0.6556326920406269  0.4835970452214197   T   T   T
  0.5098646822366421  0.3381236302871056  0.4997857834797280   T   T   T
  0.5349367024496638  0.6378020400069221  0.3753120751867091   T   T   T
  0.4360363852759164  0.6434210282847040  0.5355971342252690   T   T   T
  0.4373551010143757  0.5015757590148624  0.3842817269995109   F   F   F
  0.4437846394494898  0.4460183835780285  0.5005161578087822   F   F   F
  0.3877304698291084  0.4674075346816740  0.6101943813121897   T   T   T
  0.3429494061374559  0.4450066046543490  0.3451657734831543   T   T   T
  0.3622448073358081  0.5856709978885111  0.3933719505284684   T   T   T
  0.4217425606853311  0.4061295180575186  0.3699802678458894   F   F   F
  0.5011311695957161  0.4887203336762909  0.4395023580252015   F   F   F
  0.4044148221271726  0.6101724300038001  0.4624736492929173   F   F   F
  0.4722931245665194  0.5596737886932672  0.5729988711091565   F   F   F
  0.6552684236953183  0.5165424048424470  0.4543399438695133   F   F   F
  0.5967309916701211  0.5535378348504167  0.5056109707055541   F   F   F
  0.5314074673932367  0.5941153005651714  0.5336729985293047   F   F   F
  0.5796732686089143  0.4997731718447866  0.4507473928409595   F   F   F
  0.4604590041332297  0.3298806150791068  0.3482347813143837   T   T   T
  0.3905180950192175  0.5252419063175111  0.4552418453041511   F   F   F
  0.4571741007068262  0.3239851390740098  0.4289447750387508   T   T   T
  0.5074804872141527  0.4592780196109629  0.3501259710292359   F   F   F
  0.6012877811302459  0.4669891268301640  0.5212355700313438   F   F   F
  0.5384608035519776  0.4312182275275163  0.4821288228790692   F   F   F
  0.4713083414346286  0.4805797151798927  0.5807598339419258   F   F   F
  0.3771163837573610  0.4514853175274567  0.4282230665427278   F   F   F
  0.4059018739390154  0.3822235888080883  0.4561785915149272   F   F   F
  0.5357818896390683  0.5680835373033233  0.4543473312664048   F   F   F
  0.4924712632432886  0.6367287407321953  0.4646113344718685   F   F   F
  0.4677327221812249  0.5829886973614862  0.4038343643763724   F   F   F
  0.5280944416629296  0.5063826634733033  0.5194466411805863   F   F   F
  0.6212454441397384  0.5105019604624417  0.3755946010283822   F   F   F
  0.6054499763524817  0.5821019035045651  0.4188664505762958   F   F   F
  0.4050790883739026  0.5245211222763402  0.5434909784116542   F   F   F
  0.3503964798940906  0.4701920838901920  0.5087850011152003   T   T   T
  0.4352070546426270  0.4576585586943607  0.3016095971460326   T   T   T
  0.5381908975866508  0.4220009091031093  0.5690710192740199   T   T   T
  0.3572031006630318  0.3877299591243221  0.5406818444175200   T   T   T
  0.4625951421883201  0.5516617238622956  0.4875128022361963   F   F   F
  0.6074718316836106  0.3758036262387324  0.5112173255644397   T   T   T
  0.4928016616124795  0.4404490366735094  0.6582922465585367   T   T   T
  0.5878952476808786  0.4679515529422861  0.3065311449725173   T   T   T
  0.4900497958562298  0.4037080615820798  0.4151644571778519   F   F   F
  0.4353362050256872  0.6747257008741904  0.4128863870829109   T   T   T
  0.4684655986343154  0.5378968180754962  0.6603497798894898   T   T   T
  0.5397532608265934  0.5319899791087650  0.3771480104995177   F   F   F
  0.6682702759911444  0.6006058506693699  0.4838603175283752   T   T   T
  0.6657283492396509  0.5192844541068437  0.5507918486905439   T   T   T
  0.3777021976969333  0.3329301402398399  0.3868821075885097   T   T   T
  0.6796733105842228  0.4368504493132936  0.4871553466731401   T   T   T
  0.5403831860150469  0.3183205916832699  0.3918065162938197   T   T   T
  0.3026879362465405  0.5031611257853487  0.4365320400454018   T   T   T
  0.3142484015399294  0.3957300215035615  0.4498143569508122   T   T   T
  0.5122522076659559  0.6254917933480761  0.6168316246284861   T   T   T
  0.4490661688871517  0.3749307629870061  0.5857604496527119   T   T   T
  0.3904151766707503  0.5806456190416018  0.6128723012272703   T   T   T
  0.4055972413229244  0.3064277006661369  0.5040104296531372   T   T   T
  0.4054441315482472  0.3718981495897866  0.2876092619493292   T   T   T
  0.3854193933743366  0.5341512045608563  0.2911689932596121   T   T   T
  0.6926748272667680  0.4601748102988629  0.3875497817805370   T   T   T
  0.3375401034114196  0.5721410824563734  0.5125917875804606   T   T   T
  0.6001376394839379  0.5730363671241985  0.3085951002762001   T   T   T
  0.6125665232598168  0.6143209193049010  0.5755987086636319   T   T   T
  0.4403743663833415  0.6156619371648717  0.3234852211141548   T   T   T
  0.3015733963866777  0.3137436806939623  0.3408710367793082   T   T   T
  0.2826127632144731  0.3917140459017517  0.3338663475228884   T   T   T
  0.2745932237709289  0.3471726095411554  0.3308387924018645   T   T   T
  0.2395440382341646  0.3384534159603411  0.3181045175435716   T   T   T
 
  0.00000000E+00  0.00000000E+00  0.00000000E+00
  0.00000000E+00  0.00000000E+00  0.00000000E+00
  0.00000000E+00  0.00000000E+00  0.00000000E+00
  0.00000000E+00  0.00000000E+00  0.00000000E+00
  0.00000000E+00  0.00000000E+00  0.00000000E+00
  0.00000000E+00  0.00000000E+00  0.00000000E+00
  0.00000000E+00  0.00000000E+00  0.00000000E+00
  0.00000000E+00  0.00000000E+00  0.00000000E+00
  0.00000000E+00  0.00000000E+00  0.00000000E+00
  0.00000000E+00  0.00000000E+00  0.00000000E+00
  0.00000000E+00  0.00000000E+00  0.00000000E+00
  0.00000000E+00  0.00000000E+00  0.00000000E+00
  0.00000000E+00  0.00000000E+00  0.00000000E+00
  0.00000000E+00  0.00000000E+00  0.00000000E+00
  0.00000000E+00  0.00000000E+00  0.00000000E+00
  0.00000000E+00  0.00000000E+00  0.00000000E+00
  0.00000000E+00  0.00000000E+00  0.00000000E+00
  0.00000000E+00  0.00000000E+00  0.00000000E+00
  0.00000000E+00  0.00000000E+00  0.00000000E+00
  0.00000000E+00  0.00000000E+00  0.00000000E+00
  0.00000000E+00  0.00000000E+00  0.00000000E+00
  0.00000000E+00  0.00000000E+00  0.00000000E+00
  0.00000000E+00  0.00000000E+00  0.00000000E+00
  0.00000000E+00  0.00000000E+00  0.00000000E+00
  0.00000000E+00  0.00000000E+00  0.00000000E+00
  0.00000000E+00  0.00000000E+00  0.00000000E+00
  0.00000000E+00  0.00000000E+00  0.00000000E+00
  0.00000000E+00  0.00000000E+00  0.00000000E+00
  0.00000000E+00  0.00000000E+00  0.00000000E+00
  0.00000000E+00  0.00000000E+00  0.00000000E+00
  0.00000000E+00  0.00000000E+00  0.00000000E+00
  0.00000000E+00  0.00000000E+00  0.00000000E+00
  0.00000000E+00  0.00000000E+00  0.00000000E+00
  0.00000000E+00  0.00000000E+00  0.00000000E+00
  0.00000000E+00  0.00000000E+00  0.00000000E+00
  0.00000000E+00  0.00000000E+00  0.00000000E+00
  0.00000000E+00  0.00000000E+00  0.00000000E+00
  0.00000000E+00  0.00000000E+00  0.00000000E+00
  0.00000000E+00  0.00000000E+00  0.00000000E+00
  0.00000000E+00  0.00000000E+00  0.00000000E+00
  0.00000000E+00  0.00000000E+00  0.00000000E+00
  0.00000000E+00  0.00000000E+00  0.00000000E+00
  0.00000000E+00  0.00000000E+00  0.00000000E+00
  0.00000000E+00  0.00000000E+00  0.00000000E+00
  0.00000000E+00  0.00000000E+00  0.00000000E+00
  0.00000000E+00  0.00000000E+00  0.00000000E+00
  0.00000000E+00  0.00000000E+00  0.00000000E+00
  0.00000000E+00  0.00000000E+00  0.00000000E+00
  0.00000000E+00  0.00000000E+00  0.00000000E+00
  0.00000000E+00  0.00000000E+00  0.00000000E+00
  0.00000000E+00  0.00000000E+00  0.00000000E+00
  0.00000000E+00  0.00000000E+00  0.00000000E+00
  0.00000000E+00  0.00000000E+00  0.00000000E+00
  0.00000000E+00  0.00000000E+00  0.00000000E+00
  0.00000000E+00  0.00000000E+00  0.00000000E+00
  0.00000000E+00  0.00000000E+00  0.00000000E+00
  0.00000000E+00  0.00000000E+00  0.00000000E+00
  0.00000000E+00  0.00000000E+00  0.00000000E+00
  0.00000000E+00  0.00000000E+00  0.00000000E+00
  0.00000000E+00  0.00000000E+00  0.00000000E+00
  0.00000000E+00  0.00000000E+00  0.00000000E+00
  0.00000000E+00  0.00000000E+00  0.00000000E+00
  0.00000000E+00  0.00000000E+00  0.00000000E+00
  0.00000000E+00  0.00000000E+00  0.00000000E+00
  0.00000000E+00  0.00000000E+00  0.00000000E+00
  0.00000000E+00  0.00000000E+00  0.00000000E+00
  0.00000000E+00  0.00000000E+00  0.00000000E+00
  0.00000000E+00  0.00000000E+00  0.00000000E+00
  0.00000000E+00  0.00000000E+00  0.00000000E+00
  0.00000000E+00  0.00000000E+00  0.00000000E+00
  0.00000000E+00  0.00000000E+00  0.00000000E+00
  0.00000000E+00  0.00000000E+00  0.00000000E+00
