La Co Ni Sn Bi O  C  H                  
   1.00000000000000     
    29.1044006348000011    0.0000000000000000    0.0000000000000000
     0.4451680315000000   28.3694074727000007    0.0000000000000000
     0.0682082826000000    0.3036559964000000   28.5240018092999996
   La   Co   Ni   Sn   Bi   O    C    H 
    14    13    13    14    14     2     1     1
Selective dynamics
Direct
  0.5924540664472917  0.4202715447088241  0.4083283032067888   T   T   T
  0.6853374444732857  0.5710740091516801  0.3808515487542974   T   T   T
  0.4954816411006414  0.5270703270145938  0.2820608461298774   T   T   T
  0.5625832065876624  0.5225593208484741  0.6021558995839521   T   T   T
  0.5089598863854085  0.3866656007685850  0.3057284830082573   T   T   T
  0.5750747412043651  0.6556206502180066  0.4832642234630251   T   T   T
  0.5105740527652808  0.3387397581010497  0.4995526751699405   T   T   T
  0.5349221741248950  0.6376135607906880  0.3750194902300849   T   T   T
  0.4360262440926043  0.6435299100916191  0.5355429329243696   T   T   T
  0.4373551010143757  0.5015757590148624  0.3842817269995109   F   F   F
  0.4437846394494898  0.4460183835780285  0.5005161578087822   F   F   F
  0.3867904878661861  0.4675720280823193  0.6095367280446425   T   T   T
  0.3446342404836604  0.4435374214197848  0.3468751427233978   T   T   T
  0.3616655280365167  0.5847058015482559  0.3938514951256195   T   T   T
  0.4217425606853311  0.4061295180575186  0.3699802678458894   F   F   F
  0.5011311695957161  0.4887203336762909  0.4395023580252015   F   F   F
  0.4044148221271726  0.6101724300038001  0.4624736492929173   F   F   F
  0.4722931245665194  0.5596737886932672  0.5729988711091565   F   F   F
  0.6552684236953183  0.5165424048424470  0.4543399438695133   F   F   F
  0.5967309916701211  0.5535378348504167  0.5056109707055541   F   F   F
  0.5314074673932367  0.5941153005651714  0.5336729985293047   F   F   F
  0.5796732686089143  0.4997731718447866  0.4507473928409595   F   F   F
  0.4611286713644276  0.3311024877044200  0.3459006773090452   T   T   T
  0.3905180950192175  0.5252419063175111  0.4552418453041511   F   F   F
  0.4544771179821624  0.3242956931394962  0.4255698895404074   T   T   T
  0.5074804872141527  0.4592780196109629  0.3501259710292359   F   F   F
  0.6012877811302459  0.4669891268301640  0.5212355700313438   F   F   F
  0.5384608035519776  0.4312182275275163  0.4821288228790692   F   F   F
  0.4713083414346286  0.4805797151798927  0.5807598339419258   F   F   F
  0.3771163837573610  0.4514853175274567  0.4282230665427278   F   F   F
  0.4059018739390154  0.3822235888080883  0.4561785915149272   F   F   F
  0.5357818896390683  0.5680835373033233  0.4543473312664048   F   F   F
  0.4924712632432886  0.6367287407321953  0.4646113344718685   F   F   F
  0.4677327221812249  0.5829886973614862  0.4038343643763724   F   F   F
  0.5280944416629296  0.5063826634733033  0.5194466411805863   F   F   F
  0.6212454441397384  0.5105019604624417  0.3755946010283822   F   F   F
  0.6054499763524817  0.5821019035045651  0.4188664505762958   F   F   F
  0.4050790883739026  0.5245211222763402  0.5434909784116542   F   F   F
  0.3509261512749699  0.4707230583459032  0.5089505732352768   T   T   T
  0.4344422551954767  0.4566304076631361  0.3017599832083013   T   T   T
  0.5390154777860066  0.4224643539036205  0.5692642583856512   T   T   T
  0.3570555917698698  0.3873549320699543  0.5397974583242091   T   T   T
  0.4625951421883201  0.5516617238622956  0.4875128022361963   F   F   F
  0.6076966318483682  0.3757400603862064  0.5113710627424065   T   T   T
  0.4922964508297669  0.4394734576146048  0.6584706737755268   T   T   T
  0.5873483357422083  0.4672995914968730  0.3065156401903029   T   T   T
  0.4900497958562298  0.4037080615820798  0.4151644571778519   F   F   F
  0.4352417701614356  0.6742533305123205  0.4125002880819730   T   T   T
  0.4680874308867792  0.5372193506287898  0.6597071509818663   T   T   T
  0.5397532608265934  0.5319899791087650  0.3771480104995177   F   F   F
  0.6685077380959281  0.6005974048733206  0.4834207815951390   T   T   T
  0.6657023896414717  0.5194685973796463  0.5507368618096408   T   T   T
  0.3754144137574937  0.3342801649181129  0.3847590067951821   T   T   T
  0.6796390753849003  0.4369523463863025  0.4872950960505814   T   T   T
  0.5399058684405893  0.3183981843196736  0.3922852067712683   T   T   T
  0.3023635720249674  0.5020207690921245  0.4367868137865100   T   T   T
  0.3135477620744246  0.3946964022004643  0.4495874580658748   T   T   T
  0.5123090498391319  0.6257071246830176  0.6166519229207482   T   T   T
  0.4499497302964607  0.3766663281571774  0.5862292986132199   T   T   T
  0.3901467924058942  0.5809102976890816  0.6127772349848924   T   T   T
  0.4083716022793389  0.3068440156323343  0.5047409714976934   T   T   T
  0.4028612685568052  0.3712254267862258  0.2870098157436964   T   T   T
  0.3839636353327266  0.5327353517474053  0.2921760347889172   T   T   T
  0.6925357008680583  0.4601372376369107  0.3875455142636932   T   T   T
  0.3377329116378354  0.5721732906230835  0.5129098731381482   T   T   T
  0.5993346500924105  0.5724005841788717  0.3079154193868665   T   T   T
  0.6126889243981891  0.6149540722708960  0.5752843370124719   T   T   T
  0.4398282467392592  0.6144775928371883  0.3236418066883895   T   T   T
  0.3066393454242433  0.2938143787389087  0.4641132271051827   T   T   T
  0.3630615052096456  0.2407290244876910  0.4840014475394406   T   T   T
  0.3220889733579669  0.2529195640721653  0.4711045578982380   T   T   T
  0.2988605181696373  0.2224596255685665  0.4659399991506018   T   T   T
 
  0.00000000E+00  0.00000000E+00  0.00000000E+00
  0.00000000E+00  0.00000000E+00  0.00000000E+00
  0.00000000E+00  0.00000000E+00  0.00000000E+00
  0.00000000E+00  0.00000000E+00  0.00000000E+00
  0.00000000E+00  0.00000000E+00  0.00000000E+00
  0.00000000E+00  0.00000000E+00  0.00000000E+00
  0.00000000E+00  0.00000000E+00  0.00000000E+00
  0.00000000E+00  0.00000000E+00  0.00000000E+00
  0.00000000E+00  0.00000000E+00  0.00000000E+00
  0.00000000E+00  0.00000000E+00  0.00000000E+00
  0.00000000E+00  0.00000000E+00  0.00000000E+00
  0.00000000E+00  0.00000000E+00  0.00000000E+00
  0.00000000E+00  0.00000000E+00  0.00000000E+00
  0.00000000E+00  0.00000000E+00  0.00000000E+00
  0.00000000E+00  0.00000000E+00  0.00000000E+00
  0.00000000E+00  0.00000000E+00  0.00000000E+00
  0.00000000E+00  0.00000000E+00  0.00000000E+00
  0.00000000E+00  0.00000000E+00  0.00000000E+00
  0.00000000E+00  0.00000000E+00  0.00000000E+00
  0.00000000E+00  0.00000000E+00  0.00000000E+00
  0.00000000E+00  0.00000000E+00  0.00000000E+00
  0.00000000E+00  0.00000000E+00  0.00000000E+00
  0.00000000E+00  0.00000000E+00  0.00000000E+00
  0.00000000E+00  0.00000000E+00  0.00000000E+00
  0.00000000E+00  0.00000000E+00  0.00000000E+00
  0.00000000E+00  0.00000000E+00  0.00000000E+00
  0.00000000E+00  0.00000000E+00  0.00000000E+00
  0.00000000E+00  0.00000000E+00  0.00000000E+00
  0.00000000E+00  0.00000000E+00  0.00000000E+00
  0.00000000E+00  0.00000000E+00  0.00000000E+00
  0.00000000E+00  0.00000000E+00  0.00000000E+00
  0.00000000E+00  0.00000000E+00  0.00000000E+00
  0.00000000E+00  0.00000000E+00  0.00000000E+00
  0.00000000E+00  0.00000000E+00  0.00000000E+00
  0.00000000E+00  0.00000000E+00  0.00000000E+00
  0.00000000E+00  0.00000000E+00  0.00000000E+00
  0.00000000E+00  0.00000000E+00  0.00000000E+00
  0.00000000E+00  0.00000000E+00  0.00000000E+00
  0.00000000E+00  0.00000000E+00  0.00000000E+00
  0.00000000E+00  0.00000000E+00  0.00000000E+00
  0.00000000E+00  0.00000000E+00  0.00000000E+00
  0.00000000E+00  0.00000000E+00  0.00000000E+00
  0.00000000E+00  0.00000000E+00  0.00000000E+00
  0.00000000E+00  0.00000000E+00  0.00000000E+00
  0.00000000E+00  0.00000000E+00  0.00000000E+00
  0.00000000E+00  0.00000000E+00  0.00000000E+00
  0.00000000E+00  0.00000000E+00  0.00000000E+00
  0.00000000E+00  0.00000000E+00  0.00000000E+00
  0.00000000E+00  0.00000000E+00  0.00000000E+00
  0.00000000E+00  0.00000000E+00  0.00000000E+00
  0.00000000E+00  0.00000000E+00  0.00000000E+00
  0.00000000E+00  0.00000000E+00  0.00000000E+00
  0.00000000E+00  0.00000000E+00  0.00000000E+00
  0.00000000E+00  0.00000000E+00  0.00000000E+00
  0.00000000E+00  0.00000000E+00  0.00000000E+00
  0.00000000E+00  0.00000000E+00  0.00000000E+00
  0.00000000E+00  0.00000000E+00  0.00000000E+00
  0.00000000E+00  0.00000000E+00  0.00000000E+00
  0.00000000E+00  0.00000000E+00  0.00000000E+00
  0.00000000E+00  0.00000000E+00  0.00000000E+00
  0.00000000E+00  0.00000000E+00  0.00000000E+00
  0.00000000E+00  0.00000000E+00  0.00000000E+00
  0.00000000E+00  0.00000000E+00  0.00000000E+00
  0.00000000E+00  0.00000000E+00  0.00000000E+00
  0.00000000E+00  0.00000000E+00  0.00000000E+00
  0.00000000E+00  0.00000000E+00  0.00000000E+00
  0.00000000E+00  0.00000000E+00  0.00000000E+00
  0.00000000E+00  0.00000000E+00  0.00000000E+00
  0.00000000E+00  0.00000000E+00  0.00000000E+00
  0.00000000E+00  0.00000000E+00  0.00000000E+00
  0.00000000E+00  0.00000000E+00  0.00000000E+00
  0.00000000E+00  0.00000000E+00  0.00000000E+00
