La Co Ni Sn Bi O  C  H                  
   1.00000000000000     
    29.1044006348000011    0.0000000000000000    0.0000000000000000
     0.4451680315000000   28.3694074727000007    0.0000000000000000
     0.0682082826000000    0.3036559964000000   28.5240018092999996
   La   Co   Ni   Sn   Bi   O    C    H 
    14    13    13    14    14     2     1     1
Selective dynamics
Direct
  0.5919040767908836  0.4208954284819319  0.4063318982058361   T   T   T
  0.6847030316742414  0.5725619426834790  0.3815506358521148   T   T   T
  0.4948461839891087  0.5275421338336249  0.2825493460275244   T   T   T
  0.5626207304510802  0.5216045812510738  0.6021450351458826   T   T   T
  0.5085278651730503  0.3867942220584015  0.3054546819511942   T   T   T
  0.5757613262360336  0.6553004833447424  0.4839143060179727   T   T   T
  0.5069347572404229  0.3380207269408326  0.4998712708320241   T   T   T
  0.5352167185407951  0.6376094127043338  0.3754222587029277   T   T   T
  0.4360497604336840  0.6434913684639967  0.5356654011006118   T   T   T
  0.4373551010143757  0.5015757590148624  0.3842817269995109   F   F   F
  0.4437846394494898  0.4460183835780285  0.5005161578087822   F   F   F
  0.3872935306448658  0.4673770641159272  0.6097318184930784   T   T   T
  0.3443337490461206  0.4441180816534880  0.3469150930735114   T   T   T
  0.3618817242410978  0.5854291600295958  0.3939062084324644   T   T   T
  0.4217425606853311  0.4061295180575186  0.3699802678458894   F   F   F
  0.5011311695957161  0.4887203336762909  0.4395023580252015   F   F   F
  0.4044148221271726  0.6101724300038001  0.4624736492929173   F   F   F
  0.4722931245665194  0.5596737886932672  0.5729988711091565   F   F   F
  0.6552684236953183  0.5165424048424470  0.4543399438695133   F   F   F
  0.5967309916701211  0.5535378348504167  0.5056109707055541   F   F   F
  0.5314074673932367  0.5941153005651714  0.5336729985293047   F   F   F
  0.5796732686089143  0.4997731718447866  0.4507473928409595   F   F   F
  0.4610428000951229  0.3313070675383989  0.3440236566918352   T   T   T
  0.3905180950192175  0.5252419063175111  0.4552418453041511   F   F   F
  0.4539474512059871  0.3245953321509228  0.4235985069148451   T   T   T
  0.5074804872141527  0.4592780196109629  0.3501259710292359   F   F   F
  0.6012877811302459  0.4669891268301640  0.5212355700313438   F   F   F
  0.5384608035519776  0.4312182275275163  0.4821288228790692   F   F   F
  0.4713083414346286  0.4805797151798927  0.5807598339419258   F   F   F
  0.3771163837573610  0.4514853175274567  0.4282230665427278   F   F   F
  0.4059018739390154  0.3822235888080883  0.4561785915149272   F   F   F
  0.5357818896390683  0.5680835373033233  0.4543473312664048   F   F   F
  0.4924712632432886  0.6367287407321953  0.4646113344718685   F   F   F
  0.4677327221812249  0.5829886973614862  0.4038343643763724   F   F   F
  0.5280944416629296  0.5063826634733033  0.5194466411805863   F   F   F
  0.6212454441397384  0.5105019604624417  0.3755946010283822   F   F   F
  0.6054499763524817  0.5821019035045651  0.4188664505762958   F   F   F
  0.4050790883739026  0.5245211222763402  0.5434909784116542   F   F   F
  0.3506848958041679  0.4703271360838790  0.5088020926200437   T   T   T
  0.4335283838305369  0.4572282501427515  0.3019949098110427   T   T   T
  0.5384849766809645  0.4218370944345978  0.5685847309607364   T   T   T
  0.3578424566519922  0.3874207592613973  0.5400737533152536   T   T   T
  0.4625951421883201  0.5516617238622956  0.4875128022361963   F   F   F
  0.6046332387548286  0.3727222321368043  0.5085917156778551   T   T   T
  0.4921206124095323  0.4391078861927788  0.6579672793530151   T   T   T
  0.5868280562562996  0.4678515135455921  0.3058054307736970   T   T   T
  0.4900497958562298  0.4037080615820798  0.4151644571778519   F   F   F
  0.4354882598036476  0.6746841720090161  0.4128703108704984   T   T   T
  0.4682327039877094  0.5370597439959593  0.6601500200546093   T   T   T
  0.5397532608265934  0.5319899791087650  0.3771480104995177   F   F   F
  0.6689231208234951  0.5996927635687895  0.4848631066192413   T   T   T
  0.6654936070454726  0.5181868798560609  0.5509447085610634   T   T   T
  0.3745606921162270  0.3347695877765707  0.3848362229324380   T   T   T
  0.6724224529253211  0.4356318695663407  0.4816006200450833   T   T   T
  0.5395230396811503  0.3188111606575544  0.3923649413519978   T   T   T
  0.3023133491002825  0.5028653303491175  0.4365434024893383   T   T   T
  0.3134277634809149  0.3957186869821981  0.4498494331104776   T   T   T
  0.5122369221004645  0.6253226915284925  0.6168605113066080   T   T   T
  0.4487136184870159  0.3750148479313607  0.5858999817713965   T   T   T
  0.3905400831714633  0.5806542679820025  0.6130533574441180   T   T   T
  0.4032463898762356  0.3054017176810382  0.5003439256562592   T   T   T
  0.4021306349213754  0.3717918906972639  0.2869302114369509   T   T   T
  0.3835058880759305  0.5337609092134319  0.2925651490440334   T   T   T
  0.6936676630496692  0.4617705798514285  0.3855274964631409   T   T   T
  0.3376523553160987  0.5721072715328382  0.5127697799246059   T   T   T
  0.5992864979865017  0.5723914703271581  0.3076522049704937   T   T   T
  0.6123157685362536  0.6142635638550047  0.5760909934795405   T   T   T
  0.4399376972801644  0.6154031536208098  0.3238919822348243   T   T   T
  0.7451183091418213  0.4687455704733714  0.5554678865073623   T   T   T
  0.7385830466246269  0.4068035760526196  0.5052986078107823   T   T   T
  0.7594048327511324  0.4319286795641775  0.5364594736714886   T   T   T
  0.7939508182684096  0.4174434096717502  0.5460295669676616   T   T   T
 
  0.00000000E+00  0.00000000E+00  0.00000000E+00
  0.00000000E+00  0.00000000E+00  0.00000000E+00
  0.00000000E+00  0.00000000E+00  0.00000000E+00
  0.00000000E+00  0.00000000E+00  0.00000000E+00
  0.00000000E+00  0.00000000E+00  0.00000000E+00
  0.00000000E+00  0.00000000E+00  0.00000000E+00
  0.00000000E+00  0.00000000E+00  0.00000000E+00
  0.00000000E+00  0.00000000E+00  0.00000000E+00
  0.00000000E+00  0.00000000E+00  0.00000000E+00
  0.00000000E+00  0.00000000E+00  0.00000000E+00
  0.00000000E+00  0.00000000E+00  0.00000000E+00
  0.00000000E+00  0.00000000E+00  0.00000000E+00
  0.00000000E+00  0.00000000E+00  0.00000000E+00
  0.00000000E+00  0.00000000E+00  0.00000000E+00
  0.00000000E+00  0.00000000E+00  0.00000000E+00
  0.00000000E+00  0.00000000E+00  0.00000000E+00
  0.00000000E+00  0.00000000E+00  0.00000000E+00
  0.00000000E+00  0.00000000E+00  0.00000000E+00
  0.00000000E+00  0.00000000E+00  0.00000000E+00
  0.00000000E+00  0.00000000E+00  0.00000000E+00
  0.00000000E+00  0.00000000E+00  0.00000000E+00
  0.00000000E+00  0.00000000E+00  0.00000000E+00
  0.00000000E+00  0.00000000E+00  0.00000000E+00
  0.00000000E+00  0.00000000E+00  0.00000000E+00
  0.00000000E+00  0.00000000E+00  0.00000000E+00
  0.00000000E+00  0.00000000E+00  0.00000000E+00
  0.00000000E+00  0.00000000E+00  0.00000000E+00
  0.00000000E+00  0.00000000E+00  0.00000000E+00
  0.00000000E+00  0.00000000E+00  0.00000000E+00
  0.00000000E+00  0.00000000E+00  0.00000000E+00
  0.00000000E+00  0.00000000E+00  0.00000000E+00
  0.00000000E+00  0.00000000E+00  0.00000000E+00
  0.00000000E+00  0.00000000E+00  0.00000000E+00
  0.00000000E+00  0.00000000E+00  0.00000000E+00
  0.00000000E+00  0.00000000E+00  0.00000000E+00
  0.00000000E+00  0.00000000E+00  0.00000000E+00
  0.00000000E+00  0.00000000E+00  0.00000000E+00
  0.00000000E+00  0.00000000E+00  0.00000000E+00
  0.00000000E+00  0.00000000E+00  0.00000000E+00
  0.00000000E+00  0.00000000E+00  0.00000000E+00
  0.00000000E+00  0.00000000E+00  0.00000000E+00
  0.00000000E+00  0.00000000E+00  0.00000000E+00
  0.00000000E+00  0.00000000E+00  0.00000000E+00
  0.00000000E+00  0.00000000E+00  0.00000000E+00
  0.00000000E+00  0.00000000E+00  0.00000000E+00
  0.00000000E+00  0.00000000E+00  0.00000000E+00
  0.00000000E+00  0.00000000E+00  0.00000000E+00
  0.00000000E+00  0.00000000E+00  0.00000000E+00
  0.00000000E+00  0.00000000E+00  0.00000000E+00
  0.00000000E+00  0.00000000E+00  0.00000000E+00
  0.00000000E+00  0.00000000E+00  0.00000000E+00
  0.00000000E+00  0.00000000E+00  0.00000000E+00
  0.00000000E+00  0.00000000E+00  0.00000000E+00
  0.00000000E+00  0.00000000E+00  0.00000000E+00
  0.00000000E+00  0.00000000E+00  0.00000000E+00
  0.00000000E+00  0.00000000E+00  0.00000000E+00
  0.00000000E+00  0.00000000E+00  0.00000000E+00
  0.00000000E+00  0.00000000E+00  0.00000000E+00
  0.00000000E+00  0.00000000E+00  0.00000000E+00
  0.00000000E+00  0.00000000E+00  0.00000000E+00
  0.00000000E+00  0.00000000E+00  0.00000000E+00
  0.00000000E+00  0.00000000E+00  0.00000000E+00
  0.00000000E+00  0.00000000E+00  0.00000000E+00
  0.00000000E+00  0.00000000E+00  0.00000000E+00
  0.00000000E+00  0.00000000E+00  0.00000000E+00
  0.00000000E+00  0.00000000E+00  0.00000000E+00
  0.00000000E+00  0.00000000E+00  0.00000000E+00
  0.00000000E+00  0.00000000E+00  0.00000000E+00
  0.00000000E+00  0.00000000E+00  0.00000000E+00
  0.00000000E+00  0.00000000E+00  0.00000000E+00
  0.00000000E+00  0.00000000E+00  0.00000000E+00
  0.00000000E+00  0.00000000E+00  0.00000000E+00
