La Co Ni Sn Bi O  C  H                  
   1.00000000000000     
    29.1044006348000011    0.0000000000000000    0.0000000000000000
     0.4451680315000000   28.3694074727000007    0.0000000000000000
     0.0682082826000000    0.3036559964000000   28.5240018092999996
   La   Co   Ni   Sn   Bi   O    C    H 
    14    13    13    14    14     2     1     1
Selective dynamics
Direct
  0.5923085030437985  0.4203344792063251  0.4080093233698072   T   T   T
  0.6852842690962789  0.5712144187339908  0.3808733677354387   T   T   T
  0.4953237646281411  0.5275775093908640  0.2824481351901519   T   T   T
  0.5621634469909788  0.5215755781346035  0.6022413514311024   T   T   T
  0.5083638765213877  0.3871875257787370  0.3050427419623084   T   T   T
  0.5751570981710349  0.6553592899348302  0.4836892430186046   T   T   T
  0.5108652087114797  0.3348047119621267  0.5009255780564671   T   T   T
  0.5350416021773386  0.6376760091105947  0.3751186635892870   T   T   T
  0.4360173294705293  0.6434600578364923  0.5357506804902931   T   T   T
  0.4373551010143757  0.5015757590148624  0.3842817269995109   F   F   F
  0.4437846394494898  0.4460183835780285  0.5005161578087822   F   F   F
  0.3874898558055093  0.4671656688848732  0.6098665785226032   T   T   T
  0.3442896578027376  0.4445491833058734  0.3470250777718989   T   T   T
  0.3620114650566389  0.5856827986522778  0.3938712321671971   T   T   T
  0.4217425606853311  0.4061295180575186  0.3699802678458894   F   F   F
  0.5011311695957161  0.4887203336762909  0.4395023580252015   F   F   F
  0.4044148221271726  0.6101724300038001  0.4624736492929173   F   F   F
  0.4722931245665194  0.5596737886932672  0.5729988711091565   F   F   F
  0.6552684236953183  0.5165424048424470  0.4543399438695133   F   F   F
  0.5967309916701211  0.5535378348504167  0.5056109707055541   F   F   F
  0.5314074673932367  0.5941153005651714  0.5336729985293047   F   F   F
  0.5796732686089143  0.4997731718447866  0.4507473928409595   F   F   F
  0.4600424815506172  0.3305903258619807  0.3439795223132419   T   T   T
  0.3905180950192175  0.5252419063175111  0.4552418453041511   F   F   F
  0.4532122558557177  0.3244458262719598  0.4234917301788450   T   T   T
  0.5074804872141527  0.4592780196109629  0.3501259710292359   F   F   F
  0.6012877811302459  0.4669891268301640  0.5212355700313438   F   F   F
  0.5384608035519776  0.4312182275275163  0.4821288228790692   F   F   F
  0.4713083414346286  0.4805797151798927  0.5807598339419258   F   F   F
  0.3771163837573610  0.4514853175274567  0.4282230665427278   F   F   F
  0.4059018739390154  0.3822235888080883  0.4561785915149272   F   F   F
  0.5357818896390683  0.5680835373033233  0.4543473312664048   F   F   F
  0.4924712632432886  0.6367287407321953  0.4646113344718685   F   F   F
  0.4677327221812249  0.5829886973614862  0.4038343643763724   F   F   F
  0.5280944416629296  0.5063826634733033  0.5194466411805863   F   F   F
  0.6212454441397384  0.5105019604624417  0.3755946010283822   F   F   F
  0.6054499763524817  0.5821019035045651  0.4188664505762958   F   F   F
  0.4050790883739026  0.5245211222763402  0.5434909784116542   F   F   F
  0.3502967843307834  0.4709849448976696  0.5085046031679280   T   T   T
  0.4337641779862915  0.4574344454166125  0.3022435686670319   T   T   T
  0.5376180516112907  0.4216320518050665  0.5687434104239775   T   T   T
  0.3577504267869614  0.3882215344435932  0.5400789413671325   T   T   T
  0.4625951421883201  0.5516617238622956  0.4875128022361963   F   F   F
  0.6074828705620768  0.3760564337068572  0.5113728666464178   T   T   T
  0.4917758805967717  0.4383919278431911  0.6578350327961255   T   T   T
  0.5873201538830787  0.4675479442122292  0.3064620034025397   T   T   T
  0.4900497958562298  0.4037080615820798  0.4151644571778519   F   F   F
  0.4354874745797632  0.6747455251797746  0.4128540297640343   T   T   T
  0.4682153055959102  0.5367037797712039  0.6601037269323557   T   T   T
  0.5397532608265934  0.5319899791087650  0.3771480104995177   F   F   F
  0.6685217516799146  0.6001984737727172  0.4837174212642411   T   T   T
  0.6654683345002129  0.5190995141512839  0.5510407556036299   T   T   T
  0.3737984223446272  0.3354907085068572  0.3846419729656964   T   T   T
  0.6793717357466561  0.4369905038352070  0.4866602277313175   T   T   T
  0.5387174921888380  0.3185919939415172  0.3910816700881325   T   T   T
  0.3023279172553714  0.5034821138292016  0.4364772049198625   T   T   T
  0.3131770162380121  0.3964244550497615  0.4500080808007156   T   T   T
  0.5123204883211446  0.6252664434423572  0.6168712961416503   T   T   T
  0.4494592508448974  0.3739297861107785  0.5860821727883642   T   T   T
  0.3904240199072870  0.5805820666758451  0.6130009209516022   T   T   T
  0.4067511738402852  0.3072646946443630  0.5032552308193367   T   T   T
  0.4019311820943076  0.3721129073742053  0.2867717378615413   T   T   T
  0.3836398502654748  0.5338390679791641  0.2923781150501790   T   T   T
  0.6926147917132560  0.4603281414004943  0.3870936977382367   T   T   T
  0.3376654437018717  0.5724544769020889  0.5128648181314550   T   T   T
  0.5994534592493544  0.5725539701095602  0.3078640758522061   T   T   T
  0.6126214052999469  0.6140297400015748  0.5757447440963072   T   T   T
  0.4400956899115607  0.6152308788877277  0.3237102190997849   T   T   T
  0.5141309184088747  0.2770319479077277  0.5594018763668055   T   T   T
  0.4609758457707287  0.2781150587749475  0.6180999790973175   T   T   T
  0.4920966009860444  0.2588380684502099  0.5948246581388408   T   T   T
  0.5031786477330098  0.2221028830342855  0.6041438211676635   T   T   T
 
  0.00000000E+00  0.00000000E+00  0.00000000E+00
  0.00000000E+00  0.00000000E+00  0.00000000E+00
  0.00000000E+00  0.00000000E+00  0.00000000E+00
  0.00000000E+00  0.00000000E+00  0.00000000E+00
  0.00000000E+00  0.00000000E+00  0.00000000E+00
  0.00000000E+00  0.00000000E+00  0.00000000E+00
  0.00000000E+00  0.00000000E+00  0.00000000E+00
  0.00000000E+00  0.00000000E+00  0.00000000E+00
  0.00000000E+00  0.00000000E+00  0.00000000E+00
  0.00000000E+00  0.00000000E+00  0.00000000E+00
  0.00000000E+00  0.00000000E+00  0.00000000E+00
  0.00000000E+00  0.00000000E+00  0.00000000E+00
  0.00000000E+00  0.00000000E+00  0.00000000E+00
  0.00000000E+00  0.00000000E+00  0.00000000E+00
  0.00000000E+00  0.00000000E+00  0.00000000E+00
  0.00000000E+00  0.00000000E+00  0.00000000E+00
  0.00000000E+00  0.00000000E+00  0.00000000E+00
  0.00000000E+00  0.00000000E+00  0.00000000E+00
  0.00000000E+00  0.00000000E+00  0.00000000E+00
  0.00000000E+00  0.00000000E+00  0.00000000E+00
  0.00000000E+00  0.00000000E+00  0.00000000E+00
  0.00000000E+00  0.00000000E+00  0.00000000E+00
  0.00000000E+00  0.00000000E+00  0.00000000E+00
  0.00000000E+00  0.00000000E+00  0.00000000E+00
  0.00000000E+00  0.00000000E+00  0.00000000E+00
  0.00000000E+00  0.00000000E+00  0.00000000E+00
  0.00000000E+00  0.00000000E+00  0.00000000E+00
  0.00000000E+00  0.00000000E+00  0.00000000E+00
  0.00000000E+00  0.00000000E+00  0.00000000E+00
  0.00000000E+00  0.00000000E+00  0.00000000E+00
  0.00000000E+00  0.00000000E+00  0.00000000E+00
  0.00000000E+00  0.00000000E+00  0.00000000E+00
  0.00000000E+00  0.00000000E+00  0.00000000E+00
  0.00000000E+00  0.00000000E+00  0.00000000E+00
  0.00000000E+00  0.00000000E+00  0.00000000E+00
  0.00000000E+00  0.00000000E+00  0.00000000E+00
  0.00000000E+00  0.00000000E+00  0.00000000E+00
  0.00000000E+00  0.00000000E+00  0.00000000E+00
  0.00000000E+00  0.00000000E+00  0.00000000E+00
  0.00000000E+00  0.00000000E+00  0.00000000E+00
  0.00000000E+00  0.00000000E+00  0.00000000E+00
  0.00000000E+00  0.00000000E+00  0.00000000E+00
  0.00000000E+00  0.00000000E+00  0.00000000E+00
  0.00000000E+00  0.00000000E+00  0.00000000E+00
  0.00000000E+00  0.00000000E+00  0.00000000E+00
  0.00000000E+00  0.00000000E+00  0.00000000E+00
  0.00000000E+00  0.00000000E+00  0.00000000E+00
  0.00000000E+00  0.00000000E+00  0.00000000E+00
  0.00000000E+00  0.00000000E+00  0.00000000E+00
  0.00000000E+00  0.00000000E+00  0.00000000E+00
  0.00000000E+00  0.00000000E+00  0.00000000E+00
  0.00000000E+00  0.00000000E+00  0.00000000E+00
  0.00000000E+00  0.00000000E+00  0.00000000E+00
  0.00000000E+00  0.00000000E+00  0.00000000E+00
  0.00000000E+00  0.00000000E+00  0.00000000E+00
  0.00000000E+00  0.00000000E+00  0.00000000E+00
  0.00000000E+00  0.00000000E+00  0.00000000E+00
  0.00000000E+00  0.00000000E+00  0.00000000E+00
  0.00000000E+00  0.00000000E+00  0.00000000E+00
  0.00000000E+00  0.00000000E+00  0.00000000E+00
  0.00000000E+00  0.00000000E+00  0.00000000E+00
  0.00000000E+00  0.00000000E+00  0.00000000E+00
  0.00000000E+00  0.00000000E+00  0.00000000E+00
  0.00000000E+00  0.00000000E+00  0.00000000E+00
  0.00000000E+00  0.00000000E+00  0.00000000E+00
  0.00000000E+00  0.00000000E+00  0.00000000E+00
  0.00000000E+00  0.00000000E+00  0.00000000E+00
  0.00000000E+00  0.00000000E+00  0.00000000E+00
  0.00000000E+00  0.00000000E+00  0.00000000E+00
  0.00000000E+00  0.00000000E+00  0.00000000E+00
  0.00000000E+00  0.00000000E+00  0.00000000E+00
  0.00000000E+00  0.00000000E+00  0.00000000E+00
