La Co Ni Sn Bi O  C  H                  
   1.00000000000000     
    29.1044006348000011    0.0000000000000000    0.0000000000000000
     0.4451680315000000   28.3694074727000007    0.0000000000000000
     0.0682082826000000    0.3036559964000000   28.5240018092999996
   La   Co   Ni   Sn   Bi   O    C    H 
    14    13    13    14    14     2     1     1
Selective dynamics
Direct
  0.5943491134169168  0.4180027255518544  0.4081170136784135   T   T   T
  0.6843207239708929  0.5728410467049078  0.3804043810847257   T   T   T
  0.4953043162073300  0.5270087185260784  0.2821316277135231   T   T   T
  0.5623426226046773  0.5218571203901644  0.6021469515225434   T   T   T
  0.5083444769116929  0.3866679910067163  0.3055862754707870   T   T   T
  0.5753854478258892  0.6552840944777467  0.4833568266918941   T   T   T
  0.5087153549879435  0.3379615641619057  0.4992866255356709   T   T   T
  0.5351058349206517  0.6376393292533240  0.3750244968916558   T   T   T
  0.4361743981318415  0.6434390227141058  0.5356884246235554   T   T   T
  0.4373551010143757  0.5015757590148624  0.3842817269995109   F   F   F
  0.4437846394494898  0.4460183835780285  0.5005161578087822   F   F   F
  0.3868739807011168  0.4669052082331633  0.6092930248673817   T   T   T
  0.3443069003148541  0.4445176260287992  0.3469203855829053   T   T   T
  0.3620394281682353  0.5856115079173423  0.3938065016324461   T   T   T
  0.4217425606853311  0.4061295180575186  0.3699802678458894   F   F   F
  0.5011311695957161  0.4887203336762909  0.4395023580252015   F   F   F
  0.4044148221271726  0.6101724300038001  0.4624736492929173   F   F   F
  0.4722931245665194  0.5596737886932672  0.5729988711091565   F   F   F
  0.6552684236953183  0.5165424048424470  0.4543399438695133   F   F   F
  0.5967309916701211  0.5535378348504167  0.5056109707055541   F   F   F
  0.5314074673932367  0.5941153005651714  0.5336729985293047   F   F   F
  0.5796732686089143  0.4997731718447866  0.4507473928409595   F   F   F
  0.4595138260729837  0.3303379207764741  0.3440881004555374   T   T   T
  0.3905180950192175  0.5252419063175111  0.4552418453041511   F   F   F
  0.4533692632592721  0.3245095883248866  0.4238822905106558   T   T   T
  0.5074804872141527  0.4592780196109629  0.3501259710292359   F   F   F
  0.6012877811302459  0.4669891268301640  0.5212355700313438   F   F   F
  0.5384608035519776  0.4312182275275163  0.4821288228790692   F   F   F
  0.4713083414346286  0.4805797151798927  0.5807598339419258   F   F   F
  0.3771163837573610  0.4514853175274567  0.4282230665427278   F   F   F
  0.4059018739390154  0.3822235888080883  0.4561785915149272   F   F   F
  0.5357818896390683  0.5680835373033233  0.4543473312664048   F   F   F
  0.4924712632432886  0.6367287407321953  0.4646113344718685   F   F   F
  0.4677327221812249  0.5829886973614862  0.4038343643763724   F   F   F
  0.5280944416629296  0.5063826634733033  0.5194466411805863   F   F   F
  0.6212454441397384  0.5105019604624417  0.3755946010283822   F   F   F
  0.6054499763524817  0.5821019035045651  0.4188664505762958   F   F   F
  0.4050790883739026  0.5245211222763402  0.5434909784116542   F   F   F
  0.3507000467687185  0.4702967527200274  0.5086889492459490   T   T   T
  0.4338968194206191  0.4573698545775008  0.3022247265863409   T   T   T
  0.5373213807582810  0.4219652384356599  0.5692983788341288   T   T   T
  0.3572750928624010  0.3871570043739433  0.5395548624230422   T   T   T
  0.4625951421883201  0.5516617238622956  0.4875128022361963   F   F   F
  0.6063163769614818  0.3761002829668378  0.5136714938182712   T   T   T
  0.4905643060049817  0.4386250934186902  0.6580791300182356   T   T   T
  0.5873339252534879  0.4671242292934734  0.3068799017605440   T   T   T
  0.4900497958562298  0.4037080615820798  0.4151644571778519   F   F   F
  0.4354887754968909  0.6747324375024736  0.4127608741828312   T   T   T
  0.4682113929681426  0.5367856805473288  0.6601773396037716   T   T   T
  0.5397532608265934  0.5319899791087650  0.3771480104995177   F   F   F
  0.6686369943789033  0.6000364113836497  0.4838461440395507   T   T   T
  0.6652326778470816  0.5199180515573896  0.5515483374716972   T   T   T
  0.3740654469575190  0.3353196076205988  0.3844537392243303   T   T   T
  0.6804848734901670  0.4377069369911632  0.4878895855818797   T   T   T
  0.5377117802861457  0.3173230365680860  0.3914766179224863   T   T   T
  0.3023942535916067  0.5032836967824976  0.4367155457442470   T   T   T
  0.3131686765551386  0.3961116335105613  0.4493407386373550   T   T   T
  0.5123528723716639  0.6252966874904418  0.6168260946298968   T   T   T
  0.4484663826465331  0.3741181586325357  0.5853159691921621   T   T   T
  0.3905753416856192  0.5803838230462312  0.6130989600335154   T   T   T
  0.4051992887381229  0.3056730147176137  0.5014620221302286   T   T   T
  0.4019007220069995  0.3721587533786835  0.2866504625746051   T   T   T
  0.3836043104309204  0.5336985274144863  0.2923304894631788   T   T   T
  0.6940585234117030  0.4624584935653346  0.3883880127294732   T   T   T
  0.3376754384148988  0.5722242968042898  0.5128035902569831   T   T   T
  0.5986945340358677  0.5722646350139809  0.3073058535379354   T   T   T
  0.6126663005623409  0.6143350740004448  0.5757500426844955   T   T   T
  0.4403132248921081  0.6148311549700701  0.3236176795938582   T   T   T
  0.6472385763716343  0.3518711037503651  0.4141549781574013   T   T   T
  0.7106529154372935  0.3554207579442808  0.4602812241232835   T   T   T
  0.6871815426912434  0.3379218406422217  0.4280362852425383   T   T   T
  0.7020635504638977  0.3070668266159089  0.4091888349220695   T   T   T
 
  0.00000000E+00  0.00000000E+00  0.00000000E+00
  0.00000000E+00  0.00000000E+00  0.00000000E+00
  0.00000000E+00  0.00000000E+00  0.00000000E+00
  0.00000000E+00  0.00000000E+00  0.00000000E+00
  0.00000000E+00  0.00000000E+00  0.00000000E+00
  0.00000000E+00  0.00000000E+00  0.00000000E+00
  0.00000000E+00  0.00000000E+00  0.00000000E+00
  0.00000000E+00  0.00000000E+00  0.00000000E+00
  0.00000000E+00  0.00000000E+00  0.00000000E+00
  0.00000000E+00  0.00000000E+00  0.00000000E+00
  0.00000000E+00  0.00000000E+00  0.00000000E+00
  0.00000000E+00  0.00000000E+00  0.00000000E+00
  0.00000000E+00  0.00000000E+00  0.00000000E+00
  0.00000000E+00  0.00000000E+00  0.00000000E+00
  0.00000000E+00  0.00000000E+00  0.00000000E+00
  0.00000000E+00  0.00000000E+00  0.00000000E+00
  0.00000000E+00  0.00000000E+00  0.00000000E+00
  0.00000000E+00  0.00000000E+00  0.00000000E+00
  0.00000000E+00  0.00000000E+00  0.00000000E+00
  0.00000000E+00  0.00000000E+00  0.00000000E+00
  0.00000000E+00  0.00000000E+00  0.00000000E+00
  0.00000000E+00  0.00000000E+00  0.00000000E+00
  0.00000000E+00  0.00000000E+00  0.00000000E+00
  0.00000000E+00  0.00000000E+00  0.00000000E+00
  0.00000000E+00  0.00000000E+00  0.00000000E+00
  0.00000000E+00  0.00000000E+00  0.00000000E+00
  0.00000000E+00  0.00000000E+00  0.00000000E+00
  0.00000000E+00  0.00000000E+00  0.00000000E+00
  0.00000000E+00  0.00000000E+00  0.00000000E+00
  0.00000000E+00  0.00000000E+00  0.00000000E+00
  0.00000000E+00  0.00000000E+00  0.00000000E+00
  0.00000000E+00  0.00000000E+00  0.00000000E+00
  0.00000000E+00  0.00000000E+00  0.00000000E+00
  0.00000000E+00  0.00000000E+00  0.00000000E+00
  0.00000000E+00  0.00000000E+00  0.00000000E+00
  0.00000000E+00  0.00000000E+00  0.00000000E+00
  0.00000000E+00  0.00000000E+00  0.00000000E+00
  0.00000000E+00  0.00000000E+00  0.00000000E+00
  0.00000000E+00  0.00000000E+00  0.00000000E+00
  0.00000000E+00  0.00000000E+00  0.00000000E+00
  0.00000000E+00  0.00000000E+00  0.00000000E+00
  0.00000000E+00  0.00000000E+00  0.00000000E+00
  0.00000000E+00  0.00000000E+00  0.00000000E+00
  0.00000000E+00  0.00000000E+00  0.00000000E+00
  0.00000000E+00  0.00000000E+00  0.00000000E+00
  0.00000000E+00  0.00000000E+00  0.00000000E+00
  0.00000000E+00  0.00000000E+00  0.00000000E+00
  0.00000000E+00  0.00000000E+00  0.00000000E+00
  0.00000000E+00  0.00000000E+00  0.00000000E+00
  0.00000000E+00  0.00000000E+00  0.00000000E+00
  0.00000000E+00  0.00000000E+00  0.00000000E+00
  0.00000000E+00  0.00000000E+00  0.00000000E+00
  0.00000000E+00  0.00000000E+00  0.00000000E+00
  0.00000000E+00  0.00000000E+00  0.00000000E+00
  0.00000000E+00  0.00000000E+00  0.00000000E+00
  0.00000000E+00  0.00000000E+00  0.00000000E+00
  0.00000000E+00  0.00000000E+00  0.00000000E+00
  0.00000000E+00  0.00000000E+00  0.00000000E+00
  0.00000000E+00  0.00000000E+00  0.00000000E+00
  0.00000000E+00  0.00000000E+00  0.00000000E+00
  0.00000000E+00  0.00000000E+00  0.00000000E+00
  0.00000000E+00  0.00000000E+00  0.00000000E+00
  0.00000000E+00  0.00000000E+00  0.00000000E+00
  0.00000000E+00  0.00000000E+00  0.00000000E+00
  0.00000000E+00  0.00000000E+00  0.00000000E+00
  0.00000000E+00  0.00000000E+00  0.00000000E+00
  0.00000000E+00  0.00000000E+00  0.00000000E+00
  0.00000000E+00  0.00000000E+00  0.00000000E+00
  0.00000000E+00  0.00000000E+00  0.00000000E+00
  0.00000000E+00  0.00000000E+00  0.00000000E+00
  0.00000000E+00  0.00000000E+00  0.00000000E+00
  0.00000000E+00  0.00000000E+00  0.00000000E+00
