La Co Ni Sn Bi O  C  H                  
   1.00000000000000     
    29.1044006348000011    0.0000000000000000    0.0000000000000000
     0.4451680315000000   28.3694074727000007    0.0000000000000000
     0.0682082826000000    0.3036559964000000   28.5240018092999996
   La   Co   Ni   Sn   Bi   O    C    H 
    14    13    13    14    14     2     1     1
Selective dynamics
Direct
  0.5925354693066852  0.4205260064819854  0.4080723340774642   T   T   T
  0.6849492366107760  0.5714386754228379  0.3804781018178721   T   T   T
  0.4955737663812537  0.5267759199789376  0.2818767845653643   T   T   T
  0.5627085596371177  0.5226853328545422  0.6019814180011991   T   T   T
  0.5087981581971365  0.3869904541237863  0.3055752299648792   T   T   T
  0.5761616068763331  0.6605050113119806  0.4810202191596699   T   T   T
  0.5091500099914316  0.3384113958942039  0.4998216429028874   T   T   T
  0.5362337249998099  0.6392532100025015  0.3738540180166695   T   T   T
  0.4365227792334482  0.6441343830228323  0.5351209395131035   T   T   T
  0.4373551010143757  0.5015757590148624  0.3842817269995109   F   F   F
  0.4437846394494898  0.4460183835780285  0.5005161578087822   F   F   F
  0.3875379159654995  0.4674272271768932  0.6098140271144924   T   T   T
  0.3444858964393546  0.4442649513502946  0.3469968155989512   T   T   T
  0.3622863136246305  0.5853896063497497  0.3936016676684454   T   T   T
  0.4217425606853311  0.4061295180575186  0.3699802678458894   F   F   F
  0.5011311695957161  0.4887203336762909  0.4395023580252015   F   F   F
  0.4044148221271726  0.6101724300038001  0.4624736492929173   F   F   F
  0.4722931245665194  0.5596737886932672  0.5729988711091565   F   F   F
  0.6552684236953183  0.5165424048424470  0.4543399438695133   F   F   F
  0.5967309916701211  0.5535378348504167  0.5056109707055541   F   F   F
  0.5314074673932367  0.5941153005651714  0.5336729985293047   F   F   F
  0.5796732686089143  0.4997731718447866  0.4507473928409595   F   F   F
  0.4609438981922955  0.3310132673275145  0.3450294161105758   T   T   T
  0.3905180950192175  0.5252419063175111  0.4552418453041511   F   F   F
  0.4547392497329857  0.3246315433824613  0.4245768893609139   T   T   T
  0.5074804872141527  0.4592780196109629  0.3501259710292359   F   F   F
  0.6012877811302459  0.4669891268301640  0.5212355700313438   F   F   F
  0.5384608035519776  0.4312182275275163  0.4821288228790692   F   F   F
  0.4713083414346286  0.4805797151798927  0.5807598339419258   F   F   F
  0.3771163837573610  0.4514853175274567  0.4282230665427278   F   F   F
  0.4059018739390154  0.3822235888080883  0.4561785915149272   F   F   F
  0.5357818896390683  0.5680835373033233  0.4543473312664048   F   F   F
  0.4924712632432886  0.6367287407321953  0.4646113344718685   F   F   F
  0.4677327221812249  0.5829886973614862  0.4038343643763724   F   F   F
  0.5280944416629296  0.5063826634733033  0.5194466411805863   F   F   F
  0.6212454441397384  0.5105019604624417  0.3755946010283822   F   F   F
  0.6054499763524817  0.5821019035045651  0.4188664505762958   F   F   F
  0.4050790883739026  0.5245211222763402  0.5434909784116542   F   F   F
  0.3506646833644293  0.4703659834863542  0.5087580566653870   T   T   T
  0.4338281306248950  0.4572259209777373  0.3021593573135508   T   T   T
  0.5383641205699267  0.4223492732300463  0.5692340901100741   T   T   T
  0.3578968167725800  0.3874050207501541  0.5401626421158626   T   T   T
  0.4625951421883201  0.5516617238622956  0.4875128022361963   F   F   F
  0.6070192589479246  0.3756942560880344  0.5111517855147905   T   T   T
  0.4920623707907633  0.4397892457599438  0.6582531275017651   T   T   T
  0.5874703767894115  0.4672728032062481  0.3064845967346074   T   T   T
  0.4900497958562298  0.4037080615820798  0.4151644571778519   F   F   F
  0.4357086440913840  0.6740220869184660  0.4123158340505147   T   T   T
  0.4683913704807042  0.5376929982160139  0.6600663262723698   T   T   T
  0.5397532608265934  0.5319899791087650  0.3771480104995177   F   F   F
  0.6677433890550454  0.6009913280145256  0.4829403266261496   T   T   T
  0.6656905208898742  0.5199010535793462  0.5505674130629972   T   T   T
  0.3749957393770403  0.3347159907170211  0.3851697316358190   T   T   T
  0.6793825966774114  0.4368783755344224  0.4868411574477802   T   T   T
  0.5397488999222999  0.3186161579872359  0.3920742019722797   T   T   T
  0.3023808286973234  0.5032487666602780  0.4367136900678189   T   T   T
  0.3134987692458622  0.3959528080486410  0.4500028719369127   T   T   T
  0.5123011103894545  0.6257050268371022  0.6165595339369525   T   T   T
  0.4493026510639707  0.3749527394563996  0.5859723188234480   T   T   T
  0.3905587954742961  0.5810587606780594  0.6124970902580663   T   T   T
  0.4055219985072028  0.3059200478771428  0.5016989886941124   T   T   T
  0.4025370181378095  0.3716637979651750  0.2870941951810950   T   T   T
  0.3837982938573390  0.5335932439370089  0.2921042783049079   T   T   T
  0.6927525555794044  0.4605206094071110  0.3870884865412572   T   T   T
  0.3376790208985826  0.5723587180211311  0.5127651215124985   T   T   T
  0.5990601228719253  0.5720522379480601  0.3072955952006309   T   T   T
  0.6122262786631060  0.6157540689318676  0.5741148514993804   T   T   T
  0.4406825048540824  0.6144143503863733  0.3233916886422061   T   T   T
  0.5717395024396397  0.7111634904182013  0.3990525911250954   T   T   T
  0.5617553205618687  0.7497222588625085  0.4670932071992799   T   T   T
  0.5608007224214413  0.7483683791272098  0.4231075565358265   T   T   T
  0.5504289136886616  0.7801363579240882  0.4025433124060515   T   T   T
 
  0.00000000E+00  0.00000000E+00  0.00000000E+00
  0.00000000E+00  0.00000000E+00  0.00000000E+00
  0.00000000E+00  0.00000000E+00  0.00000000E+00
  0.00000000E+00  0.00000000E+00  0.00000000E+00
  0.00000000E+00  0.00000000E+00  0.00000000E+00
  0.00000000E+00  0.00000000E+00  0.00000000E+00
  0.00000000E+00  0.00000000E+00  0.00000000E+00
  0.00000000E+00  0.00000000E+00  0.00000000E+00
  0.00000000E+00  0.00000000E+00  0.00000000E+00
  0.00000000E+00  0.00000000E+00  0.00000000E+00
  0.00000000E+00  0.00000000E+00  0.00000000E+00
  0.00000000E+00  0.00000000E+00  0.00000000E+00
  0.00000000E+00  0.00000000E+00  0.00000000E+00
  0.00000000E+00  0.00000000E+00  0.00000000E+00
  0.00000000E+00  0.00000000E+00  0.00000000E+00
  0.00000000E+00  0.00000000E+00  0.00000000E+00
  0.00000000E+00  0.00000000E+00  0.00000000E+00
  0.00000000E+00  0.00000000E+00  0.00000000E+00
  0.00000000E+00  0.00000000E+00  0.00000000E+00
  0.00000000E+00  0.00000000E+00  0.00000000E+00
  0.00000000E+00  0.00000000E+00  0.00000000E+00
  0.00000000E+00  0.00000000E+00  0.00000000E+00
  0.00000000E+00  0.00000000E+00  0.00000000E+00
  0.00000000E+00  0.00000000E+00  0.00000000E+00
  0.00000000E+00  0.00000000E+00  0.00000000E+00
  0.00000000E+00  0.00000000E+00  0.00000000E+00
  0.00000000E+00  0.00000000E+00  0.00000000E+00
  0.00000000E+00  0.00000000E+00  0.00000000E+00
  0.00000000E+00  0.00000000E+00  0.00000000E+00
  0.00000000E+00  0.00000000E+00  0.00000000E+00
  0.00000000E+00  0.00000000E+00  0.00000000E+00
  0.00000000E+00  0.00000000E+00  0.00000000E+00
  0.00000000E+00  0.00000000E+00  0.00000000E+00
  0.00000000E+00  0.00000000E+00  0.00000000E+00
  0.00000000E+00  0.00000000E+00  0.00000000E+00
  0.00000000E+00  0.00000000E+00  0.00000000E+00
  0.00000000E+00  0.00000000E+00  0.00000000E+00
  0.00000000E+00  0.00000000E+00  0.00000000E+00
  0.00000000E+00  0.00000000E+00  0.00000000E+00
  0.00000000E+00  0.00000000E+00  0.00000000E+00
  0.00000000E+00  0.00000000E+00  0.00000000E+00
  0.00000000E+00  0.00000000E+00  0.00000000E+00
  0.00000000E+00  0.00000000E+00  0.00000000E+00
  0.00000000E+00  0.00000000E+00  0.00000000E+00
  0.00000000E+00  0.00000000E+00  0.00000000E+00
  0.00000000E+00  0.00000000E+00  0.00000000E+00
  0.00000000E+00  0.00000000E+00  0.00000000E+00
  0.00000000E+00  0.00000000E+00  0.00000000E+00
  0.00000000E+00  0.00000000E+00  0.00000000E+00
  0.00000000E+00  0.00000000E+00  0.00000000E+00
  0.00000000E+00  0.00000000E+00  0.00000000E+00
  0.00000000E+00  0.00000000E+00  0.00000000E+00
  0.00000000E+00  0.00000000E+00  0.00000000E+00
  0.00000000E+00  0.00000000E+00  0.00000000E+00
  0.00000000E+00  0.00000000E+00  0.00000000E+00
  0.00000000E+00  0.00000000E+00  0.00000000E+00
  0.00000000E+00  0.00000000E+00  0.00000000E+00
  0.00000000E+00  0.00000000E+00  0.00000000E+00
  0.00000000E+00  0.00000000E+00  0.00000000E+00
  0.00000000E+00  0.00000000E+00  0.00000000E+00
  0.00000000E+00  0.00000000E+00  0.00000000E+00
  0.00000000E+00  0.00000000E+00  0.00000000E+00
  0.00000000E+00  0.00000000E+00  0.00000000E+00
  0.00000000E+00  0.00000000E+00  0.00000000E+00
  0.00000000E+00  0.00000000E+00  0.00000000E+00
  0.00000000E+00  0.00000000E+00  0.00000000E+00
  0.00000000E+00  0.00000000E+00  0.00000000E+00
  0.00000000E+00  0.00000000E+00  0.00000000E+00
  0.00000000E+00  0.00000000E+00  0.00000000E+00
  0.00000000E+00  0.00000000E+00  0.00000000E+00
  0.00000000E+00  0.00000000E+00  0.00000000E+00
  0.00000000E+00  0.00000000E+00  0.00000000E+00
