La Co Ni Sn Bi O  C  H                  
   1.00000000000000     
    29.1044006348000011    0.0000000000000000    0.0000000000000000
     0.4451680315000000   28.3694074727000007    0.0000000000000000
     0.0682082826000000    0.3036559964000000   28.5240018092999996
   La   Co   Ni   Sn   Bi   O    C    H 
    14    13    13    14    14     2     1     1
Selective dynamics
Direct
  0.5922448897977530  0.4205415078384860  0.4078830237411729   T   T   T
  0.6855946061842358  0.5710482754801549  0.3814377769371757   T   T   T
  0.4956206934818168  0.5279423596526895  0.2823631586635942   T   T   T
  0.5618296976267357  0.5217821774566386  0.6022520274051036   T   T   T
  0.5091038547086886  0.3869484640696516  0.3055893880116862   T   T   T
  0.5750611680793176  0.6553762129069962  0.4834525171553158   T   T   T
  0.5085310013456227  0.3380711378535353  0.4997933510630436   T   T   T
  0.5350909108324657  0.6376423752868456  0.3750947265252502   T   T   T
  0.4355058032850014  0.6436488324231348  0.5348851563499434   T   T   T
  0.4373551010143757  0.5015757590148624  0.3842817269995109   F   F   F
  0.4437846394494898  0.4460183835780285  0.5005161578087822   F   F   F
  0.3834117435683178  0.4675610270823125  0.6109218808105669   T   T   T
  0.3446135282140539  0.4442571258240061  0.3465232084645130   T   T   T
  0.3619097669268329  0.5856932268487464  0.3936661382416923   T   T   T
  0.4217425606853311  0.4061295180575186  0.3699802678458894   F   F   F
  0.5011311695957161  0.4887203336762909  0.4395023580252015   F   F   F
  0.4044148221271726  0.6101724300038001  0.4624736492929173   F   F   F
  0.4722931245665194  0.5596737886932672  0.5729988711091565   F   F   F
  0.6552684236953183  0.5165424048424470  0.4543399438695133   F   F   F
  0.5967309916701211  0.5535378348504167  0.5056109707055541   F   F   F
  0.5314074673932367  0.5941153005651714  0.5336729985293047   F   F   F
  0.5796732686089143  0.4997731718447866  0.4507473928409595   F   F   F
  0.4609538602740096  0.3308822416006891  0.3449979729235621   T   T   T
  0.3905180950192175  0.5252419063175111  0.4552418453041511   F   F   F
  0.4543134732581634  0.3244428772666421  0.4243875682268901   T   T   T
  0.5074804872141527  0.4592780196109629  0.3501259710292359   F   F   F
  0.6012877811302459  0.4669891268301640  0.5212355700313438   F   F   F
  0.5384608035519776  0.4312182275275163  0.4821288228790692   F   F   F
  0.4713083414346286  0.4805797151798927  0.5807598339419258   F   F   F
  0.3771163837573610  0.4514853175274567  0.4282230665427278   F   F   F
  0.4059018739390154  0.3822235888080883  0.4561785915149272   F   F   F
  0.5357818896390683  0.5680835373033233  0.4543473312664048   F   F   F
  0.4924712632432886  0.6367287407321953  0.4646113344718685   F   F   F
  0.4677327221812249  0.5829886973614862  0.4038343643763724   F   F   F
  0.5280944416629296  0.5063826634733033  0.5194466411805863   F   F   F
  0.6212454441397384  0.5105019604624417  0.3755946010283822   F   F   F
  0.6054499763524817  0.5821019035045651  0.4188664505762958   F   F   F
  0.4050790883739026  0.5245211222763402  0.5434909784116542   F   F   F
  0.3504951431086388  0.4706284376358038  0.5081834279395141   T   T   T
  0.4341924865484207  0.4572979124568381  0.3021172628924741   T   T   T
  0.5378072706999718  0.4218669324570888  0.5689199224414515   T   T   T
  0.3574987271567511  0.3875153301522989  0.5390727247686713   T   T   T
  0.4625951421883201  0.5516617238622956  0.4875128022361963   F   F   F
  0.6064273987125282  0.3752054987572291  0.5105241832579311   T   T   T
  0.4919992925440919  0.4382630334116820  0.6579777676975529   T   T   T
  0.5873318430664025  0.4676599216839400  0.3064178912568031   T   T   T
  0.4900497958562298  0.4037080615820798  0.4151644571778519   F   F   F
  0.4355479154137146  0.6747323866668395  0.4127754414171839   T   T   T
  0.4670462321080942  0.5358397465343082  0.6596903800940617   T   T   T
  0.5397532608265934  0.5319899791087650  0.3771480104995177   F   F   F
  0.6683500458222481  0.6004290268594996  0.4840009799949817   T   T   T
  0.6654376337739414  0.5190905514532334  0.5510661582355039   T   T   T
  0.3748752792206165  0.3345933696698285  0.3847515546800617   T   T   T
  0.6787197057365790  0.4364970302761887  0.4868724052274606   T   T   T
  0.5397419823244508  0.3185617587649462  0.3922160207291622   T   T   T
  0.3024252829052809  0.5031173820826412  0.4360530694890197   T   T   T
  0.3133900212922404  0.3956877119570006  0.4486807617622350   T   T   T
  0.5109701726706040  0.6250148911850082  0.6170990120787583   T   T   T
  0.4484830103299780  0.3751339066188301  0.5857221893288819   T   T   T
  0.3907256241883068  0.5810454249090962  0.6126498862755182   T   T   T
  0.4047959032237691  0.3057173261103289  0.5013945019395565   T   T   T
  0.4028046376539980  0.3715152090232730  0.2870287722674149   T   T   T
  0.3839606452544965  0.5336223811825478  0.2921857815825893   T   T   T
  0.6925790989216523  0.4601382794919804  0.3875173843974272   T   T   T
  0.3374561142655331  0.5715744023296482  0.5130224798646794   T   T   T
  0.5998811224688718  0.5726599148199562  0.3082298059382436   T   T   T
  0.6121970573405383  0.6141779571820256  0.5756054716124834   T   T   T
  0.4400763363806727  0.6152978234192104  0.3236920812861568   T   T   T
  0.3124226767802212  0.4966047911406215  0.6374086893811119   T   T   T
  0.2927500146430881  0.5722190391197949  0.6173088732491148   T   T   T
  0.2841501067501419  0.5323791216402564  0.6337435578860868   T   T   T
  0.2487516899099043  0.5254170227867514  0.6469627566340548   T   T   T
 
  0.00000000E+00  0.00000000E+00  0.00000000E+00
  0.00000000E+00  0.00000000E+00  0.00000000E+00
  0.00000000E+00  0.00000000E+00  0.00000000E+00
  0.00000000E+00  0.00000000E+00  0.00000000E+00
  0.00000000E+00  0.00000000E+00  0.00000000E+00
  0.00000000E+00  0.00000000E+00  0.00000000E+00
  0.00000000E+00  0.00000000E+00  0.00000000E+00
  0.00000000E+00  0.00000000E+00  0.00000000E+00
  0.00000000E+00  0.00000000E+00  0.00000000E+00
  0.00000000E+00  0.00000000E+00  0.00000000E+00
  0.00000000E+00  0.00000000E+00  0.00000000E+00
  0.00000000E+00  0.00000000E+00  0.00000000E+00
  0.00000000E+00  0.00000000E+00  0.00000000E+00
  0.00000000E+00  0.00000000E+00  0.00000000E+00
  0.00000000E+00  0.00000000E+00  0.00000000E+00
  0.00000000E+00  0.00000000E+00  0.00000000E+00
  0.00000000E+00  0.00000000E+00  0.00000000E+00
  0.00000000E+00  0.00000000E+00  0.00000000E+00
  0.00000000E+00  0.00000000E+00  0.00000000E+00
  0.00000000E+00  0.00000000E+00  0.00000000E+00
  0.00000000E+00  0.00000000E+00  0.00000000E+00
  0.00000000E+00  0.00000000E+00  0.00000000E+00
  0.00000000E+00  0.00000000E+00  0.00000000E+00
  0.00000000E+00  0.00000000E+00  0.00000000E+00
  0.00000000E+00  0.00000000E+00  0.00000000E+00
  0.00000000E+00  0.00000000E+00  0.00000000E+00
  0.00000000E+00  0.00000000E+00  0.00000000E+00
  0.00000000E+00  0.00000000E+00  0.00000000E+00
  0.00000000E+00  0.00000000E+00  0.00000000E+00
  0.00000000E+00  0.00000000E+00  0.00000000E+00
  0.00000000E+00  0.00000000E+00  0.00000000E+00
  0.00000000E+00  0.00000000E+00  0.00000000E+00
  0.00000000E+00  0.00000000E+00  0.00000000E+00
  0.00000000E+00  0.00000000E+00  0.00000000E+00
  0.00000000E+00  0.00000000E+00  0.00000000E+00
  0.00000000E+00  0.00000000E+00  0.00000000E+00
  0.00000000E+00  0.00000000E+00  0.00000000E+00
  0.00000000E+00  0.00000000E+00  0.00000000E+00
  0.00000000E+00  0.00000000E+00  0.00000000E+00
  0.00000000E+00  0.00000000E+00  0.00000000E+00
  0.00000000E+00  0.00000000E+00  0.00000000E+00
  0.00000000E+00  0.00000000E+00  0.00000000E+00
  0.00000000E+00  0.00000000E+00  0.00000000E+00
  0.00000000E+00  0.00000000E+00  0.00000000E+00
  0.00000000E+00  0.00000000E+00  0.00000000E+00
  0.00000000E+00  0.00000000E+00  0.00000000E+00
  0.00000000E+00  0.00000000E+00  0.00000000E+00
  0.00000000E+00  0.00000000E+00  0.00000000E+00
  0.00000000E+00  0.00000000E+00  0.00000000E+00
  0.00000000E+00  0.00000000E+00  0.00000000E+00
  0.00000000E+00  0.00000000E+00  0.00000000E+00
  0.00000000E+00  0.00000000E+00  0.00000000E+00
  0.00000000E+00  0.00000000E+00  0.00000000E+00
  0.00000000E+00  0.00000000E+00  0.00000000E+00
  0.00000000E+00  0.00000000E+00  0.00000000E+00
  0.00000000E+00  0.00000000E+00  0.00000000E+00
  0.00000000E+00  0.00000000E+00  0.00000000E+00
  0.00000000E+00  0.00000000E+00  0.00000000E+00
  0.00000000E+00  0.00000000E+00  0.00000000E+00
  0.00000000E+00  0.00000000E+00  0.00000000E+00
  0.00000000E+00  0.00000000E+00  0.00000000E+00
  0.00000000E+00  0.00000000E+00  0.00000000E+00
  0.00000000E+00  0.00000000E+00  0.00000000E+00
  0.00000000E+00  0.00000000E+00  0.00000000E+00
  0.00000000E+00  0.00000000E+00  0.00000000E+00
  0.00000000E+00  0.00000000E+00  0.00000000E+00
  0.00000000E+00  0.00000000E+00  0.00000000E+00
  0.00000000E+00  0.00000000E+00  0.00000000E+00
  0.00000000E+00  0.00000000E+00  0.00000000E+00
  0.00000000E+00  0.00000000E+00  0.00000000E+00
  0.00000000E+00  0.00000000E+00  0.00000000E+00
  0.00000000E+00  0.00000000E+00  0.00000000E+00
