La Co Ni Sn Bi O  C  H                  
   1.00000000000000     
    29.1044006348000011    0.0000000000000000    0.0000000000000000
     0.4451680315000000   28.3694074727000007    0.0000000000000000
     0.0682082826000000    0.3036559964000000   28.5240018092999996
   La   Co   Ni   Sn   Bi   O    C    H 
    14    13    13    14    14     2     1     1
Selective dynamics
Direct
  0.5926291455301669  0.4206222724417407  0.4081613484386858   T   T   T
  0.6848647486601930  0.5717574763213485  0.3806838612830634   T   T   T
  0.4956972146344467  0.5266908466886296  0.2818631639419166   T   T   T
  0.5626174234305921  0.5224103335008924  0.6019920642818064   T   T   T
  0.5090005002627096  0.3868900404260446  0.3056459896551261   T   T   T
  0.5769828602412587  0.6597914052815352  0.4808077841038274   T   T   T
  0.5088964022436577  0.3382771696057802  0.4998825502108135   T   T   T
  0.5364560557410456  0.6392719635820460  0.3736996674683199   T   T   T
  0.4362518150877348  0.6438664134671171  0.5352166624857112   T   T   T
  0.4373551010143757  0.5015757590148624  0.3842817269995109   F   F   F
  0.4437846394494898  0.4460183835780285  0.5005161578087822   F   F   F
  0.3873824798445934  0.4672092895436341  0.6095725230689680   T   T   T
  0.3446806712229364  0.4441812582913744  0.3467744980051256   T   T   T
  0.3621962214441005  0.5854081943265994  0.3934375560697893   T   T   T
  0.4217425606853311  0.4061295180575186  0.3699802678458894   F   F   F
  0.5011311695957161  0.4887203336762909  0.4395023580252015   F   F   F
  0.4044148221271726  0.6101724300038001  0.4624736492929173   F   F   F
  0.4722931245665194  0.5596737886932672  0.5729988711091565   F   F   F
  0.6552684236953183  0.5165424048424470  0.4543399438695133   F   F   F
  0.5967309916701211  0.5535378348504167  0.5056109707055541   F   F   F
  0.5314074673932367  0.5941153005651714  0.5336729985293047   F   F   F
  0.5796732686089143  0.4997731718447866  0.4507473928409595   F   F   F
  0.4610621499611883  0.3311072616005352  0.3451168597140718   T   T   T
  0.3905180950192175  0.5252419063175111  0.4552418453041511   F   F   F
  0.4548094261834164  0.3246152621550334  0.4247940612870661   T   T   T
  0.5074804872141527  0.4592780196109629  0.3501259710292359   F   F   F
  0.6012877811302459  0.4669891268301640  0.5212355700313438   F   F   F
  0.5384608035519776  0.4312182275275163  0.4821288228790692   F   F   F
  0.4713083414346286  0.4805797151798927  0.5807598339419258   F   F   F
  0.3771163837573610  0.4514853175274567  0.4282230665427278   F   F   F
  0.4059018739390154  0.3822235888080883  0.4561785915149272   F   F   F
  0.5357818896390683  0.5680835373033233  0.4543473312664048   F   F   F
  0.4924712632432886  0.6367287407321953  0.4646113344718685   F   F   F
  0.4677327221812249  0.5829886973614862  0.4038343643763724   F   F   F
  0.5280944416629296  0.5063826634733033  0.5194466411805863   F   F   F
  0.6212454441397384  0.5105019604624417  0.3755946010283822   F   F   F
  0.6054499763524817  0.5821019035045651  0.4188664505762958   F   F   F
  0.4050790883739026  0.5245211222763402  0.5434909784116542   F   F   F
  0.3506383066656408  0.4703248529622410  0.5086282233892009   T   T   T
  0.4341380662426901  0.4569791401479812  0.3020372327446792   T   T   T
  0.5381660732559354  0.4221897500732997  0.5691343941586264   T   T   T
  0.3576589496960345  0.3872667904510294  0.5398040022558106   T   T   T
  0.4625951421883201  0.5516617238622956  0.4875128022361963   F   F   F
  0.6067417096392835  0.3755755643501668  0.5109709892352402   T   T   T
  0.4917339216104073  0.4392963046396259  0.6580671933746186   T   T   T
  0.5876320181593091  0.4671399558518667  0.3065468615337877   T   T   T
  0.4900497958562298  0.4037080615820798  0.4151644571778519   F   F   F
  0.4357214723575394  0.6739088750212403  0.4121933521175085   T   T   T
  0.4682874194434020  0.5373538892026535  0.6600706478562657   T   T   T
  0.5397532608265934  0.5319899791087650  0.3771480104995177   F   F   F
  0.6682073137486226  0.6004971226206446  0.4834683759185566   T   T   T
  0.6658284096783182  0.5195409014901248  0.5506434406091095   T   T   T
  0.3752218064358006  0.3345376781554117  0.3851357035288787   T   T   T
  0.6791395206921443  0.4366840044220313  0.4866134314306315   T   T   T
  0.5399351722608172  0.3185323451127711  0.3922797177132574   T   T   T
  0.3024232555287117  0.5031475761313370  0.4364357044517781   T   T   T
  0.3135066133796538  0.3958776946694885  0.4495219676964586   T   T   T
  0.5122481632969051  0.6255949595621828  0.6166606709422131   T   T   T
  0.4489291216958844  0.3747633380851657  0.5856985265465587   T   T   T
  0.3905087670698957  0.5807913915529669  0.6126729483308412   T   T   T
  0.4052094636624080  0.3057347952842492  0.5015051162957189   T   T   T
  0.4028077676401761  0.3713488012862149  0.2871063567029886   T   T   T
  0.3840917302489403  0.5333934612560913  0.2919084363613202   T   T   T
  0.6930107979961592  0.4609372761281991  0.3871918369911155   T   T   T
  0.3376220261276969  0.5721269458088544  0.5126562687164435   T   T   T
  0.5992846173936365  0.5717341361040654  0.3071736903341619   T   T   T
  0.6123300243099772  0.6152711383114505  0.5742558752489827   T   T   T
  0.4406381785329735  0.6143427357111736  0.3233035440378139   T   T   T
  0.5879609054022332  0.7485265114352481  0.4626929803137850   T   T   T
  0.5779966679320030  0.7085639826434386  0.3958161294781812   T   T   T
  0.5848731653765322  0.7469583113051508  0.4187543157617103   T   T   T
  0.5884194454509775  0.7796593254973656  0.3974411843475013   T   T   T
 
  0.00000000E+00  0.00000000E+00  0.00000000E+00
  0.00000000E+00  0.00000000E+00  0.00000000E+00
  0.00000000E+00  0.00000000E+00  0.00000000E+00
  0.00000000E+00  0.00000000E+00  0.00000000E+00
  0.00000000E+00  0.00000000E+00  0.00000000E+00
  0.00000000E+00  0.00000000E+00  0.00000000E+00
  0.00000000E+00  0.00000000E+00  0.00000000E+00
  0.00000000E+00  0.00000000E+00  0.00000000E+00
  0.00000000E+00  0.00000000E+00  0.00000000E+00
  0.00000000E+00  0.00000000E+00  0.00000000E+00
  0.00000000E+00  0.00000000E+00  0.00000000E+00
  0.00000000E+00  0.00000000E+00  0.00000000E+00
  0.00000000E+00  0.00000000E+00  0.00000000E+00
  0.00000000E+00  0.00000000E+00  0.00000000E+00
  0.00000000E+00  0.00000000E+00  0.00000000E+00
  0.00000000E+00  0.00000000E+00  0.00000000E+00
  0.00000000E+00  0.00000000E+00  0.00000000E+00
  0.00000000E+00  0.00000000E+00  0.00000000E+00
  0.00000000E+00  0.00000000E+00  0.00000000E+00
  0.00000000E+00  0.00000000E+00  0.00000000E+00
  0.00000000E+00  0.00000000E+00  0.00000000E+00
  0.00000000E+00  0.00000000E+00  0.00000000E+00
  0.00000000E+00  0.00000000E+00  0.00000000E+00
  0.00000000E+00  0.00000000E+00  0.00000000E+00
  0.00000000E+00  0.00000000E+00  0.00000000E+00
  0.00000000E+00  0.00000000E+00  0.00000000E+00
  0.00000000E+00  0.00000000E+00  0.00000000E+00
  0.00000000E+00  0.00000000E+00  0.00000000E+00
  0.00000000E+00  0.00000000E+00  0.00000000E+00
  0.00000000E+00  0.00000000E+00  0.00000000E+00
  0.00000000E+00  0.00000000E+00  0.00000000E+00
  0.00000000E+00  0.00000000E+00  0.00000000E+00
  0.00000000E+00  0.00000000E+00  0.00000000E+00
  0.00000000E+00  0.00000000E+00  0.00000000E+00
  0.00000000E+00  0.00000000E+00  0.00000000E+00
  0.00000000E+00  0.00000000E+00  0.00000000E+00
  0.00000000E+00  0.00000000E+00  0.00000000E+00
  0.00000000E+00  0.00000000E+00  0.00000000E+00
  0.00000000E+00  0.00000000E+00  0.00000000E+00
  0.00000000E+00  0.00000000E+00  0.00000000E+00
  0.00000000E+00  0.00000000E+00  0.00000000E+00
  0.00000000E+00  0.00000000E+00  0.00000000E+00
  0.00000000E+00  0.00000000E+00  0.00000000E+00
  0.00000000E+00  0.00000000E+00  0.00000000E+00
  0.00000000E+00  0.00000000E+00  0.00000000E+00
  0.00000000E+00  0.00000000E+00  0.00000000E+00
  0.00000000E+00  0.00000000E+00  0.00000000E+00
  0.00000000E+00  0.00000000E+00  0.00000000E+00
  0.00000000E+00  0.00000000E+00  0.00000000E+00
  0.00000000E+00  0.00000000E+00  0.00000000E+00
  0.00000000E+00  0.00000000E+00  0.00000000E+00
  0.00000000E+00  0.00000000E+00  0.00000000E+00
  0.00000000E+00  0.00000000E+00  0.00000000E+00
  0.00000000E+00  0.00000000E+00  0.00000000E+00
  0.00000000E+00  0.00000000E+00  0.00000000E+00
  0.00000000E+00  0.00000000E+00  0.00000000E+00
  0.00000000E+00  0.00000000E+00  0.00000000E+00
  0.00000000E+00  0.00000000E+00  0.00000000E+00
  0.00000000E+00  0.00000000E+00  0.00000000E+00
  0.00000000E+00  0.00000000E+00  0.00000000E+00
  0.00000000E+00  0.00000000E+00  0.00000000E+00
  0.00000000E+00  0.00000000E+00  0.00000000E+00
  0.00000000E+00  0.00000000E+00  0.00000000E+00
  0.00000000E+00  0.00000000E+00  0.00000000E+00
  0.00000000E+00  0.00000000E+00  0.00000000E+00
  0.00000000E+00  0.00000000E+00  0.00000000E+00
  0.00000000E+00  0.00000000E+00  0.00000000E+00
  0.00000000E+00  0.00000000E+00  0.00000000E+00
  0.00000000E+00  0.00000000E+00  0.00000000E+00
  0.00000000E+00  0.00000000E+00  0.00000000E+00
  0.00000000E+00  0.00000000E+00  0.00000000E+00
  0.00000000E+00  0.00000000E+00  0.00000000E+00
