La Co Ni Sn Bi O  C  H                  
   1.00000000000000     
    29.1044006348000011    0.0000000000000000    0.0000000000000000
     0.4451680315000000   28.3694074727000007    0.0000000000000000
     0.0682082826000000    0.3036559964000000   28.5240018092999996
   La   Co   Ni   Sn   Bi   O    C    H 
    14    13    13    14    14     2     1     1
Selective dynamics
Direct
  0.5921719166872058  0.4205438448843508  0.4074483896738846   T   T   T
  0.6852120355150760  0.5712318270910458  0.3808037588633536   T   T   T
  0.4952186344133879  0.5279340789251814  0.2826017515152303   T   T   T
  0.5625219547235343  0.5210051580465680  0.6020671792022458   T   T   T
  0.5079377982594208  0.3879959879036658  0.3041996328021583   T   T   T
  0.5752126245671914  0.6554308033906410  0.4837784564891266   T   T   T
  0.5097109644172991  0.3328348670257093  0.5001608193226057   T   T   T
  0.5350160585496234  0.6376991810906230  0.3752748166127563   T   T   T
  0.4359881685702593  0.6431916754846156  0.5360502994920859   T   T   T
  0.4373551010143757  0.5015757590148624  0.3842817269995109   F   F   F
  0.4437846394494898  0.4460183835780285  0.5005161578087822   F   F   F
  0.3874252159865139  0.4666399144568410  0.6094454781960311   T   T   T
  0.3439676337867198  0.4450993129079031  0.3470697616494107   T   T   T
  0.3620057067213411  0.5858673648770742  0.3940248991509522   T   T   T
  0.4217425606853311  0.4061295180575186  0.3699802678458894   F   F   F
  0.5011311695957161  0.4887203336762909  0.4395023580252015   F   F   F
  0.4044148221271726  0.6101724300038001  0.4624736492929173   F   F   F
  0.4722931245665194  0.5596737886932672  0.5729988711091565   F   F   F
  0.6552684236953183  0.5165424048424470  0.4543399438695133   F   F   F
  0.5967309916701211  0.5535378348504167  0.5056109707055541   F   F   F
  0.5314074673932367  0.5941153005651714  0.5336729985293047   F   F   F
  0.5796732686089143  0.4997731718447866  0.4507473928409595   F   F   F
  0.4595102829765073  0.3301771145142798  0.3425953160989474   T   T   T
  0.3905180950192175  0.5252419063175111  0.4552418453041511   F   F   F
  0.4520611753557118  0.3253010797440217  0.4213378254617052   T   T   T
  0.5074804872141527  0.4592780196109629  0.3501259710292359   F   F   F
  0.6012877811302459  0.4669891268301640  0.5212355700313438   F   F   F
  0.5384608035519776  0.4312182275275163  0.4821288228790692   F   F   F
  0.4713083414346286  0.4805797151798927  0.5807598339419258   F   F   F
  0.3771163837573610  0.4514853175274567  0.4282230665427278   F   F   F
  0.4059018739390154  0.3822235888080883  0.4561785915149272   F   F   F
  0.5357818896390683  0.5680835373033233  0.4543473312664048   F   F   F
  0.4924712632432886  0.6367287407321953  0.4646113344718685   F   F   F
  0.4677327221812249  0.5829886973614862  0.4038343643763724   F   F   F
  0.5280944416629296  0.5063826634733033  0.5194466411805863   F   F   F
  0.6212454441397384  0.5105019604624417  0.3755946010283822   F   F   F
  0.6054499763524817  0.5821019035045651  0.4188664505762958   F   F   F
  0.4050790883739026  0.5245211222763402  0.5434909784116542   F   F   F
  0.3509386536012092  0.4703245801408471  0.5087656554661155   T   T   T
  0.4334161111528314  0.4578508993545940  0.3025345016246914   T   T   T
  0.5373479035425464  0.4210506782554946  0.5684430366517915   T   T   T
  0.3572426349144596  0.3871409866213026  0.5399488205892435   T   T   T
  0.4625951421883201  0.5516617238622956  0.4875128022361963   F   F   F
  0.6064272115008582  0.3756295369804565  0.5103646799606241   T   T   T
  0.4915813448986599  0.4376979643275579  0.6574745052272871   T   T   T
  0.5872446778532577  0.4678098669222761  0.3061807283711307   T   T   T
  0.4900497958562298  0.4037080615820798  0.4151644571778519   F   F   F
  0.4354906697300876  0.6749761978843862  0.4131381453262851   T   T   T
  0.4685092069258930  0.5362351691177499  0.6599851375085818   T   T   T
  0.5397532608265934  0.5319899791087650  0.3771480104995177   F   F   F
  0.6685973383913213  0.6002575975989186  0.4836929928729479   T   T   T
  0.6658900572798043  0.5191918514687565  0.5505278137533018   T   T   T
  0.3725373998687616  0.3363182735293624  0.3837606250065305   T   T   T
  0.6788654696404199  0.4365923323118016  0.4865593792514369   T   T   T
  0.5386530277112105  0.3197921727634524  0.3897386264266321   T   T   T
  0.3024475870448792  0.5034559693680800  0.4368696346967133   T   T   T
  0.3130222683059801  0.3964092731087641  0.4498145894685713   T   T   T
  0.5127436249327566  0.6247121739589200  0.6170921674338876   T   T   T
  0.4486325457111653  0.3735796582336752  0.5849312139338603   T   T   T
  0.3904503018849130  0.5799804328041230  0.6134130481347341   T   T   T
  0.4045385938275828  0.3062333224249380  0.5007480367668432   T   T   T
  0.4013945478048153  0.3726920879217040  0.2864299496439746   T   T   T
  0.3834614196019459  0.5344244779070245  0.2925358321574949   T   T   T
  0.6926883697553905  0.4604088446501704  0.3873078636031362   T   T   T
  0.3377642007618934  0.5724216655678712  0.5128874764236360   T   T   T
  0.5992957549511586  0.5726696411368535  0.3077938980778967   T   T   T
  0.6127611275807355  0.6138464050910625  0.5757979357335830   T   T   T
  0.4400161168165209  0.6155464103260185  0.3238855494970976   T   T   T
  0.5300513966788073  0.2677343094410233  0.5560003950042622   T   T   T
  0.5002731130758483  0.2443725383866370  0.4872144844203675   T   T   T
  0.5163110092239930  0.2358030360894887  0.5281401039919790   T   T   T
  0.5183962775854635  0.1984077918481718  0.5402877270153360   T   T   T
 
  0.00000000E+00  0.00000000E+00  0.00000000E+00
  0.00000000E+00  0.00000000E+00  0.00000000E+00
  0.00000000E+00  0.00000000E+00  0.00000000E+00
  0.00000000E+00  0.00000000E+00  0.00000000E+00
  0.00000000E+00  0.00000000E+00  0.00000000E+00
  0.00000000E+00  0.00000000E+00  0.00000000E+00
  0.00000000E+00  0.00000000E+00  0.00000000E+00
  0.00000000E+00  0.00000000E+00  0.00000000E+00
  0.00000000E+00  0.00000000E+00  0.00000000E+00
  0.00000000E+00  0.00000000E+00  0.00000000E+00
  0.00000000E+00  0.00000000E+00  0.00000000E+00
  0.00000000E+00  0.00000000E+00  0.00000000E+00
  0.00000000E+00  0.00000000E+00  0.00000000E+00
  0.00000000E+00  0.00000000E+00  0.00000000E+00
  0.00000000E+00  0.00000000E+00  0.00000000E+00
  0.00000000E+00  0.00000000E+00  0.00000000E+00
  0.00000000E+00  0.00000000E+00  0.00000000E+00
  0.00000000E+00  0.00000000E+00  0.00000000E+00
  0.00000000E+00  0.00000000E+00  0.00000000E+00
  0.00000000E+00  0.00000000E+00  0.00000000E+00
  0.00000000E+00  0.00000000E+00  0.00000000E+00
  0.00000000E+00  0.00000000E+00  0.00000000E+00
  0.00000000E+00  0.00000000E+00  0.00000000E+00
  0.00000000E+00  0.00000000E+00  0.00000000E+00
  0.00000000E+00  0.00000000E+00  0.00000000E+00
  0.00000000E+00  0.00000000E+00  0.00000000E+00
  0.00000000E+00  0.00000000E+00  0.00000000E+00
  0.00000000E+00  0.00000000E+00  0.00000000E+00
  0.00000000E+00  0.00000000E+00  0.00000000E+00
  0.00000000E+00  0.00000000E+00  0.00000000E+00
  0.00000000E+00  0.00000000E+00  0.00000000E+00
  0.00000000E+00  0.00000000E+00  0.00000000E+00
  0.00000000E+00  0.00000000E+00  0.00000000E+00
  0.00000000E+00  0.00000000E+00  0.00000000E+00
  0.00000000E+00  0.00000000E+00  0.00000000E+00
  0.00000000E+00  0.00000000E+00  0.00000000E+00
  0.00000000E+00  0.00000000E+00  0.00000000E+00
  0.00000000E+00  0.00000000E+00  0.00000000E+00
  0.00000000E+00  0.00000000E+00  0.00000000E+00
  0.00000000E+00  0.00000000E+00  0.00000000E+00
  0.00000000E+00  0.00000000E+00  0.00000000E+00
  0.00000000E+00  0.00000000E+00  0.00000000E+00
  0.00000000E+00  0.00000000E+00  0.00000000E+00
  0.00000000E+00  0.00000000E+00  0.00000000E+00
  0.00000000E+00  0.00000000E+00  0.00000000E+00
  0.00000000E+00  0.00000000E+00  0.00000000E+00
  0.00000000E+00  0.00000000E+00  0.00000000E+00
  0.00000000E+00  0.00000000E+00  0.00000000E+00
  0.00000000E+00  0.00000000E+00  0.00000000E+00
  0.00000000E+00  0.00000000E+00  0.00000000E+00
  0.00000000E+00  0.00000000E+00  0.00000000E+00
  0.00000000E+00  0.00000000E+00  0.00000000E+00
  0.00000000E+00  0.00000000E+00  0.00000000E+00
  0.00000000E+00  0.00000000E+00  0.00000000E+00
  0.00000000E+00  0.00000000E+00  0.00000000E+00
  0.00000000E+00  0.00000000E+00  0.00000000E+00
  0.00000000E+00  0.00000000E+00  0.00000000E+00
  0.00000000E+00  0.00000000E+00  0.00000000E+00
  0.00000000E+00  0.00000000E+00  0.00000000E+00
  0.00000000E+00  0.00000000E+00  0.00000000E+00
  0.00000000E+00  0.00000000E+00  0.00000000E+00
  0.00000000E+00  0.00000000E+00  0.00000000E+00
  0.00000000E+00  0.00000000E+00  0.00000000E+00
  0.00000000E+00  0.00000000E+00  0.00000000E+00
  0.00000000E+00  0.00000000E+00  0.00000000E+00
  0.00000000E+00  0.00000000E+00  0.00000000E+00
  0.00000000E+00  0.00000000E+00  0.00000000E+00
  0.00000000E+00  0.00000000E+00  0.00000000E+00
  0.00000000E+00  0.00000000E+00  0.00000000E+00
  0.00000000E+00  0.00000000E+00  0.00000000E+00
  0.00000000E+00  0.00000000E+00  0.00000000E+00
  0.00000000E+00  0.00000000E+00  0.00000000E+00
