La Co Ni Sn Bi O  C  H                  
   1.00000000000000     
    29.1044006348000011    0.0000000000000000    0.0000000000000000
     0.4451680315000000   28.3694074727000007    0.0000000000000000
     0.0682082826000000    0.3036559964000000   28.5240018092999996
   La   Co   Ni   Sn   Bi   O    C    H 
    14    13    13    14    14     2     1     1
Selective dynamics
Direct
  0.5920907095840641  0.4205186795731491  0.4076181726306654   T   T   T
  0.6851635300637785  0.5711016777287339  0.3806774879683794   T   T   T
  0.4961471081423849  0.5257229006252178  0.2787131534623730   T   T   T
  0.5624528528717366  0.5212933231520122  0.6020562140115027   T   T   T
  0.5078987681459971  0.3921525084822912  0.3012282393596258   T   T   T
  0.5752302036236042  0.6554944596087889  0.4835584136430324   T   T   T
  0.5103541181182182  0.3374708357579267  0.4978161088729074   T   T   T
  0.5351599687501190  0.6377445341397987  0.3752672966774783   T   T   T
  0.4357780633886906  0.6429358900364739  0.5360684726306736   T   T   T
  0.4373551010143757  0.5015757590148624  0.3842817269995109   F   F   F
  0.4437846394494898  0.4460183835780285  0.5005161578087822   F   F   F
  0.3878080030018283  0.4660009852358557  0.6092549590269233   T   T   T
  0.3438545046389236  0.4447061042940300  0.3469738192818806   T   T   T
  0.3620551755932184  0.5859350269047953  0.3938280986992150   T   T   T
  0.4217425606853311  0.4061295180575186  0.3699802678458894   F   F   F
  0.5011311695957161  0.4887203336762909  0.4395023580252015   F   F   F
  0.4044148221271726  0.6101724300038001  0.4624736492929173   F   F   F
  0.4722931245665194  0.5596737886932672  0.5729988711091565   F   F   F
  0.6552684236953183  0.5165424048424470  0.4543399438695133   F   F   F
  0.5967309916701211  0.5535378348504167  0.5056109707055541   F   F   F
  0.5314074673932367  0.5941153005651714  0.5336729985293047   F   F   F
  0.5796732686089143  0.4997731718447866  0.4507473928409595   F   F   F
  0.4587642925147670  0.3296307602210078  0.3446907302108071   T   T   T
  0.3905180950192175  0.5252419063175111  0.4552418453041511   F   F   F
  0.4544964854304962  0.3246699634538613  0.4237229734261992   T   T   T
  0.5074804872141527  0.4592780196109629  0.3501259710292359   F   F   F
  0.6012877811302459  0.4669891268301640  0.5212355700313438   F   F   F
  0.5384608035519776  0.4312182275275163  0.4821288228790692   F   F   F
  0.4713083414346286  0.4805797151798927  0.5807598339419258   F   F   F
  0.3771163837573610  0.4514853175274567  0.4282230665427278   F   F   F
  0.4059018739390154  0.3822235888080883  0.4561785915149272   F   F   F
  0.5357818896390683  0.5680835373033233  0.4543473312664048   F   F   F
  0.4924712632432886  0.6367287407321953  0.4646113344718685   F   F   F
  0.4677327221812249  0.5829886973614862  0.4038343643763724   F   F   F
  0.5280944416629296  0.5063826634733033  0.5194466411805863   F   F   F
  0.6212454441397384  0.5105019604624417  0.3755946010283822   F   F   F
  0.6054499763524817  0.5821019035045651  0.4188664505762958   F   F   F
  0.4050790883739026  0.5245211222763402  0.5434909784116542   F   F   F
  0.3510097285895943  0.4700065923189931  0.5089042999228778   T   T   T
  0.4314566802036096  0.4578650797802023  0.3034958388490450   T   T   T
  0.5379367513067652  0.4213947975639334  0.5685822591380891   T   T   T
  0.3576761093896678  0.3864603454616189  0.5391482229701989   T   T   T
  0.4625951421883201  0.5516617238622956  0.4875128022361963   F   F   F
  0.6073780031042401  0.3757882769522758  0.5102109911058204   T   T   T
  0.4917508567484082  0.4379059196712003  0.6574232636854528   T   T   T
  0.5892085615469488  0.4681910240026839  0.3070810178145005   T   T   T
  0.4900497958562298  0.4037080615820798  0.4151644571778519   F   F   F
  0.4354202210741347  0.6744698713148324  0.4124831267524344   T   T   T
  0.4685731959475327  0.5363009213531075  0.6602286239753564   T   T   T
  0.5397532608265934  0.5319899791087650  0.3771480104995177   F   F   F
  0.6684628412784779  0.6002702466402203  0.4835532126217594   T   T   T
  0.6657449727005363  0.5190557514036224  0.5507568783955438   T   T   T
  0.3740715474414933  0.3348441885369963  0.3851370175874820   T   T   T
  0.6792929646748807  0.4368919653222259  0.4863432411342047   T   T   T
  0.5390096533291107  0.3199162498712240  0.3881385115439444   T   T   T
  0.3026104268017187  0.5033609094409377  0.4370428598572541   T   T   T
  0.3133469205420429  0.3956110690660211  0.4489024490728383   T   T   T
  0.5126030847329800  0.6247668578500932  0.6171356811744882   T   T   T
  0.4495415362999792  0.3732227000064940  0.5842659904782771   T   T   T
  0.3904794978050559  0.5796014310247409  0.6135913823473226   T   T   T
  0.4065369679576544  0.3052949759859906  0.5008964854066841   T   T   T
  0.4013018645670423  0.3714076951427199  0.2875193635969206   T   T   T
  0.3834427470676335  0.5344307705903085  0.2923080205760346   T   T   T
  0.6923390814957563  0.4601666892220130  0.3866335309343257   T   T   T
  0.3377572108736244  0.5725033938010938  0.5128195025707492   T   T   T
  0.5991497273906361  0.5726144804251154  0.3077964789236795   T   T   T
  0.6126707132639719  0.6140187555185718  0.5755753066798144   T   T   T
  0.4409941306140584  0.6140675232899945  0.3234321195297163   T   T   T
  0.5049884809933647  0.4459269211313413  0.2287942344741264   T   T   T
  0.5213555020734072  0.5158191453145089  0.1952209542975933   T   T   T
  0.5207985746072136  0.4711517494080774  0.1948175318176729   T   T   T
  0.5347916236763656  0.4524763630772796  0.1637905912659884   T   T   T
 
  0.00000000E+00  0.00000000E+00  0.00000000E+00
  0.00000000E+00  0.00000000E+00  0.00000000E+00
  0.00000000E+00  0.00000000E+00  0.00000000E+00
  0.00000000E+00  0.00000000E+00  0.00000000E+00
  0.00000000E+00  0.00000000E+00  0.00000000E+00
  0.00000000E+00  0.00000000E+00  0.00000000E+00
  0.00000000E+00  0.00000000E+00  0.00000000E+00
  0.00000000E+00  0.00000000E+00  0.00000000E+00
  0.00000000E+00  0.00000000E+00  0.00000000E+00
  0.00000000E+00  0.00000000E+00  0.00000000E+00
  0.00000000E+00  0.00000000E+00  0.00000000E+00
  0.00000000E+00  0.00000000E+00  0.00000000E+00
  0.00000000E+00  0.00000000E+00  0.00000000E+00
  0.00000000E+00  0.00000000E+00  0.00000000E+00
  0.00000000E+00  0.00000000E+00  0.00000000E+00
  0.00000000E+00  0.00000000E+00  0.00000000E+00
  0.00000000E+00  0.00000000E+00  0.00000000E+00
  0.00000000E+00  0.00000000E+00  0.00000000E+00
  0.00000000E+00  0.00000000E+00  0.00000000E+00
  0.00000000E+00  0.00000000E+00  0.00000000E+00
  0.00000000E+00  0.00000000E+00  0.00000000E+00
  0.00000000E+00  0.00000000E+00  0.00000000E+00
  0.00000000E+00  0.00000000E+00  0.00000000E+00
  0.00000000E+00  0.00000000E+00  0.00000000E+00
  0.00000000E+00  0.00000000E+00  0.00000000E+00
  0.00000000E+00  0.00000000E+00  0.00000000E+00
  0.00000000E+00  0.00000000E+00  0.00000000E+00
  0.00000000E+00  0.00000000E+00  0.00000000E+00
  0.00000000E+00  0.00000000E+00  0.00000000E+00
  0.00000000E+00  0.00000000E+00  0.00000000E+00
  0.00000000E+00  0.00000000E+00  0.00000000E+00
  0.00000000E+00  0.00000000E+00  0.00000000E+00
  0.00000000E+00  0.00000000E+00  0.00000000E+00
  0.00000000E+00  0.00000000E+00  0.00000000E+00
  0.00000000E+00  0.00000000E+00  0.00000000E+00
  0.00000000E+00  0.00000000E+00  0.00000000E+00
  0.00000000E+00  0.00000000E+00  0.00000000E+00
  0.00000000E+00  0.00000000E+00  0.00000000E+00
  0.00000000E+00  0.00000000E+00  0.00000000E+00
  0.00000000E+00  0.00000000E+00  0.00000000E+00
  0.00000000E+00  0.00000000E+00  0.00000000E+00
  0.00000000E+00  0.00000000E+00  0.00000000E+00
  0.00000000E+00  0.00000000E+00  0.00000000E+00
  0.00000000E+00  0.00000000E+00  0.00000000E+00
  0.00000000E+00  0.00000000E+00  0.00000000E+00
  0.00000000E+00  0.00000000E+00  0.00000000E+00
  0.00000000E+00  0.00000000E+00  0.00000000E+00
  0.00000000E+00  0.00000000E+00  0.00000000E+00
  0.00000000E+00  0.00000000E+00  0.00000000E+00
  0.00000000E+00  0.00000000E+00  0.00000000E+00
  0.00000000E+00  0.00000000E+00  0.00000000E+00
  0.00000000E+00  0.00000000E+00  0.00000000E+00
  0.00000000E+00  0.00000000E+00  0.00000000E+00
  0.00000000E+00  0.00000000E+00  0.00000000E+00
  0.00000000E+00  0.00000000E+00  0.00000000E+00
  0.00000000E+00  0.00000000E+00  0.00000000E+00
  0.00000000E+00  0.00000000E+00  0.00000000E+00
  0.00000000E+00  0.00000000E+00  0.00000000E+00
  0.00000000E+00  0.00000000E+00  0.00000000E+00
  0.00000000E+00  0.00000000E+00  0.00000000E+00
  0.00000000E+00  0.00000000E+00  0.00000000E+00
  0.00000000E+00  0.00000000E+00  0.00000000E+00
  0.00000000E+00  0.00000000E+00  0.00000000E+00
  0.00000000E+00  0.00000000E+00  0.00000000E+00
  0.00000000E+00  0.00000000E+00  0.00000000E+00
  0.00000000E+00  0.00000000E+00  0.00000000E+00
  0.00000000E+00  0.00000000E+00  0.00000000E+00
  0.00000000E+00  0.00000000E+00  0.00000000E+00
  0.00000000E+00  0.00000000E+00  0.00000000E+00
  0.00000000E+00  0.00000000E+00  0.00000000E+00
  0.00000000E+00  0.00000000E+00  0.00000000E+00
  0.00000000E+00  0.00000000E+00  0.00000000E+00
