La Co Ni Sn Bi O  C  H                  
   1.00000000000000     
    29.1044006348000011    0.0000000000000000    0.0000000000000000
     0.4451680315000000   28.3694074727000007    0.0000000000000000
     0.0682082826000000    0.3036559964000000   28.5240018092999996
   La   Co   Ni   Sn   Bi   O    C    H 
    14    13    13    14    14     2     1     1
Selective dynamics
Direct
  0.5940165215591834  0.4172354269478514  0.4071889106541879   T   T   T
  0.6846421444411719  0.5723223377484118  0.3804775556319762   T   T   T
  0.4951993929168703  0.5276231939045825  0.2823058274008723   T   T   T
  0.5625161375970456  0.5214882709882187  0.6020844014858474   T   T   T
  0.5082102652910706  0.3866532798921909  0.3054633817271941   T   T   T
  0.5753291183813315  0.6553116740695364  0.4832927638535379   T   T   T
  0.5086864148110116  0.3379415367445132  0.4994888172526645   T   T   T
  0.5350073468917483  0.6377207565979286  0.3750494328615316   T   T   T
  0.4362477529037263  0.6433642948626423  0.5357466133655736   T   T   T
  0.4373551010143757  0.5015757590148624  0.3842817269995109   F   F   F
  0.4437846394494898  0.4460183835780285  0.5005161578087822   F   F   F
  0.3870199861909812  0.4670368365213158  0.6094266664378714   T   T   T
  0.3442737895515219  0.4447281762635804  0.3469215449603411   T   T   T
  0.3620494311700109  0.5856274356876813  0.3938340313249042   T   T   T
  0.4217425606853311  0.4061295180575186  0.3699802678458894   F   F   F
  0.5011311695957161  0.4887203336762909  0.4395023580252015   F   F   F
  0.4044148221271726  0.6101724300038001  0.4624736492929173   F   F   F
  0.4722931245665194  0.5596737886932672  0.5729988711091565   F   F   F
  0.6552684236953183  0.5165424048424470  0.4543399438695133   F   F   F
  0.5967309916701211  0.5535378348504167  0.5056109707055541   F   F   F
  0.5314074673932367  0.5941153005651714  0.5336729985293047   F   F   F
  0.5796732686089143  0.4997731718447866  0.4507473928409595   F   F   F
  0.4589618468129295  0.3301455787655216  0.3440938664624481   T   T   T
  0.3905180950192175  0.5252419063175111  0.4552418453041511   F   F   F
  0.4529396797744856  0.3244648265716788  0.4239713376882920   T   T   T
  0.5074804872141527  0.4592780196109629  0.3501259710292359   F   F   F
  0.6012877811302459  0.4669891268301640  0.5212355700313438   F   F   F
  0.5384608035519776  0.4312182275275163  0.4821288228790692   F   F   F
  0.4713083414346286  0.4805797151798927  0.5807598339419258   F   F   F
  0.3771163837573610  0.4514853175274567  0.4282230665427278   F   F   F
  0.4059018739390154  0.3822235888080883  0.4561785915149272   F   F   F
  0.5357818896390683  0.5680835373033233  0.4543473312664048   F   F   F
  0.4924712632432886  0.6367287407321953  0.4646113344718685   F   F   F
  0.4677327221812249  0.5829886973614862  0.4038343643763724   F   F   F
  0.5280944416629296  0.5063826634733033  0.5194466411805863   F   F   F
  0.6212454441397384  0.5105019604624417  0.3755946010283822   F   F   F
  0.6054499763524817  0.5821019035045651  0.4188664505762958   F   F   F
  0.4050790883739026  0.5245211222763402  0.5434909784116542   F   F   F
  0.3507509354243152  0.4703058701174269  0.5086877445083764   T   T   T
  0.4338761461513062  0.4574448594307136  0.3022719353596624   T   T   T
  0.5373213976958426  0.4218978525669014  0.5690650576164847   T   T   T
  0.3571139769201178  0.3872504823225973  0.5399320200516348   T   T   T
  0.4625951421883201  0.5516617238622956  0.4875128022361963   F   F   F
  0.6071015973725503  0.3740464307059200  0.5127650605019627   T   T   T
  0.4908229402067617  0.4386706943778259  0.6579934351849188   T   T   T
  0.5869947411715400  0.4674770383522557  0.3065490876316994   T   T   T
  0.4900497958562298  0.4037080615820798  0.4151644571778519   F   F   F
  0.4354879972045193  0.6748105580516499  0.4129240182598347   T   T   T
  0.4681947811377986  0.5367212592785912  0.6602255973464867   T   T   T
  0.5397532608265934  0.5319899791087650  0.3771480104995177   F   F   F
  0.6685843121293049  0.6002329384401540  0.4837167457007347   T   T   T
  0.6658875808667902  0.5194210230581963  0.5508476150888925   T   T   T
  0.3737569004301144  0.3355289156253632  0.3843830098426138   T   T   T
  0.6792441004034102  0.4369179600451379  0.4878025263907409   T   T   T
  0.5368211820521124  0.3169771901554961  0.3914200963402185   T   T   T
  0.3023699947113220  0.5033317591797339  0.4367371246722301   T   T   T
  0.3131435779079574  0.3962703466173391  0.4496530248799177   T   T   T
  0.5125532147095082  0.6248918399574831  0.6170716475349004   T   T   T
  0.4483928503069145  0.3742410212856102  0.5853505708242613   T   T   T
  0.3906165856409846  0.5804657814988772  0.6131162951605368   T   T   T
  0.4049867163920859  0.3058297776977104  0.5016227223736244   T   T   T
  0.4016831475267432  0.3722065713849165  0.2866462573182723   T   T   T
  0.3836496124480434  0.5338224281936714  0.2923635471595270   T   T   T
  0.6939699495872157  0.4618837856243787  0.3895365821676840   T   T   T
  0.3376681078003587  0.5722739645141444  0.5128110406744749   T   T   T
  0.5988374075438690  0.5724256335901743  0.3075107121711753   T   T   T
  0.6126211600490926  0.6141429824026275  0.5755487062675547   T   T   T
  0.4401111759588178  0.6152918099699572  0.3237982625549683   T   T   T
  0.6453695769184620  0.3511861669469004  0.3923268678276891   T   T   T
  0.6517812450746209  0.3114564779895673  0.4618064734836313   T   T   T
  0.6601854543023740  0.3174061067532746  0.4188228088818023   T   T   T
  0.6827816479505991  0.2907067281179473  0.4014567604167804   T   T   T
 
  0.00000000E+00  0.00000000E+00  0.00000000E+00
  0.00000000E+00  0.00000000E+00  0.00000000E+00
  0.00000000E+00  0.00000000E+00  0.00000000E+00
  0.00000000E+00  0.00000000E+00  0.00000000E+00
  0.00000000E+00  0.00000000E+00  0.00000000E+00
  0.00000000E+00  0.00000000E+00  0.00000000E+00
  0.00000000E+00  0.00000000E+00  0.00000000E+00
  0.00000000E+00  0.00000000E+00  0.00000000E+00
  0.00000000E+00  0.00000000E+00  0.00000000E+00
  0.00000000E+00  0.00000000E+00  0.00000000E+00
  0.00000000E+00  0.00000000E+00  0.00000000E+00
  0.00000000E+00  0.00000000E+00  0.00000000E+00
  0.00000000E+00  0.00000000E+00  0.00000000E+00
  0.00000000E+00  0.00000000E+00  0.00000000E+00
  0.00000000E+00  0.00000000E+00  0.00000000E+00
  0.00000000E+00  0.00000000E+00  0.00000000E+00
  0.00000000E+00  0.00000000E+00  0.00000000E+00
  0.00000000E+00  0.00000000E+00  0.00000000E+00
  0.00000000E+00  0.00000000E+00  0.00000000E+00
  0.00000000E+00  0.00000000E+00  0.00000000E+00
  0.00000000E+00  0.00000000E+00  0.00000000E+00
  0.00000000E+00  0.00000000E+00  0.00000000E+00
  0.00000000E+00  0.00000000E+00  0.00000000E+00
  0.00000000E+00  0.00000000E+00  0.00000000E+00
  0.00000000E+00  0.00000000E+00  0.00000000E+00
  0.00000000E+00  0.00000000E+00  0.00000000E+00
  0.00000000E+00  0.00000000E+00  0.00000000E+00
  0.00000000E+00  0.00000000E+00  0.00000000E+00
  0.00000000E+00  0.00000000E+00  0.00000000E+00
  0.00000000E+00  0.00000000E+00  0.00000000E+00
  0.00000000E+00  0.00000000E+00  0.00000000E+00
  0.00000000E+00  0.00000000E+00  0.00000000E+00
  0.00000000E+00  0.00000000E+00  0.00000000E+00
  0.00000000E+00  0.00000000E+00  0.00000000E+00
  0.00000000E+00  0.00000000E+00  0.00000000E+00
  0.00000000E+00  0.00000000E+00  0.00000000E+00
  0.00000000E+00  0.00000000E+00  0.00000000E+00
  0.00000000E+00  0.00000000E+00  0.00000000E+00
  0.00000000E+00  0.00000000E+00  0.00000000E+00
  0.00000000E+00  0.00000000E+00  0.00000000E+00
  0.00000000E+00  0.00000000E+00  0.00000000E+00
  0.00000000E+00  0.00000000E+00  0.00000000E+00
  0.00000000E+00  0.00000000E+00  0.00000000E+00
  0.00000000E+00  0.00000000E+00  0.00000000E+00
  0.00000000E+00  0.00000000E+00  0.00000000E+00
  0.00000000E+00  0.00000000E+00  0.00000000E+00
  0.00000000E+00  0.00000000E+00  0.00000000E+00
  0.00000000E+00  0.00000000E+00  0.00000000E+00
  0.00000000E+00  0.00000000E+00  0.00000000E+00
  0.00000000E+00  0.00000000E+00  0.00000000E+00
  0.00000000E+00  0.00000000E+00  0.00000000E+00
  0.00000000E+00  0.00000000E+00  0.00000000E+00
  0.00000000E+00  0.00000000E+00  0.00000000E+00
  0.00000000E+00  0.00000000E+00  0.00000000E+00
  0.00000000E+00  0.00000000E+00  0.00000000E+00
  0.00000000E+00  0.00000000E+00  0.00000000E+00
  0.00000000E+00  0.00000000E+00  0.00000000E+00
  0.00000000E+00  0.00000000E+00  0.00000000E+00
  0.00000000E+00  0.00000000E+00  0.00000000E+00
  0.00000000E+00  0.00000000E+00  0.00000000E+00
  0.00000000E+00  0.00000000E+00  0.00000000E+00
  0.00000000E+00  0.00000000E+00  0.00000000E+00
  0.00000000E+00  0.00000000E+00  0.00000000E+00
  0.00000000E+00  0.00000000E+00  0.00000000E+00
  0.00000000E+00  0.00000000E+00  0.00000000E+00
  0.00000000E+00  0.00000000E+00  0.00000000E+00
  0.00000000E+00  0.00000000E+00  0.00000000E+00
  0.00000000E+00  0.00000000E+00  0.00000000E+00
  0.00000000E+00  0.00000000E+00  0.00000000E+00
  0.00000000E+00  0.00000000E+00  0.00000000E+00
  0.00000000E+00  0.00000000E+00  0.00000000E+00
  0.00000000E+00  0.00000000E+00  0.00000000E+00
