La Co Ni Sn Bi O  C  H                  
   1.00000000000000     
    29.1044006348000011    0.0000000000000000    0.0000000000000000
     0.4451680315000000   28.3694074727000007    0.0000000000000000
     0.0682082826000000    0.3036559964000000   28.5240018092999996
   La   Co   Ni   Sn   Bi   O    C    H 
    14    13    13    14    14     2     1     1
Selective dynamics
Direct
  0.5924694030011141  0.4201203342722821  0.4084088505906562   T   T   T
  0.6852240904500768  0.5711142931462284  0.3807615620805465   T   T   T
  0.4954373050625391  0.5266663471708285  0.2822184880945267   T   T   T
  0.5624334091025079  0.5221470340703275  0.6022650335189285   T   T   T
  0.5084845273205686  0.3872275358810762  0.3052821618290988   T   T   T
  0.5752130113348580  0.6555054847174645  0.4833834185895578   T   T   T
  0.5108259120777656  0.3384569335464547  0.4989992667311972   T   T   T
  0.5348993174884238  0.6375698335604406  0.3749584462591565   T   T   T
  0.4359397143231197  0.6431944116012300  0.5358580929295099   T   T   T
  0.4373551010143757  0.5015757590148624  0.3842817269995109   F   F   F
  0.4437846394494898  0.4460183835780285  0.5005161578087822   F   F   F
  0.3870380562108260  0.4666848223395283  0.6091319410923729   T   T   T
  0.3441869200452049  0.4431150082205797  0.3471169437259086   T   T   T
  0.3617966837671641  0.5844432042403208  0.3937485296946975   T   T   T
  0.4217425606853311  0.4061295180575186  0.3699802678458894   F   F   F
  0.5011311695957161  0.4887203336762909  0.4395023580252015   F   F   F
  0.4044148221271726  0.6101724300038001  0.4624736492929173   F   F   F
  0.4722931245665194  0.5596737886932672  0.5729988711091565   F   F   F
  0.6552684236953183  0.5165424048424470  0.4543399438695133   F   F   F
  0.5967309916701211  0.5535378348504167  0.5056109707055541   F   F   F
  0.5314074673932367  0.5941153005651714  0.5336729985293047   F   F   F
  0.5796732686089143  0.4997731718447866  0.4507473928409595   F   F   F
  0.4604488398548401  0.3307098541431835  0.3454426442132176   T   T   T
  0.3905180950192175  0.5252419063175111  0.4552418453041511   F   F   F
  0.4539319591191714  0.3245175756999998  0.4244327100100094   T   T   T
  0.5074804872141527  0.4592780196109629  0.3501259710292359   F   F   F
  0.6012877811302459  0.4669891268301640  0.5212355700313438   F   F   F
  0.5384608035519776  0.4312182275275163  0.4821288228790692   F   F   F
  0.4713083414346286  0.4805797151798927  0.5807598339419258   F   F   F
  0.3771163837573610  0.4514853175274567  0.4282230665427278   F   F   F
  0.4059018739390154  0.3822235888080883  0.4561785915149272   F   F   F
  0.5357818896390683  0.5680835373033233  0.4543473312664048   F   F   F
  0.4924712632432886  0.6367287407321953  0.4646113344718685   F   F   F
  0.4677327221812249  0.5829886973614862  0.4038343643763724   F   F   F
  0.5280944416629296  0.5063826634733033  0.5194466411805863   F   F   F
  0.6212454441397384  0.5105019604624417  0.3755946010283822   F   F   F
  0.6054499763524817  0.5821019035045651  0.4188664505762958   F   F   F
  0.4050790883739026  0.5245211222763402  0.5434909784116542   F   F   F
  0.3511296415970589  0.4702822683758792  0.5089735949717338   T   T   T
  0.4337379750814653  0.4562747392812282  0.3023805538445332   T   T   T
  0.5383273455122094  0.4221410296128970  0.5690869589312652   T   T   T
  0.3569696733432811  0.3866547528725190  0.5387867245063174   T   T   T
  0.4625951421883201  0.5516617238622956  0.4875128022361963   F   F   F
  0.6078533886609661  0.3761502375833789  0.5118746046393037   T   T   T
  0.4917832462221425  0.4386748536863842  0.6581627396364412   T   T   T
  0.5874901781039612  0.4671014027281630  0.3067159975141460   T   T   T
  0.4900497958562298  0.4037080615820798  0.4151644571778519   F   F   F
  0.4352616278094830  0.6741803710656447  0.4124304343533502   T   T   T
  0.4683989828283630  0.5366303529742409  0.6599438891839305   T   T   T
  0.5397532608265934  0.5319899791087650  0.3771480104995177   F   F   F
  0.6686729049632973  0.6003320027593287  0.4834772220300976   T   T   T
  0.6655523155681132  0.5193278026280203  0.5509148182934512   T   T   T
  0.3744867547130621  0.3345452506356633  0.3856334033204902   T   T   T
  0.6798926498046531  0.4371489750782014  0.4872614229895533   T   T   T
  0.5394818429782865  0.3186191444673889  0.3913082311042755   T   T   T
  0.3023508479132465  0.5021894454988475  0.4373735817753837   T   T   T
  0.3132817502298857  0.3943378408865104  0.4480014460948419   T   T   T
  0.5123960571540779  0.6253473538172930  0.6169252729923788   T   T   T
  0.4494598201921690  0.3750944053710482  0.5853934416563316   T   T   T
  0.3904210015400590  0.5801766306770902  0.6132169509895795   T   T   T
  0.4081168771125632  0.3061333242372575  0.5031530820039375   T   T   T
  0.4020346399019129  0.3706461640477456  0.2871198968057070   T   T   T
  0.3837099582233765  0.5325074106505948  0.2920395472827249   T   T   T
  0.6924658635691259  0.4601004174931714  0.3874504026157904   T   T   T
  0.3378358176719760  0.5723986706211860  0.5128404924732691   T   T   T
  0.5991962384260453  0.5722544174132941  0.3076806735638846   T   T   T
  0.6126942918003773  0.6146139754126810  0.5754159738120793   T   T   T
  0.4397941975468172  0.6142824241480024  0.3234753420052024   T   T   T
  0.3304831713067353  0.2620956801995944  0.4055042999427962   T   T   T
  0.3559422212588901  0.2423818478244055  0.4796224866306096   T   T   T
  0.3352065404458873  0.2352759987170377  0.4409985094108580   T   T   T
  0.3187735826337332  0.2000801971482440  0.4386742646315173   T   T   T
 
  0.00000000E+00  0.00000000E+00  0.00000000E+00
  0.00000000E+00  0.00000000E+00  0.00000000E+00
  0.00000000E+00  0.00000000E+00  0.00000000E+00
  0.00000000E+00  0.00000000E+00  0.00000000E+00
  0.00000000E+00  0.00000000E+00  0.00000000E+00
  0.00000000E+00  0.00000000E+00  0.00000000E+00
  0.00000000E+00  0.00000000E+00  0.00000000E+00
  0.00000000E+00  0.00000000E+00  0.00000000E+00
  0.00000000E+00  0.00000000E+00  0.00000000E+00
  0.00000000E+00  0.00000000E+00  0.00000000E+00
  0.00000000E+00  0.00000000E+00  0.00000000E+00
  0.00000000E+00  0.00000000E+00  0.00000000E+00
  0.00000000E+00  0.00000000E+00  0.00000000E+00
  0.00000000E+00  0.00000000E+00  0.00000000E+00
  0.00000000E+00  0.00000000E+00  0.00000000E+00
  0.00000000E+00  0.00000000E+00  0.00000000E+00
  0.00000000E+00  0.00000000E+00  0.00000000E+00
  0.00000000E+00  0.00000000E+00  0.00000000E+00
  0.00000000E+00  0.00000000E+00  0.00000000E+00
  0.00000000E+00  0.00000000E+00  0.00000000E+00
  0.00000000E+00  0.00000000E+00  0.00000000E+00
  0.00000000E+00  0.00000000E+00  0.00000000E+00
  0.00000000E+00  0.00000000E+00  0.00000000E+00
  0.00000000E+00  0.00000000E+00  0.00000000E+00
  0.00000000E+00  0.00000000E+00  0.00000000E+00
  0.00000000E+00  0.00000000E+00  0.00000000E+00
  0.00000000E+00  0.00000000E+00  0.00000000E+00
  0.00000000E+00  0.00000000E+00  0.00000000E+00
  0.00000000E+00  0.00000000E+00  0.00000000E+00
  0.00000000E+00  0.00000000E+00  0.00000000E+00
  0.00000000E+00  0.00000000E+00  0.00000000E+00
  0.00000000E+00  0.00000000E+00  0.00000000E+00
  0.00000000E+00  0.00000000E+00  0.00000000E+00
  0.00000000E+00  0.00000000E+00  0.00000000E+00
  0.00000000E+00  0.00000000E+00  0.00000000E+00
  0.00000000E+00  0.00000000E+00  0.00000000E+00
  0.00000000E+00  0.00000000E+00  0.00000000E+00
  0.00000000E+00  0.00000000E+00  0.00000000E+00
  0.00000000E+00  0.00000000E+00  0.00000000E+00
  0.00000000E+00  0.00000000E+00  0.00000000E+00
  0.00000000E+00  0.00000000E+00  0.00000000E+00
  0.00000000E+00  0.00000000E+00  0.00000000E+00
  0.00000000E+00  0.00000000E+00  0.00000000E+00
  0.00000000E+00  0.00000000E+00  0.00000000E+00
  0.00000000E+00  0.00000000E+00  0.00000000E+00
  0.00000000E+00  0.00000000E+00  0.00000000E+00
  0.00000000E+00  0.00000000E+00  0.00000000E+00
  0.00000000E+00  0.00000000E+00  0.00000000E+00
  0.00000000E+00  0.00000000E+00  0.00000000E+00
  0.00000000E+00  0.00000000E+00  0.00000000E+00
  0.00000000E+00  0.00000000E+00  0.00000000E+00
  0.00000000E+00  0.00000000E+00  0.00000000E+00
  0.00000000E+00  0.00000000E+00  0.00000000E+00
  0.00000000E+00  0.00000000E+00  0.00000000E+00
  0.00000000E+00  0.00000000E+00  0.00000000E+00
  0.00000000E+00  0.00000000E+00  0.00000000E+00
  0.00000000E+00  0.00000000E+00  0.00000000E+00
  0.00000000E+00  0.00000000E+00  0.00000000E+00
  0.00000000E+00  0.00000000E+00  0.00000000E+00
  0.00000000E+00  0.00000000E+00  0.00000000E+00
  0.00000000E+00  0.00000000E+00  0.00000000E+00
  0.00000000E+00  0.00000000E+00  0.00000000E+00
  0.00000000E+00  0.00000000E+00  0.00000000E+00
  0.00000000E+00  0.00000000E+00  0.00000000E+00
  0.00000000E+00  0.00000000E+00  0.00000000E+00
  0.00000000E+00  0.00000000E+00  0.00000000E+00
  0.00000000E+00  0.00000000E+00  0.00000000E+00
  0.00000000E+00  0.00000000E+00  0.00000000E+00
  0.00000000E+00  0.00000000E+00  0.00000000E+00
  0.00000000E+00  0.00000000E+00  0.00000000E+00
  0.00000000E+00  0.00000000E+00  0.00000000E+00
  0.00000000E+00  0.00000000E+00  0.00000000E+00
