La Co Ni Sn Bi O  C  H                  
   1.00000000000000     
    29.1044006348000011    0.0000000000000000    0.0000000000000000
     0.4451680315000000   28.3694074727000007    0.0000000000000000
     0.0682082826000000    0.3036559964000000   28.5240018092999996
   La   Co   Ni   Sn   Bi   O    C    H 
    14    13    13    14    14     2     1     1
Selective dynamics
Direct
  0.5926034808239348  0.4227753677367050  0.4076935348705668   T   T   T
  0.6850883604422991  0.5714947069137418  0.3809914588901377   T   T   T
  0.4949151224490881  0.5286601851331685  0.2826205836181227   T   T   T
  0.5627527031356129  0.5215538653270163  0.6021368097097417   T   T   T
  0.5090060297493769  0.3859822420483418  0.3061851912917070   T   T   T
  0.5751933531572497  0.6555150238599370  0.4838450953215995   T   T   T
  0.5066562154300932  0.3377795184309355  0.4997196219616728   T   T   T
  0.5347647985865125  0.6377594377415094  0.3753085677019370   T   T   T
  0.4365147204180680  0.6440735504793494  0.5353044921984811   T   T   T
  0.4373551010143757  0.5015757590148624  0.3842817269995109   F   F   F
  0.4437846394494898  0.4460183835780285  0.5005161578087822   F   F   F
  0.3874844052942780  0.4686568200602529  0.6105708646826681   T   T   T
  0.3443143869587635  0.4444840364665396  0.3468485431312316   T   T   T
  0.3618206352208139  0.5859105743475354  0.3941073153740918   T   T   T
  0.4217425606853311  0.4061295180575186  0.3699802678458894   F   F   F
  0.5011311695957161  0.4887203336762909  0.4395023580252015   F   F   F
  0.4044148221271726  0.6101724300038001  0.4624736492929173   F   F   F
  0.4722931245665194  0.5596737886932672  0.5729988711091565   F   F   F
  0.6552684236953183  0.5165424048424470  0.4543399438695133   F   F   F
  0.5967309916701211  0.5535378348504167  0.5056109707055541   F   F   F
  0.5314074673932367  0.5941153005651714  0.5336729985293047   F   F   F
  0.5796732686089143  0.4997731718447866  0.4507473928409595   F   F   F
  0.4591332804679513  0.3286970967540943  0.3478559278838489   T   T   T
  0.3905180950192175  0.5252419063175111  0.4552418453041511   F   F   F
  0.4549050603550884  0.3219737513146641  0.4271570424391827   T   T   T
  0.5074804872141527  0.4592780196109629  0.3501259710292359   F   F   F
  0.6012877811302459  0.4669891268301640  0.5212355700313438   F   F   F
  0.5384608035519776  0.4312182275275163  0.4821288228790692   F   F   F
  0.4713083414346286  0.4805797151798927  0.5807598339419258   F   F   F
  0.3771163837573610  0.4514853175274567  0.4282230665427278   F   F   F
  0.4059018739390154  0.3822235888080883  0.4561785915149272   F   F   F
  0.5357818896390683  0.5680835373033233  0.4543473312664048   F   F   F
  0.4924712632432886  0.6367287407321953  0.4646113344718685   F   F   F
  0.4677327221812249  0.5829886973614862  0.4038343643763724   F   F   F
  0.5280944416629296  0.5063826634733033  0.5194466411805863   F   F   F
  0.6212454441397384  0.5105019604624417  0.3755946010283822   F   F   F
  0.6054499763524817  0.5821019035045651  0.4188664505762958   F   F   F
  0.4050790883739026  0.5245211222763402  0.5434909784116542   F   F   F
  0.3503771091167825  0.4709084702144754  0.5090483890963334   T   T   T
  0.4341021933181811  0.4577620398218078  0.3023525930102410   T   T   T
  0.5383352685410685  0.4216339342497955  0.5688850165904912   T   T   T
  0.3572754183229013  0.3889011573894917  0.5420339079977486   T   T   T
  0.4625951421883201  0.5516617238622956  0.4875128022361963   F   F   F
  0.6053416014256012  0.3741704386789270  0.5085937386073828   T   T   T
  0.4923094503141686  0.4391398299920992  0.6581246794169651   T   T   T
  0.5865263143029068  0.4681131965776654  0.3057221929977528   T   T   T
  0.4900497958562298  0.4037080615820798  0.4151644571778519   F   F   F
  0.4353451267866965  0.6750599305174874  0.4132208940868298   T   T   T
  0.4685948657329147  0.5372092235267222  0.6602126793064458   T   T   T
  0.5397532608265934  0.5319899791087650  0.3771480104995177   F   F   F
  0.6685205810042504  0.6002565737307439  0.4840475760353427   T   T   T
  0.6659241968669336  0.5192825576030868  0.5505791821057792   T   T   T
  0.3739393178844829  0.3356327467615610  0.3863109462521345   T   T   T
  0.6782828783779703  0.4362491917479037  0.4871165192291619   T   T   T
  0.5438769116662803  0.3228275716387992  0.3936171729308098   T   T   T
  0.3025677609829355  0.5032045118572380  0.4365870041827034   T   T   T
  0.3136519520778503  0.3965650506045666  0.4512480192687199   T   T   T
  0.5123458495717016  0.6253453026431359  0.6167877519041247   T   T   T
  0.4484719021930944  0.3756340800569885  0.5863428143917873   T   T   T
  0.3910387929795305  0.5816540203103393  0.6127447261369772   T   T   T
  0.4001242635695988  0.3069419617084164  0.5019110861253427   T   T   T
  0.4029992610839255  0.3722477461435466  0.2877438165750480   T   T   T
  0.3835224385309529  0.5340249501830563  0.2924890217866070   T   T   T
  0.6937593426181499  0.4611646556286062  0.3881030616994655   T   T   T
  0.3378804305963976  0.5724333221553295  0.5132019246395298   T   T   T
  0.5991874467340930  0.5728064219924863  0.3080009772524531   T   T   T
  0.6126844240550429  0.6142406714756620  0.5757096601733562   T   T   T
  0.4394651880380820  0.6159818370904693  0.3239998682473638   T   T   T
  0.4561525220604885  0.2525333445205907  0.4200442986839208   T   T   T
  0.4602842043773276  0.2592589071102419  0.3401720762735881   T   T   T
  0.4586925088850785  0.2359543371577721  0.3785128003520532   T   T   T
  0.4593825092413500  0.1970802257565092  0.3760411072372425   T   T   T
 
  0.00000000E+00  0.00000000E+00  0.00000000E+00
  0.00000000E+00  0.00000000E+00  0.00000000E+00
  0.00000000E+00  0.00000000E+00  0.00000000E+00
  0.00000000E+00  0.00000000E+00  0.00000000E+00
  0.00000000E+00  0.00000000E+00  0.00000000E+00
  0.00000000E+00  0.00000000E+00  0.00000000E+00
  0.00000000E+00  0.00000000E+00  0.00000000E+00
  0.00000000E+00  0.00000000E+00  0.00000000E+00
  0.00000000E+00  0.00000000E+00  0.00000000E+00
  0.00000000E+00  0.00000000E+00  0.00000000E+00
  0.00000000E+00  0.00000000E+00  0.00000000E+00
  0.00000000E+00  0.00000000E+00  0.00000000E+00
  0.00000000E+00  0.00000000E+00  0.00000000E+00
  0.00000000E+00  0.00000000E+00  0.00000000E+00
  0.00000000E+00  0.00000000E+00  0.00000000E+00
  0.00000000E+00  0.00000000E+00  0.00000000E+00
  0.00000000E+00  0.00000000E+00  0.00000000E+00
  0.00000000E+00  0.00000000E+00  0.00000000E+00
  0.00000000E+00  0.00000000E+00  0.00000000E+00
  0.00000000E+00  0.00000000E+00  0.00000000E+00
  0.00000000E+00  0.00000000E+00  0.00000000E+00
  0.00000000E+00  0.00000000E+00  0.00000000E+00
  0.00000000E+00  0.00000000E+00  0.00000000E+00
  0.00000000E+00  0.00000000E+00  0.00000000E+00
  0.00000000E+00  0.00000000E+00  0.00000000E+00
  0.00000000E+00  0.00000000E+00  0.00000000E+00
  0.00000000E+00  0.00000000E+00  0.00000000E+00
  0.00000000E+00  0.00000000E+00  0.00000000E+00
  0.00000000E+00  0.00000000E+00  0.00000000E+00
  0.00000000E+00  0.00000000E+00  0.00000000E+00
  0.00000000E+00  0.00000000E+00  0.00000000E+00
  0.00000000E+00  0.00000000E+00  0.00000000E+00
  0.00000000E+00  0.00000000E+00  0.00000000E+00
  0.00000000E+00  0.00000000E+00  0.00000000E+00
  0.00000000E+00  0.00000000E+00  0.00000000E+00
  0.00000000E+00  0.00000000E+00  0.00000000E+00
  0.00000000E+00  0.00000000E+00  0.00000000E+00
  0.00000000E+00  0.00000000E+00  0.00000000E+00
  0.00000000E+00  0.00000000E+00  0.00000000E+00
  0.00000000E+00  0.00000000E+00  0.00000000E+00
  0.00000000E+00  0.00000000E+00  0.00000000E+00
  0.00000000E+00  0.00000000E+00  0.00000000E+00
  0.00000000E+00  0.00000000E+00  0.00000000E+00
  0.00000000E+00  0.00000000E+00  0.00000000E+00
  0.00000000E+00  0.00000000E+00  0.00000000E+00
  0.00000000E+00  0.00000000E+00  0.00000000E+00
  0.00000000E+00  0.00000000E+00  0.00000000E+00
  0.00000000E+00  0.00000000E+00  0.00000000E+00
  0.00000000E+00  0.00000000E+00  0.00000000E+00
  0.00000000E+00  0.00000000E+00  0.00000000E+00
  0.00000000E+00  0.00000000E+00  0.00000000E+00
  0.00000000E+00  0.00000000E+00  0.00000000E+00
  0.00000000E+00  0.00000000E+00  0.00000000E+00
  0.00000000E+00  0.00000000E+00  0.00000000E+00
  0.00000000E+00  0.00000000E+00  0.00000000E+00
  0.00000000E+00  0.00000000E+00  0.00000000E+00
  0.00000000E+00  0.00000000E+00  0.00000000E+00
  0.00000000E+00  0.00000000E+00  0.00000000E+00
  0.00000000E+00  0.00000000E+00  0.00000000E+00
  0.00000000E+00  0.00000000E+00  0.00000000E+00
  0.00000000E+00  0.00000000E+00  0.00000000E+00
  0.00000000E+00  0.00000000E+00  0.00000000E+00
  0.00000000E+00  0.00000000E+00  0.00000000E+00
  0.00000000E+00  0.00000000E+00  0.00000000E+00
  0.00000000E+00  0.00000000E+00  0.00000000E+00
  0.00000000E+00  0.00000000E+00  0.00000000E+00
  0.00000000E+00  0.00000000E+00  0.00000000E+00
  0.00000000E+00  0.00000000E+00  0.00000000E+00
  0.00000000E+00  0.00000000E+00  0.00000000E+00
  0.00000000E+00  0.00000000E+00  0.00000000E+00
  0.00000000E+00  0.00000000E+00  0.00000000E+00
  0.00000000E+00  0.00000000E+00  0.00000000E+00
