La Co Ni Sn Bi O  C  H                  
   1.00000000000000     
    29.1044006348000011    0.0000000000000000    0.0000000000000000
     0.4451680315000000   28.3694074727000007    0.0000000000000000
     0.0682082826000000    0.3036559964000000   28.5240018092999996
   La   Co   Ni   Sn   Bi   O    C    H 
    14    13    13    14    14     2     1     1
Selective dynamics
Direct
  0.5924670948835629  0.4206615404568452  0.4071934948821159   T   T   T
  0.6850132109470205  0.5715548277756186  0.3804562818444827   T   T   T
  0.4954796351784413  0.5271738247582579  0.2822002722595326   T   T   T
  0.5620644905846880  0.5227273834203713  0.6017872559638789   T   T   T
  0.5088273872259955  0.3868016290419654  0.3054630444101139   T   T   T
  0.5753092946389681  0.6557804039449904  0.4832440633314895   T   T   T
  0.5089713650500365  0.3379193970630561  0.4999611091218029   T   T   T
  0.5354710177514244  0.6375073677364299  0.3751335350342146   T   T   T
  0.4355672213752584  0.6435416559186931  0.5355167272536855   T   T   T
  0.4373551010143757  0.5015757590148624  0.3842817269995109   F   F   F
  0.4437846394494898  0.4460183835780285  0.5005161578087822   F   F   F
  0.3862654590882696  0.4679441199862321  0.6087171690016351   T   T   T
  0.3446648282703537  0.4442636090796145  0.3466298965101059   T   T   T
  0.3622210268924624  0.5853638584801889  0.3935510253652318   T   T   T
  0.4217425606853311  0.4061295180575186  0.3699802678458894   F   F   F
  0.5011311695957161  0.4887203336762909  0.4395023580252015   F   F   F
  0.4044148221271726  0.6101724300038001  0.4624736492929173   F   F   F
  0.4722931245665194  0.5596737886932672  0.5729988711091565   F   F   F
  0.6552684236953183  0.5165424048424470  0.4543399438695133   F   F   F
  0.5967309916701211  0.5535378348504167  0.5056109707055541   F   F   F
  0.5314074673932367  0.5941153005651714  0.5336729985293047   F   F   F
  0.5796732686089143  0.4997731718447866  0.4507473928409595   F   F   F
  0.4613659300586096  0.3311599390011664  0.3440819588829088   T   T   T
  0.3905180950192175  0.5252419063175111  0.4552418453041511   F   F   F
  0.4541929576015081  0.3244599270911837  0.4236906160357016   T   T   T
  0.5074804872141527  0.4592780196109629  0.3501259710292359   F   F   F
  0.6012877811302459  0.4669891268301640  0.5212355700313438   F   F   F
  0.5384608035519776  0.4312182275275163  0.4821288228790692   F   F   F
  0.4713083414346286  0.4805797151798927  0.5807598339419258   F   F   F
  0.3771163837573610  0.4514853175274567  0.4282230665427278   F   F   F
  0.4059018739390154  0.3822235888080883  0.4561785915149272   F   F   F
  0.5357818896390683  0.5680835373033233  0.4543473312664048   F   F   F
  0.4924712632432886  0.6367287407321953  0.4646113344718685   F   F   F
  0.4677327221812249  0.5829886973614862  0.4038343643763724   F   F   F
  0.5280944416629296  0.5063826634733033  0.5194466411805863   F   F   F
  0.6212454441397384  0.5105019604624417  0.3755946010283822   F   F   F
  0.6054499763524817  0.5821019035045651  0.4188664505762958   F   F   F
  0.4050790883739026  0.5245211222763402  0.5434909784116542   F   F   F
  0.3506733820248948  0.4702146066744813  0.5088171500865275   T   T   T
  0.4339031587298894  0.4570653376468459  0.3019068837483223   T   T   T
  0.5378379846378716  0.4227927370878832  0.5684408074195842   T   T   T
  0.3570602858852495  0.3872352026680857  0.5399985784823016   T   T   T
  0.4625951421883201  0.5516617238622956  0.4875128022361963   F   F   F
  0.6066040063997652  0.3750568472680911  0.5089115726048408   T   T   T
  0.4873346359313584  0.4391823064090267  0.6591679903509835   T   T   T
  0.5872862905560364  0.4673958472017094  0.3061415242101539   T   T   T
  0.4900497958562298  0.4037080615820798  0.4151644571778519   F   F   F
  0.4356072738970754  0.6745814107297632  0.4127658452056875   T   T   T
  0.4695745065481579  0.5408166273344417  0.6600819522197683   T   T   T
  0.5397532608265934  0.5319899791087650  0.3771480104995177   F   F   F
  0.6684633648585442  0.6005922143445055  0.4833158966604975   T   T   T
  0.6658594148463268  0.5192041773921218  0.5502642600070310   T   T   T
  0.3747212903922995  0.3348302571327965  0.3845765408165714   T   T   T
  0.6785464722644773  0.4362989617250982  0.4862427111823678   T   T   T
  0.5397655240756886  0.3187518767486647  0.3922781456102618   T   T   T
  0.3025148906048398  0.5029820432545806  0.4366023481012246   T   T   T
  0.3134737223566418  0.3955337097666118  0.4490336997216037   T   T   T
  0.5126498408134527  0.6275070263376272  0.6153888785222625   T   T   T
  0.4481163904688355  0.3749615415547043  0.5850810647372955   T   T   T
  0.3897929613070947  0.5810523168355912  0.6128809005322088   T   T   T
  0.4054121821436468  0.3061039927694778  0.5015161635992614   T   T   T
  0.4025073785185095  0.3715600597455351  0.2868630579405102   T   T   T
  0.3840286913239406  0.5335059924589786  0.2920576425703887   T   T   T
  0.6931508711563275  0.4609754022580823  0.3872563989454832   T   T   T
  0.3377181084112863  0.5722654272085045  0.5129275178328395   T   T   T
  0.5990712160417127  0.5721140651885041  0.3072855022463069   T   T   T
  0.6128836469948808  0.6149128784881766  0.5752866529352137   T   T   T
  0.4405065313097444  0.6149068191270305  0.3236222585120817   T   T   T
  0.5526233647947788  0.3463048240907770  0.6215268651435053   T   T   T
  0.5478893073293436  0.3921277083587971  0.6870796919859480   T   T   T
  0.5616266725841027  0.3560804402598953  0.6634957842392067   T   T   T
  0.5843495298057051  0.3311294702882947  0.6834656710969320   T   T   T
 
  0.00000000E+00  0.00000000E+00  0.00000000E+00
  0.00000000E+00  0.00000000E+00  0.00000000E+00
  0.00000000E+00  0.00000000E+00  0.00000000E+00
  0.00000000E+00  0.00000000E+00  0.00000000E+00
  0.00000000E+00  0.00000000E+00  0.00000000E+00
  0.00000000E+00  0.00000000E+00  0.00000000E+00
  0.00000000E+00  0.00000000E+00  0.00000000E+00
  0.00000000E+00  0.00000000E+00  0.00000000E+00
  0.00000000E+00  0.00000000E+00  0.00000000E+00
  0.00000000E+00  0.00000000E+00  0.00000000E+00
  0.00000000E+00  0.00000000E+00  0.00000000E+00
  0.00000000E+00  0.00000000E+00  0.00000000E+00
  0.00000000E+00  0.00000000E+00  0.00000000E+00
  0.00000000E+00  0.00000000E+00  0.00000000E+00
  0.00000000E+00  0.00000000E+00  0.00000000E+00
  0.00000000E+00  0.00000000E+00  0.00000000E+00
  0.00000000E+00  0.00000000E+00  0.00000000E+00
  0.00000000E+00  0.00000000E+00  0.00000000E+00
  0.00000000E+00  0.00000000E+00  0.00000000E+00
  0.00000000E+00  0.00000000E+00  0.00000000E+00
  0.00000000E+00  0.00000000E+00  0.00000000E+00
  0.00000000E+00  0.00000000E+00  0.00000000E+00
  0.00000000E+00  0.00000000E+00  0.00000000E+00
  0.00000000E+00  0.00000000E+00  0.00000000E+00
  0.00000000E+00  0.00000000E+00  0.00000000E+00
  0.00000000E+00  0.00000000E+00  0.00000000E+00
  0.00000000E+00  0.00000000E+00  0.00000000E+00
  0.00000000E+00  0.00000000E+00  0.00000000E+00
  0.00000000E+00  0.00000000E+00  0.00000000E+00
  0.00000000E+00  0.00000000E+00  0.00000000E+00
  0.00000000E+00  0.00000000E+00  0.00000000E+00
  0.00000000E+00  0.00000000E+00  0.00000000E+00
  0.00000000E+00  0.00000000E+00  0.00000000E+00
  0.00000000E+00  0.00000000E+00  0.00000000E+00
  0.00000000E+00  0.00000000E+00  0.00000000E+00
  0.00000000E+00  0.00000000E+00  0.00000000E+00
  0.00000000E+00  0.00000000E+00  0.00000000E+00
  0.00000000E+00  0.00000000E+00  0.00000000E+00
  0.00000000E+00  0.00000000E+00  0.00000000E+00
  0.00000000E+00  0.00000000E+00  0.00000000E+00
  0.00000000E+00  0.00000000E+00  0.00000000E+00
  0.00000000E+00  0.00000000E+00  0.00000000E+00
  0.00000000E+00  0.00000000E+00  0.00000000E+00
  0.00000000E+00  0.00000000E+00  0.00000000E+00
  0.00000000E+00  0.00000000E+00  0.00000000E+00
  0.00000000E+00  0.00000000E+00  0.00000000E+00
  0.00000000E+00  0.00000000E+00  0.00000000E+00
  0.00000000E+00  0.00000000E+00  0.00000000E+00
  0.00000000E+00  0.00000000E+00  0.00000000E+00
  0.00000000E+00  0.00000000E+00  0.00000000E+00
  0.00000000E+00  0.00000000E+00  0.00000000E+00
  0.00000000E+00  0.00000000E+00  0.00000000E+00
  0.00000000E+00  0.00000000E+00  0.00000000E+00
  0.00000000E+00  0.00000000E+00  0.00000000E+00
  0.00000000E+00  0.00000000E+00  0.00000000E+00
  0.00000000E+00  0.00000000E+00  0.00000000E+00
  0.00000000E+00  0.00000000E+00  0.00000000E+00
  0.00000000E+00  0.00000000E+00  0.00000000E+00
  0.00000000E+00  0.00000000E+00  0.00000000E+00
  0.00000000E+00  0.00000000E+00  0.00000000E+00
  0.00000000E+00  0.00000000E+00  0.00000000E+00
  0.00000000E+00  0.00000000E+00  0.00000000E+00
  0.00000000E+00  0.00000000E+00  0.00000000E+00
  0.00000000E+00  0.00000000E+00  0.00000000E+00
  0.00000000E+00  0.00000000E+00  0.00000000E+00
  0.00000000E+00  0.00000000E+00  0.00000000E+00
  0.00000000E+00  0.00000000E+00  0.00000000E+00
  0.00000000E+00  0.00000000E+00  0.00000000E+00
  0.00000000E+00  0.00000000E+00  0.00000000E+00
  0.00000000E+00  0.00000000E+00  0.00000000E+00
  0.00000000E+00  0.00000000E+00  0.00000000E+00
  0.00000000E+00  0.00000000E+00  0.00000000E+00
