La Co Ni Sn Bi O  C  H                  
   1.00000000000000     
    29.1044006348000011    0.0000000000000000    0.0000000000000000
     0.4451680315000000   28.3694074727000007    0.0000000000000000
     0.0682082826000000    0.3036559964000000   28.5240018092999996
   La   Co   Ni   Sn   Bi   O    C    H 
    14    13    13    14    14     2     1     1
Selective dynamics
Direct
  0.5921819660188030  0.4206038261829520  0.4080316602111011   T   T   T
  0.6859000561660642  0.5708196024178936  0.3814942498530182   T   T   T
  0.4955660213822889  0.5282853867284542  0.2824819436125255   T   T   T
  0.5626333556898574  0.5218529756055719  0.6019998761265553   T   T   T
  0.5089886747569424  0.3871614369498297  0.3054047442515193   T   T   T
  0.5747235290971461  0.6604448206684634  0.4865502865005483   T   T   T
  0.5089105102808731  0.3379372678232828  0.4994248063218870   T   T   T
  0.5351185113766127  0.6378167196700867  0.3764312070736502   T   T   T
  0.4376936504878363  0.6443839438500382  0.5356747942108550   T   T   T
  0.4373551010143757  0.5015757590148624  0.3842817269995109   F   F   F
  0.4437846394494898  0.4460183835780285  0.5005161578087822   F   F   F
  0.3873721892363715  0.4673026611678023  0.6096007026477426   T   T   T
  0.3445905682372593  0.4445722799774720  0.3467415708322691   T   T   T
  0.3620940423445183  0.5858570852302670  0.3939364864934258   T   T   T
  0.4217425606853311  0.4061295180575186  0.3699802678458894   F   F   F
  0.5011311695957161  0.4887203336762909  0.4395023580252015   F   F   F
  0.4044148221271726  0.6101724300038001  0.4624736492929173   F   F   F
  0.4722931245665194  0.5596737886932672  0.5729988711091565   F   F   F
  0.6552684236953183  0.5165424048424470  0.4543399438695133   F   F   F
  0.5967309916701211  0.5535378348504167  0.5056109707055541   F   F   F
  0.5314074673932367  0.5941153005651714  0.5336729985293047   F   F   F
  0.5796732686089143  0.4997731718447866  0.4507473928409595   F   F   F
  0.4605789037642980  0.3306794471301072  0.3445553298259188   T   T   T
  0.3905180950192175  0.5252419063175111  0.4552418453041511   F   F   F
  0.4542210339941974  0.3246288344450621  0.4238586899288236   T   T   T
  0.5074804872141527  0.4592780196109629  0.3501259710292359   F   F   F
  0.6012877811302459  0.4669891268301640  0.5212355700313438   F   F   F
  0.5384608035519776  0.4312182275275163  0.4821288228790692   F   F   F
  0.4713083414346286  0.4805797151798927  0.5807598339419258   F   F   F
  0.3771163837573610  0.4514853175274567  0.4282230665427278   F   F   F
  0.4059018739390154  0.3822235888080883  0.4561785915149272   F   F   F
  0.5357818896390683  0.5680835373033233  0.4543473312664048   F   F   F
  0.4924712632432886  0.6367287407321953  0.4646113344718685   F   F   F
  0.4677327221812249  0.5829886973614862  0.4038343643763724   F   F   F
  0.5280944416629296  0.5063826634733033  0.5194466411805863   F   F   F
  0.6212454441397384  0.5105019604624417  0.3755946010283822   F   F   F
  0.6054499763524817  0.5821019035045651  0.4188664505762958   F   F   F
  0.4050790883739026  0.5245211222763402  0.5434909784116542   F   F   F
  0.3507813776503511  0.4703470273244619  0.5087853999616517   T   T   T
  0.4340953051959658  0.4576663227515281  0.3021827946787851   T   T   T
  0.5380159039287772  0.4218018035657145  0.5690288233838118   T   T   T
  0.3574692020103406  0.3872773561360681  0.5398896791139042   T   T   T
  0.4625951421883201  0.5516617238622956  0.4875128022361963   F   F   F
  0.6066443571860410  0.3755127052669510  0.5111441746533097   T   T   T
  0.4918946466318301  0.4389885440803140  0.6580506436667192   T   T   T
  0.5873462393520127  0.4678512918635379  0.3063670636346127   T   T   T
  0.4900497958562298  0.4037080615820798  0.4151644571778519   F   F   F
  0.4352260812387250  0.6750086723496134  0.4133188616274858   T   T   T
  0.4682517599139217  0.5369964906861396  0.6601080487971911   T   T   T
  0.5397532608265934  0.5319899791087650  0.3771480104995177   F   F   F
  0.6672922987322181  0.6010819614737063  0.4833589516942374   T   T   T
  0.6657772080351838  0.5197523589557831  0.5507650050550121   T   T   T
  0.3746835157975324  0.3348267756010243  0.3847289032011042   T   T   T
  0.6793902478029176  0.4367608121150182  0.4870448658252351   T   T   T
  0.5395504387454406  0.3185612538851035  0.3916368940005923   T   T   T
  0.3024829159878116  0.5031796236050363  0.4365658209893928   T   T   T
  0.3135457498030315  0.3958671479418239  0.4494818325380365   T   T   T
  0.5129531466293833  0.6248165354308579  0.6175552827390547   T   T   T
  0.4489037511411504  0.3747229286685642  0.5854928215336564   T   T   T
  0.3909946049063217  0.5811276644873788  0.6125055706533459   T   T   T
  0.4053561318528848  0.3057897157932525  0.5013963468994992   T   T   T
  0.4025867500005039  0.3720197482926536  0.2869249175240546   T   T   T
  0.3839418781263671  0.5341219922030747  0.2923844129792258   T   T   T
  0.6925026118898538  0.4599323119210595  0.3873512009041007   T   T   T
  0.3378950484853947  0.5725730182692792  0.5128602277000727   T   T   T
  0.5999405962712971  0.5730829736620509  0.3086787003621843   T   T   T
  0.6135929873480258  0.6140393995390730  0.5755566945413898   T   T   T
  0.4402556978527453  0.6156840206470231  0.3239791265480615   T   T   T
  0.5704495266518810  0.7256012190353529  0.5372530339726265   T   T   T
  0.5785671877139366  0.7051461296383900  0.6143053304141736   T   T   T
  0.5771141779862385  0.7344457035690358  0.5813100324952146   T   T   T
  0.5817951897764524  0.7725235770443918  0.5893077017725923   T   T   T
 
  0.00000000E+00  0.00000000E+00  0.00000000E+00
  0.00000000E+00  0.00000000E+00  0.00000000E+00
  0.00000000E+00  0.00000000E+00  0.00000000E+00
  0.00000000E+00  0.00000000E+00  0.00000000E+00
  0.00000000E+00  0.00000000E+00  0.00000000E+00
  0.00000000E+00  0.00000000E+00  0.00000000E+00
  0.00000000E+00  0.00000000E+00  0.00000000E+00
  0.00000000E+00  0.00000000E+00  0.00000000E+00
  0.00000000E+00  0.00000000E+00  0.00000000E+00
  0.00000000E+00  0.00000000E+00  0.00000000E+00
  0.00000000E+00  0.00000000E+00  0.00000000E+00
  0.00000000E+00  0.00000000E+00  0.00000000E+00
  0.00000000E+00  0.00000000E+00  0.00000000E+00
  0.00000000E+00  0.00000000E+00  0.00000000E+00
  0.00000000E+00  0.00000000E+00  0.00000000E+00
  0.00000000E+00  0.00000000E+00  0.00000000E+00
  0.00000000E+00  0.00000000E+00  0.00000000E+00
  0.00000000E+00  0.00000000E+00  0.00000000E+00
  0.00000000E+00  0.00000000E+00  0.00000000E+00
  0.00000000E+00  0.00000000E+00  0.00000000E+00
  0.00000000E+00  0.00000000E+00  0.00000000E+00
  0.00000000E+00  0.00000000E+00  0.00000000E+00
  0.00000000E+00  0.00000000E+00  0.00000000E+00
  0.00000000E+00  0.00000000E+00  0.00000000E+00
  0.00000000E+00  0.00000000E+00  0.00000000E+00
  0.00000000E+00  0.00000000E+00  0.00000000E+00
  0.00000000E+00  0.00000000E+00  0.00000000E+00
  0.00000000E+00  0.00000000E+00  0.00000000E+00
  0.00000000E+00  0.00000000E+00  0.00000000E+00
  0.00000000E+00  0.00000000E+00  0.00000000E+00
  0.00000000E+00  0.00000000E+00  0.00000000E+00
  0.00000000E+00  0.00000000E+00  0.00000000E+00
  0.00000000E+00  0.00000000E+00  0.00000000E+00
  0.00000000E+00  0.00000000E+00  0.00000000E+00
  0.00000000E+00  0.00000000E+00  0.00000000E+00
  0.00000000E+00  0.00000000E+00  0.00000000E+00
  0.00000000E+00  0.00000000E+00  0.00000000E+00
  0.00000000E+00  0.00000000E+00  0.00000000E+00
  0.00000000E+00  0.00000000E+00  0.00000000E+00
  0.00000000E+00  0.00000000E+00  0.00000000E+00
  0.00000000E+00  0.00000000E+00  0.00000000E+00
  0.00000000E+00  0.00000000E+00  0.00000000E+00
  0.00000000E+00  0.00000000E+00  0.00000000E+00
  0.00000000E+00  0.00000000E+00  0.00000000E+00
  0.00000000E+00  0.00000000E+00  0.00000000E+00
  0.00000000E+00  0.00000000E+00  0.00000000E+00
  0.00000000E+00  0.00000000E+00  0.00000000E+00
  0.00000000E+00  0.00000000E+00  0.00000000E+00
  0.00000000E+00  0.00000000E+00  0.00000000E+00
  0.00000000E+00  0.00000000E+00  0.00000000E+00
  0.00000000E+00  0.00000000E+00  0.00000000E+00
  0.00000000E+00  0.00000000E+00  0.00000000E+00
  0.00000000E+00  0.00000000E+00  0.00000000E+00
  0.00000000E+00  0.00000000E+00  0.00000000E+00
  0.00000000E+00  0.00000000E+00  0.00000000E+00
  0.00000000E+00  0.00000000E+00  0.00000000E+00
  0.00000000E+00  0.00000000E+00  0.00000000E+00
  0.00000000E+00  0.00000000E+00  0.00000000E+00
  0.00000000E+00  0.00000000E+00  0.00000000E+00
  0.00000000E+00  0.00000000E+00  0.00000000E+00
  0.00000000E+00  0.00000000E+00  0.00000000E+00
  0.00000000E+00  0.00000000E+00  0.00000000E+00
  0.00000000E+00  0.00000000E+00  0.00000000E+00
  0.00000000E+00  0.00000000E+00  0.00000000E+00
  0.00000000E+00  0.00000000E+00  0.00000000E+00
  0.00000000E+00  0.00000000E+00  0.00000000E+00
  0.00000000E+00  0.00000000E+00  0.00000000E+00
  0.00000000E+00  0.00000000E+00  0.00000000E+00
  0.00000000E+00  0.00000000E+00  0.00000000E+00
  0.00000000E+00  0.00000000E+00  0.00000000E+00
  0.00000000E+00  0.00000000E+00  0.00000000E+00
  0.00000000E+00  0.00000000E+00  0.00000000E+00
