La Co Ni Sn Bi O  C  H                  
   1.00000000000000     
    29.1044006348000011    0.0000000000000000    0.0000000000000000
     0.4451680315000000   28.3694074727000007    0.0000000000000000
     0.0682082826000000    0.3036559964000000   28.5240018092999996
   La   Co   Ni   Sn   Bi   O    C    H 
    14    13    13    14    14     2     1     1
Selective dynamics
Direct
  0.5923503650703728  0.4201276350580019  0.4078525215395543   T   T   T
  0.6850279353698259  0.5711210590271062  0.3805937059065715   T   T   T
  0.4953365735481889  0.5264850582136654  0.2808905506753543   T   T   T
  0.5625836418180125  0.5212959797974397  0.6019252378142684   T   T   T
  0.5067380605934088  0.3904680032313936  0.2999477363095489   T   T   T
  0.5752241249473224  0.6555009030738035  0.4834693219236282   T   T   T
  0.5103833912238398  0.3373867772096823  0.4973976645196719   T   T   T
  0.5351852999417033  0.6377079585264065  0.3752780152854334   T   T   T
  0.4359251304640855  0.6430566415524982  0.5361726166948170   T   T   T
  0.4373551010143757  0.5015757590148624  0.3842817269995109   F   F   F
  0.4437846394494898  0.4460183835780285  0.5005161578087822   F   F   F
  0.3880241230983414  0.4658145248270708  0.6093662568605390   T   T   T
  0.3432201129759438  0.4450856655341491  0.3473477175223591   T   T   T
  0.3616007287108525  0.5856352431816112  0.3941828360009595   T   T   T
  0.4217425606853311  0.4061295180575186  0.3699802678458894   F   F   F
  0.5011311695957161  0.4887203336762909  0.4395023580252015   F   F   F
  0.4044148221271726  0.6101724300038001  0.4624736492929173   F   F   F
  0.4722931245665194  0.5596737886932672  0.5729988711091565   F   F   F
  0.6552684236953183  0.5165424048424470  0.4543399438695133   F   F   F
  0.5967309916701211  0.5535378348504167  0.5056109707055541   F   F   F
  0.5314074673932367  0.5941153005651714  0.5336729985293047   F   F   F
  0.5796732686089143  0.4997731718447866  0.4507473928409595   F   F   F
  0.4578291210925770  0.3284897759551487  0.3455029704506616   T   T   T
  0.3905180950192175  0.5252419063175111  0.4552418453041511   F   F   F
  0.4541423224052353  0.3250174453824363  0.4237982879402771   T   T   T
  0.5074804872141527  0.4592780196109629  0.3501259710292359   F   F   F
  0.6012877811302459  0.4669891268301640  0.5212355700313438   F   F   F
  0.5384608035519776  0.4312182275275163  0.4821288228790692   F   F   F
  0.4713083414346286  0.4805797151798927  0.5807598339419258   F   F   F
  0.3771163837573610  0.4514853175274567  0.4282230665427278   F   F   F
  0.4059018739390154  0.3822235888080883  0.4561785915149272   F   F   F
  0.5357818896390683  0.5680835373033233  0.4543473312664048   F   F   F
  0.4924712632432886  0.6367287407321953  0.4646113344718685   F   F   F
  0.4677327221812249  0.5829886973614862  0.4038343643763724   F   F   F
  0.5280944416629296  0.5063826634733033  0.5194466411805863   F   F   F
  0.6212454441397384  0.5105019604624417  0.3755946010283822   F   F   F
  0.6054499763524817  0.5821019035045651  0.4188664505762958   F   F   F
  0.4050790883739026  0.5245211222763402  0.5434909784116542   F   F   F
  0.3512875554461370  0.4697634203211655  0.5091442505476053   T   T   T
  0.4314204978382650  0.4558761105008126  0.3013771033347146   T   T   T
  0.5377816174195967  0.4213809250709883  0.5684727696455522   T   T   T
  0.3577418784668241  0.3863551058339630  0.5393373565431484   T   T   T
  0.4625951421883201  0.5516617238622956  0.4875128022361963   F   F   F
  0.6074506063559125  0.3758360374813767  0.5111542542063006   T   T   T
  0.4919916724384897  0.4377677821884478  0.6574828601059732   T   T   T
  0.5879231356823760  0.4676533136459028  0.3068624968678541   T   T   T
  0.4900497958562298  0.4037080615820798  0.4151644571778519   F   F   F
  0.4355244594471820  0.6746148137596734  0.4127340215679101   T   T   T
  0.4688648927326142  0.5361521102792398  0.6602743767979480   T   T   T
  0.5397532608265934  0.5319899791087650  0.3771480104995177   F   F   F
  0.6685650385533940  0.6002435738781068  0.4835220528235481   T   T   T
  0.6658362855150755  0.5192782879108258  0.5507820844942336   T   T   T
  0.3731479193537109  0.3349109566631312  0.3863945547981191   T   T   T
  0.6795405659409365  0.4370179247952072  0.4869012212511615   T   T   T
  0.5384954696772308  0.3196835152910587  0.3876029172425807   T   T   T
  0.3024091657792260  0.5031677521919953  0.4378228800865989   T   T   T
  0.3132151685403547  0.3955061859692084  0.4491074437187859   T   T   T
  0.5127729101387044  0.6246682596343236  0.6171165075158739   T   T   T
  0.4495759996675721  0.3729012974659334  0.5842946049566948   T   T   T
  0.3906059831273553  0.5794747550434283  0.6136540571686151   T   T   T
  0.4065728385759749  0.3051928313095861  0.5009745456003288   T   T   T
  0.3988046559972203  0.3692507905556930  0.2896820845876741   T   T   T
  0.3832029652258688  0.5340206889854705  0.2934012389362433   T   T   T
  0.6924945565930291  0.4601814774897526  0.3871738465650535   T   T   T
  0.3378794427167666  0.5728030652687693  0.5129926912729618   T   T   T
  0.5989597747617118  0.5723534701911308  0.3074932655556717   T   T   T
  0.6127739748240486  0.6140793782265977  0.5754639100417891   T   T   T
  0.4400808500829811  0.6150338392744690  0.3239558148700732   T   T   T
  0.4791507649576499  0.4590401411946534  0.2348323266023007   T   T   T
  0.4898127782597891  0.3844272831455828  0.2101234064801585   T   T   T
  0.4675302648737056  0.4226830875936844  0.2097015761743961   T   T   T
  0.4364604958170161  0.4275268096013907  0.1877472539364720   T   T   T
 
  0.00000000E+00  0.00000000E+00  0.00000000E+00
  0.00000000E+00  0.00000000E+00  0.00000000E+00
  0.00000000E+00  0.00000000E+00  0.00000000E+00
  0.00000000E+00  0.00000000E+00  0.00000000E+00
  0.00000000E+00  0.00000000E+00  0.00000000E+00
  0.00000000E+00  0.00000000E+00  0.00000000E+00
  0.00000000E+00  0.00000000E+00  0.00000000E+00
  0.00000000E+00  0.00000000E+00  0.00000000E+00
  0.00000000E+00  0.00000000E+00  0.00000000E+00
  0.00000000E+00  0.00000000E+00  0.00000000E+00
  0.00000000E+00  0.00000000E+00  0.00000000E+00
  0.00000000E+00  0.00000000E+00  0.00000000E+00
  0.00000000E+00  0.00000000E+00  0.00000000E+00
  0.00000000E+00  0.00000000E+00  0.00000000E+00
  0.00000000E+00  0.00000000E+00  0.00000000E+00
  0.00000000E+00  0.00000000E+00  0.00000000E+00
  0.00000000E+00  0.00000000E+00  0.00000000E+00
  0.00000000E+00  0.00000000E+00  0.00000000E+00
  0.00000000E+00  0.00000000E+00  0.00000000E+00
  0.00000000E+00  0.00000000E+00  0.00000000E+00
  0.00000000E+00  0.00000000E+00  0.00000000E+00
  0.00000000E+00  0.00000000E+00  0.00000000E+00
  0.00000000E+00  0.00000000E+00  0.00000000E+00
  0.00000000E+00  0.00000000E+00  0.00000000E+00
  0.00000000E+00  0.00000000E+00  0.00000000E+00
  0.00000000E+00  0.00000000E+00  0.00000000E+00
  0.00000000E+00  0.00000000E+00  0.00000000E+00
  0.00000000E+00  0.00000000E+00  0.00000000E+00
  0.00000000E+00  0.00000000E+00  0.00000000E+00
  0.00000000E+00  0.00000000E+00  0.00000000E+00
  0.00000000E+00  0.00000000E+00  0.00000000E+00
  0.00000000E+00  0.00000000E+00  0.00000000E+00
  0.00000000E+00  0.00000000E+00  0.00000000E+00
  0.00000000E+00  0.00000000E+00  0.00000000E+00
  0.00000000E+00  0.00000000E+00  0.00000000E+00
  0.00000000E+00  0.00000000E+00  0.00000000E+00
  0.00000000E+00  0.00000000E+00  0.00000000E+00
  0.00000000E+00  0.00000000E+00  0.00000000E+00
  0.00000000E+00  0.00000000E+00  0.00000000E+00
  0.00000000E+00  0.00000000E+00  0.00000000E+00
  0.00000000E+00  0.00000000E+00  0.00000000E+00
  0.00000000E+00  0.00000000E+00  0.00000000E+00
  0.00000000E+00  0.00000000E+00  0.00000000E+00
  0.00000000E+00  0.00000000E+00  0.00000000E+00
  0.00000000E+00  0.00000000E+00  0.00000000E+00
  0.00000000E+00  0.00000000E+00  0.00000000E+00
  0.00000000E+00  0.00000000E+00  0.00000000E+00
  0.00000000E+00  0.00000000E+00  0.00000000E+00
  0.00000000E+00  0.00000000E+00  0.00000000E+00
  0.00000000E+00  0.00000000E+00  0.00000000E+00
  0.00000000E+00  0.00000000E+00  0.00000000E+00
  0.00000000E+00  0.00000000E+00  0.00000000E+00
  0.00000000E+00  0.00000000E+00  0.00000000E+00
  0.00000000E+00  0.00000000E+00  0.00000000E+00
  0.00000000E+00  0.00000000E+00  0.00000000E+00
  0.00000000E+00  0.00000000E+00  0.00000000E+00
  0.00000000E+00  0.00000000E+00  0.00000000E+00
  0.00000000E+00  0.00000000E+00  0.00000000E+00
  0.00000000E+00  0.00000000E+00  0.00000000E+00
  0.00000000E+00  0.00000000E+00  0.00000000E+00
  0.00000000E+00  0.00000000E+00  0.00000000E+00
  0.00000000E+00  0.00000000E+00  0.00000000E+00
  0.00000000E+00  0.00000000E+00  0.00000000E+00
  0.00000000E+00  0.00000000E+00  0.00000000E+00
  0.00000000E+00  0.00000000E+00  0.00000000E+00
  0.00000000E+00  0.00000000E+00  0.00000000E+00
  0.00000000E+00  0.00000000E+00  0.00000000E+00
  0.00000000E+00  0.00000000E+00  0.00000000E+00
  0.00000000E+00  0.00000000E+00  0.00000000E+00
  0.00000000E+00  0.00000000E+00  0.00000000E+00
  0.00000000E+00  0.00000000E+00  0.00000000E+00
  0.00000000E+00  0.00000000E+00  0.00000000E+00
