La Co Ni Sn Bi O  C  H                  
   1.00000000000000     
    29.1044006348000011    0.0000000000000000    0.0000000000000000
     0.4451680315000000   28.3694074727000007    0.0000000000000000
     0.0682082826000000    0.3036559964000000   28.5240018092999996
   La   Co   Ni   Sn   Bi   O    C    H 
    14    13    13    14    14     2     1     1
Selective dynamics
Direct
  0.5926691101686195  0.4200263131311624  0.4087671336429970   T   T   T
  0.6854022324429305  0.5710549269176839  0.3808193369546784   T   T   T
  0.4956029602956151  0.5267728229992745  0.2822916809395517   T   T   T
  0.5623993161421723  0.5214720974572884  0.6020569536503334   T   T   T
  0.5080472609916195  0.3872727570146617  0.3046086497200208   T   T   T
  0.5750969353735894  0.6555682408840046  0.4835526881871662   T   T   T
  0.5113755261612010  0.3348592464838360  0.4997552187602544   T   T   T
  0.5351087169203591  0.6375836395771903  0.3749524230374240   T   T   T
  0.4357711705885088  0.6430302988452066  0.5359273319391562   T   T   T
  0.4373551010143757  0.5015757590148624  0.3842817269995109   F   F   F
  0.4437846394494898  0.4460183835780285  0.5005161578087822   F   F   F
  0.3876360884133409  0.4663064498567608  0.6093187092469949   T   T   T
  0.3444942932540112  0.4446191098348105  0.3468406261693049   T   T   T
  0.3620580160783524  0.5853506923166397  0.3936933346214261   T   T   T
  0.4217425606853311  0.4061295180575186  0.3699802678458894   F   F   F
  0.5011311695957161  0.4887203336762909  0.4395023580252015   F   F   F
  0.4044148221271726  0.6101724300038001  0.4624736492929173   F   F   F
  0.4722931245665194  0.5596737886932672  0.5729988711091565   F   F   F
  0.6552684236953183  0.5165424048424470  0.4543399438695133   F   F   F
  0.5967309916701211  0.5535378348504167  0.5056109707055541   F   F   F
  0.5314074673932367  0.5941153005651714  0.5336729985293047   F   F   F
  0.5796732686089143  0.4997731718447866  0.4507473928409595   F   F   F
  0.4601528622686429  0.3310289418278790  0.3439525737857290   T   T   T
  0.3905180950192175  0.5252419063175111  0.4552418453041511   F   F   F
  0.4539324322566777  0.3243273420507293  0.4235848500209788   T   T   T
  0.5074804872141527  0.4592780196109629  0.3501259710292359   F   F   F
  0.6012877811302459  0.4669891268301640  0.5212355700313438   F   F   F
  0.5384608035519776  0.4312182275275163  0.4821288228790692   F   F   F
  0.4713083414346286  0.4805797151798927  0.5807598339419258   F   F   F
  0.3771163837573610  0.4514853175274567  0.4282230665427278   F   F   F
  0.4059018739390154  0.3822235888080883  0.4561785915149272   F   F   F
  0.5357818896390683  0.5680835373033233  0.4543473312664048   F   F   F
  0.4924712632432886  0.6367287407321953  0.4646113344718685   F   F   F
  0.4677327221812249  0.5829886973614862  0.4038343643763724   F   F   F
  0.5280944416629296  0.5063826634733033  0.5194466411805863   F   F   F
  0.6212454441397384  0.5105019604624417  0.3755946010283822   F   F   F
  0.6054499763524817  0.5821019035045651  0.4188664505762958   F   F   F
  0.4050790883739026  0.5245211222763402  0.5434909784116542   F   F   F
  0.3509205934364738  0.4700341305615919  0.5087667422300377   T   T   T
  0.4339600031298452  0.4570492113043235  0.3021392823083990   T   T   T
  0.5375141098450255  0.4215461165505825  0.5688128616768652   T   T   T
  0.3575028407845073  0.3867072674901265  0.5393256141208522   T   T   T
  0.4625951421883201  0.5516617238622956  0.4875128022361963   F   F   F
  0.6078399373560817  0.3766748072540829  0.5123921582409381   T   T   T
  0.4915643221051681  0.4386806783025915  0.6577878665009012   T   T   T
  0.5874452322367133  0.4669138914416365  0.3068605904082370   T   T   T
  0.4900497958562298  0.4037080615820798  0.4151644571778519   F   F   F
  0.4353973480051692  0.6744172868175961  0.4126150294132463   T   T   T
  0.4684407406930603  0.5369086632893977  0.6601150049210246   T   T   T
  0.5397532608265934  0.5319899791087650  0.3771480104995177   F   F   F
  0.6683895251110024  0.6003522437077152  0.4836008634230624   T   T   T
  0.6658914042991554  0.5193187498606537  0.5507038717990586   T   T   T
  0.3743534473991424  0.3351488472661053  0.3844979303350518   T   T   T
  0.6801036096069438  0.4373026728718102  0.4871558587979780   T   T   T
  0.5387853545254895  0.3186664297448699  0.3910783602501172   T   T   T
  0.3023855508450266  0.5032094555543565  0.4368127751107768   T   T   T
  0.3131904004822574  0.3959986589071148  0.4491785880163137   T   T   T
  0.5125552379412436  0.6250667425055488  0.6169369917003718   T   T   T
  0.4490615431421299  0.3736136594891873  0.5851548896353503   T   T   T
  0.3901660460719141  0.5798741940302675  0.6133282885043453   T   T   T
  0.4067520502548970  0.3058959121606195  0.5017599513516442   T   T   T
  0.4016545868201227  0.3718663410351918  0.2866240349483142   T   T   T
  0.3839910995615219  0.5335228246877927  0.2919803770305368   T   T   T
  0.6925501721464289  0.4601873919723570  0.3873762454124348   T   T   T
  0.3376630826621140  0.5721933421666466  0.5128033373953975   T   T   T
  0.5996488475342112  0.5721623852961577  0.3077611695458491   T   T   T
  0.6126621816571782  0.6140614087809133  0.5755169615473196   T   T   T
  0.4402983221312162  0.6147052718007667  0.3234537483423469   T   T   T
  0.5555476059844462  0.2658288917070163  0.5026838823091873   T   T   T
  0.6017417277976148  0.2555769247677238  0.4387984619524622   T   T   T
  0.5907043200176436  0.2480669648165578  0.4803924546628761   T   T   T
  0.6125000284343428  0.2237184250360409  0.5021177122720792   T   T   T
 
  0.00000000E+00  0.00000000E+00  0.00000000E+00
  0.00000000E+00  0.00000000E+00  0.00000000E+00
  0.00000000E+00  0.00000000E+00  0.00000000E+00
  0.00000000E+00  0.00000000E+00  0.00000000E+00
  0.00000000E+00  0.00000000E+00  0.00000000E+00
  0.00000000E+00  0.00000000E+00  0.00000000E+00
  0.00000000E+00  0.00000000E+00  0.00000000E+00
  0.00000000E+00  0.00000000E+00  0.00000000E+00
  0.00000000E+00  0.00000000E+00  0.00000000E+00
  0.00000000E+00  0.00000000E+00  0.00000000E+00
  0.00000000E+00  0.00000000E+00  0.00000000E+00
  0.00000000E+00  0.00000000E+00  0.00000000E+00
  0.00000000E+00  0.00000000E+00  0.00000000E+00
  0.00000000E+00  0.00000000E+00  0.00000000E+00
  0.00000000E+00  0.00000000E+00  0.00000000E+00
  0.00000000E+00  0.00000000E+00  0.00000000E+00
  0.00000000E+00  0.00000000E+00  0.00000000E+00
  0.00000000E+00  0.00000000E+00  0.00000000E+00
  0.00000000E+00  0.00000000E+00  0.00000000E+00
  0.00000000E+00  0.00000000E+00  0.00000000E+00
  0.00000000E+00  0.00000000E+00  0.00000000E+00
  0.00000000E+00  0.00000000E+00  0.00000000E+00
  0.00000000E+00  0.00000000E+00  0.00000000E+00
  0.00000000E+00  0.00000000E+00  0.00000000E+00
  0.00000000E+00  0.00000000E+00  0.00000000E+00
  0.00000000E+00  0.00000000E+00  0.00000000E+00
  0.00000000E+00  0.00000000E+00  0.00000000E+00
  0.00000000E+00  0.00000000E+00  0.00000000E+00
  0.00000000E+00  0.00000000E+00  0.00000000E+00
  0.00000000E+00  0.00000000E+00  0.00000000E+00
  0.00000000E+00  0.00000000E+00  0.00000000E+00
  0.00000000E+00  0.00000000E+00  0.00000000E+00
  0.00000000E+00  0.00000000E+00  0.00000000E+00
  0.00000000E+00  0.00000000E+00  0.00000000E+00
  0.00000000E+00  0.00000000E+00  0.00000000E+00
  0.00000000E+00  0.00000000E+00  0.00000000E+00
  0.00000000E+00  0.00000000E+00  0.00000000E+00
  0.00000000E+00  0.00000000E+00  0.00000000E+00
  0.00000000E+00  0.00000000E+00  0.00000000E+00
  0.00000000E+00  0.00000000E+00  0.00000000E+00
  0.00000000E+00  0.00000000E+00  0.00000000E+00
  0.00000000E+00  0.00000000E+00  0.00000000E+00
  0.00000000E+00  0.00000000E+00  0.00000000E+00
  0.00000000E+00  0.00000000E+00  0.00000000E+00
  0.00000000E+00  0.00000000E+00  0.00000000E+00
  0.00000000E+00  0.00000000E+00  0.00000000E+00
  0.00000000E+00  0.00000000E+00  0.00000000E+00
  0.00000000E+00  0.00000000E+00  0.00000000E+00
  0.00000000E+00  0.00000000E+00  0.00000000E+00
  0.00000000E+00  0.00000000E+00  0.00000000E+00
  0.00000000E+00  0.00000000E+00  0.00000000E+00
  0.00000000E+00  0.00000000E+00  0.00000000E+00
  0.00000000E+00  0.00000000E+00  0.00000000E+00
  0.00000000E+00  0.00000000E+00  0.00000000E+00
  0.00000000E+00  0.00000000E+00  0.00000000E+00
  0.00000000E+00  0.00000000E+00  0.00000000E+00
  0.00000000E+00  0.00000000E+00  0.00000000E+00
  0.00000000E+00  0.00000000E+00  0.00000000E+00
  0.00000000E+00  0.00000000E+00  0.00000000E+00
  0.00000000E+00  0.00000000E+00  0.00000000E+00
  0.00000000E+00  0.00000000E+00  0.00000000E+00
  0.00000000E+00  0.00000000E+00  0.00000000E+00
  0.00000000E+00  0.00000000E+00  0.00000000E+00
  0.00000000E+00  0.00000000E+00  0.00000000E+00
  0.00000000E+00  0.00000000E+00  0.00000000E+00
  0.00000000E+00  0.00000000E+00  0.00000000E+00
  0.00000000E+00  0.00000000E+00  0.00000000E+00
  0.00000000E+00  0.00000000E+00  0.00000000E+00
  0.00000000E+00  0.00000000E+00  0.00000000E+00
  0.00000000E+00  0.00000000E+00  0.00000000E+00
  0.00000000E+00  0.00000000E+00  0.00000000E+00
  0.00000000E+00  0.00000000E+00  0.00000000E+00
