La Co Ni Sn Bi O  C  H                  
   1.00000000000000     
    29.1044006348000011    0.0000000000000000    0.0000000000000000
     0.4451680315000000   28.3694074727000007    0.0000000000000000
     0.0682082826000000    0.3036559964000000   28.5240018092999996
   La   Co   Ni   Sn   Bi   O    C    H 
    14    13    13    14    14     2     1     1
Selective dynamics
Direct
  0.5921485604703470  0.4205809583009062  0.4075562064380154   T   T   T
  0.6856570582583479  0.5707164731130168  0.3812134946068523   T   T   T
  0.4957636987414934  0.5280234490596107  0.2822972642089848   T   T   T
  0.5623271177742765  0.5215952100637600  0.6021278333891477   T   T   T
  0.5088370420625352  0.3874953898720835  0.3051815667287945   T   T   T
  0.5752328947216721  0.6554738338827253  0.4837661010244972   T   T   T
  0.5086648027509325  0.3380187052013312  0.4994946219908722   T   T   T
  0.5348836606994736  0.6377767091032445  0.3753044317769522   T   T   T
  0.4355341118670703  0.6430183518758690  0.5359030674871723   T   T   T
  0.4373551010143757  0.5015757590148624  0.3842817269995109   F   F   F
  0.4437846394494898  0.4460183835780285  0.5005161578087822   F   F   F
  0.3875064698592037  0.4668224517776262  0.6098598389489034   T   T   T
  0.3390297780491088  0.4465638976002703  0.3448132954869088   T   T   T
  0.3616922301315004  0.5855646468944701  0.3937023114966841   T   T   T
  0.4217425606853311  0.4061295180575186  0.3699802678458894   F   F   F
  0.5011311695957161  0.4887203336762909  0.4395023580252015   F   F   F
  0.4044148221271726  0.6101724300038001  0.4624736492929173   F   F   F
  0.4722931245665194  0.5596737886932672  0.5729988711091565   F   F   F
  0.6552684236953183  0.5165424048424470  0.4543399438695133   F   F   F
  0.5967309916701211  0.5535378348504167  0.5056109707055541   F   F   F
  0.5314074673932367  0.5941153005651714  0.5336729985293047   F   F   F
  0.5796732686089143  0.4997731718447866  0.4507473928409595   F   F   F
  0.4606765965809266  0.3310521285091168  0.3449808776534110   T   T   T
  0.3905180950192175  0.5252419063175111  0.4552418453041511   F   F   F
  0.4548078521426897  0.3247373455995851  0.4247649602456540   T   T   T
  0.5074804872141527  0.4592780196109629  0.3501259710292359   F   F   F
  0.6012877811302459  0.4669891268301640  0.5212355700313438   F   F   F
  0.5384608035519776  0.4312182275275163  0.4821288228790692   F   F   F
  0.4713083414346286  0.4805797151798927  0.5807598339419258   F   F   F
  0.3771163837573610  0.4514853175274567  0.4282230665427278   F   F   F
  0.4059018739390154  0.3822235888080883  0.4561785915149272   F   F   F
  0.5357818896390683  0.5680835373033233  0.4543473312664048   F   F   F
  0.4924712632432886  0.6367287407321953  0.4646113344718685   F   F   F
  0.4677327221812249  0.5829886973614862  0.4038343643763724   F   F   F
  0.5280944416629296  0.5063826634733033  0.5194466411805863   F   F   F
  0.6212454441397384  0.5105019604624417  0.3755946010283822   F   F   F
  0.6054499763524817  0.5821019035045651  0.4188664505762958   F   F   F
  0.4050790883739026  0.5245211222763402  0.5434909784116542   F   F   F
  0.3507594477319816  0.4703995365414105  0.5092014548723071   T   T   T
  0.4337161562030492  0.4574446360061503  0.3027150934622143   T   T   T
  0.5381215166811431  0.4216646681296329  0.5688616507851376   T   T   T
  0.3573902167838108  0.3871904516461679  0.5394913262541352   T   T   T
  0.4625951421883201  0.5516617238622956  0.4875128022361963   F   F   F
  0.6063389159982349  0.3750122115896243  0.5098799354143804   T   T   T
  0.4921281736267824  0.4392462425770478  0.6580040112817052   T   T   T
  0.5874676661186580  0.4678578639965438  0.3061833982949774   T   T   T
  0.4900497958562298  0.4037080615820798  0.4151644571778519   F   F   F
  0.4353721733194780  0.6747969553972321  0.4129464331657307   T   T   T
  0.4683822983575962  0.5372179589872630  0.6602479885008582   T   T   T
  0.5397532608265934  0.5319899791087650  0.3771480104995177   F   F   F
  0.6684393944305377  0.6003445915231391  0.4837639241856874   T   T   T
  0.6658314490398325  0.5191649643229638  0.5505100039266910   T   T   T
  0.3749098575742101  0.3347211493218422  0.3850694787440795   T   T   T
  0.6787312814384402  0.4363057558162875  0.4868342184868198   T   T   T
  0.5397365056704566  0.3188345495000222  0.3916654863499048   T   T   T
  0.3024749840468807  0.5034560853057967  0.4377542484092931   T   T   T
  0.3135391916150839  0.3961657972197383  0.4489147487311973   T   T   T
  0.5123785752033664  0.6254017749246304  0.6167399366475994   T   T   T
  0.4488229061160330  0.3745728629061318  0.5854308272859410   T   T   T
  0.3901079153033962  0.5800427508927531  0.6132804572844006   T   T   T
  0.4049788520967596  0.3056957994426120  0.5014783042791686   T   T   T
  0.4018445524357675  0.3724587769271358  0.2878804892269055   T   T   T
  0.3845945661587043  0.5342295975271011  0.2918273033815938   T   T   T
  0.6925677367221685  0.4599873022873671  0.3876109935064231   T   T   T
  0.3376781285693578  0.5726328724280554  0.5129294332639840   T   T   T
  0.5997706859743844  0.5728694270488147  0.3082678475409928   T   T   T
  0.6126341245042428  0.6140419815717960  0.5758069357351503   T   T   T
  0.4401937161923726  0.6153437189008109  0.3237281360763485   T   T   T
  0.2699914728565644  0.4019278584795776  0.3221124894837861   T   T   T
  0.2588802863620067  0.4806741489330498  0.3259225732195156   T   T   T
  0.2445886888708205  0.4391285130164941  0.3183626420665658   T   T   T
  0.2081388810893327  0.4345431678383305  0.3079331247126063   T   T   T
 
  0.00000000E+00  0.00000000E+00  0.00000000E+00
  0.00000000E+00  0.00000000E+00  0.00000000E+00
  0.00000000E+00  0.00000000E+00  0.00000000E+00
  0.00000000E+00  0.00000000E+00  0.00000000E+00
  0.00000000E+00  0.00000000E+00  0.00000000E+00
  0.00000000E+00  0.00000000E+00  0.00000000E+00
  0.00000000E+00  0.00000000E+00  0.00000000E+00
  0.00000000E+00  0.00000000E+00  0.00000000E+00
  0.00000000E+00  0.00000000E+00  0.00000000E+00
  0.00000000E+00  0.00000000E+00  0.00000000E+00
  0.00000000E+00  0.00000000E+00  0.00000000E+00
  0.00000000E+00  0.00000000E+00  0.00000000E+00
  0.00000000E+00  0.00000000E+00  0.00000000E+00
  0.00000000E+00  0.00000000E+00  0.00000000E+00
  0.00000000E+00  0.00000000E+00  0.00000000E+00
  0.00000000E+00  0.00000000E+00  0.00000000E+00
  0.00000000E+00  0.00000000E+00  0.00000000E+00
  0.00000000E+00  0.00000000E+00  0.00000000E+00
  0.00000000E+00  0.00000000E+00  0.00000000E+00
  0.00000000E+00  0.00000000E+00  0.00000000E+00
  0.00000000E+00  0.00000000E+00  0.00000000E+00
  0.00000000E+00  0.00000000E+00  0.00000000E+00
  0.00000000E+00  0.00000000E+00  0.00000000E+00
  0.00000000E+00  0.00000000E+00  0.00000000E+00
  0.00000000E+00  0.00000000E+00  0.00000000E+00
  0.00000000E+00  0.00000000E+00  0.00000000E+00
  0.00000000E+00  0.00000000E+00  0.00000000E+00
  0.00000000E+00  0.00000000E+00  0.00000000E+00
  0.00000000E+00  0.00000000E+00  0.00000000E+00
  0.00000000E+00  0.00000000E+00  0.00000000E+00
  0.00000000E+00  0.00000000E+00  0.00000000E+00
  0.00000000E+00  0.00000000E+00  0.00000000E+00
  0.00000000E+00  0.00000000E+00  0.00000000E+00
  0.00000000E+00  0.00000000E+00  0.00000000E+00
  0.00000000E+00  0.00000000E+00  0.00000000E+00
  0.00000000E+00  0.00000000E+00  0.00000000E+00
  0.00000000E+00  0.00000000E+00  0.00000000E+00
  0.00000000E+00  0.00000000E+00  0.00000000E+00
  0.00000000E+00  0.00000000E+00  0.00000000E+00
  0.00000000E+00  0.00000000E+00  0.00000000E+00
  0.00000000E+00  0.00000000E+00  0.00000000E+00
  0.00000000E+00  0.00000000E+00  0.00000000E+00
  0.00000000E+00  0.00000000E+00  0.00000000E+00
  0.00000000E+00  0.00000000E+00  0.00000000E+00
  0.00000000E+00  0.00000000E+00  0.00000000E+00
  0.00000000E+00  0.00000000E+00  0.00000000E+00
  0.00000000E+00  0.00000000E+00  0.00000000E+00
  0.00000000E+00  0.00000000E+00  0.00000000E+00
  0.00000000E+00  0.00000000E+00  0.00000000E+00
  0.00000000E+00  0.00000000E+00  0.00000000E+00
  0.00000000E+00  0.00000000E+00  0.00000000E+00
  0.00000000E+00  0.00000000E+00  0.00000000E+00
  0.00000000E+00  0.00000000E+00  0.00000000E+00
  0.00000000E+00  0.00000000E+00  0.00000000E+00
  0.00000000E+00  0.00000000E+00  0.00000000E+00
  0.00000000E+00  0.00000000E+00  0.00000000E+00
  0.00000000E+00  0.00000000E+00  0.00000000E+00
  0.00000000E+00  0.00000000E+00  0.00000000E+00
  0.00000000E+00  0.00000000E+00  0.00000000E+00
  0.00000000E+00  0.00000000E+00  0.00000000E+00
  0.00000000E+00  0.00000000E+00  0.00000000E+00
  0.00000000E+00  0.00000000E+00  0.00000000E+00
  0.00000000E+00  0.00000000E+00  0.00000000E+00
  0.00000000E+00  0.00000000E+00  0.00000000E+00
  0.00000000E+00  0.00000000E+00  0.00000000E+00
  0.00000000E+00  0.00000000E+00  0.00000000E+00
  0.00000000E+00  0.00000000E+00  0.00000000E+00
  0.00000000E+00  0.00000000E+00  0.00000000E+00
  0.00000000E+00  0.00000000E+00  0.00000000E+00
  0.00000000E+00  0.00000000E+00  0.00000000E+00
  0.00000000E+00  0.00000000E+00  0.00000000E+00
  0.00000000E+00  0.00000000E+00  0.00000000E+00
