La Co Ni Sn Bi O  C  H                  
   1.00000000000000     
    29.1044006348000011    0.0000000000000000    0.0000000000000000
     0.4451680315000000   28.3694074727000007    0.0000000000000000
     0.0682082826000000    0.3036559964000000   28.5240018092999996
   La   Co   Ni   Sn   Bi   O    C    H 
    14    13    13    14    14     2     1     1
Selective dynamics
Direct
  0.5925366300564289  0.4206114428718835  0.4080728272320891   T   T   T
  0.6851123996404774  0.5714277099318312  0.3808930811558710   T   T   T
  0.4957381875553142  0.5267859276574547  0.2819052436445015   T   T   T
  0.5625784485220398  0.5222556349085695  0.6020622693779911   T   T   T
  0.5090750747638003  0.3870847096804058  0.3055280762672327   T   T   T
  0.5767889160432013  0.6597214965066894  0.4816038069409522   T   T   T
  0.5088270464406348  0.3382778681026368  0.4996720702738796   T   T   T
  0.5366506908868321  0.6396879840366784  0.3742489842219410   T   T   T
  0.4362459647154355  0.6439158750628803  0.5351813751853707   T   T   T
  0.4373551010143757  0.5015757590148624  0.3842817269995109   F   F   F
  0.4437846394494898  0.4460183835780285  0.5005161578087822   F   F   F
  0.3874725319024790  0.4672193565587135  0.6096689111331098   T   T   T
  0.3445331235173105  0.4442102260582732  0.3468898721742040   T   T   T
  0.3621590878161219  0.5854003265736094  0.3935322698859099   T   T   T
  0.4217425606853311  0.4061295180575186  0.3699802678458894   F   F   F
  0.5011311695957161  0.4887203336762909  0.4395023580252015   F   F   F
  0.4044148221271726  0.6101724300038001  0.4624736492929173   F   F   F
  0.4722931245665194  0.5596737886932672  0.5729988711091565   F   F   F
  0.6552684236953183  0.5165424048424470  0.4543399438695133   F   F   F
  0.5967309916701211  0.5535378348504167  0.5056109707055541   F   F   F
  0.5314074673932367  0.5941153005651714  0.5336729985293047   F   F   F
  0.5796732686089143  0.4997731718447866  0.4507473928409595   F   F   F
  0.4612931966130836  0.3311973647992677  0.3444436519634983   T   T   T
  0.3905180950192175  0.5252419063175111  0.4552418453041511   F   F   F
  0.4544347583765517  0.3246727995916446  0.4238289616658997   T   T   T
  0.5074804872141527  0.4592780196109629  0.3501259710292359   F   F   F
  0.6012877811302459  0.4669891268301640  0.5212355700313438   F   F   F
  0.5384608035519776  0.4312182275275163  0.4821288228790692   F   F   F
  0.4713083414346286  0.4805797151798927  0.5807598339419258   F   F   F
  0.3771163837573610  0.4514853175274567  0.4282230665427278   F   F   F
  0.4059018739390154  0.3822235888080883  0.4561785915149272   F   F   F
  0.5357818896390683  0.5680835373033233  0.4543473312664048   F   F   F
  0.4924712632432886  0.6367287407321953  0.4646113344718685   F   F   F
  0.4677327221812249  0.5829886973614862  0.4038343643763724   F   F   F
  0.5280944416629296  0.5063826634733033  0.5194466411805863   F   F   F
  0.6212454441397384  0.5105019604624417  0.3755946010283822   F   F   F
  0.6054499763524817  0.5821019035045651  0.4188664505762958   F   F   F
  0.4050790883739026  0.5245211222763402  0.5434909784116542   F   F   F
  0.3507001424407078  0.4703091978368601  0.5087723981043913   T   T   T
  0.4340548161329379  0.4571386225821346  0.3021508790085143   T   T   T
  0.5382629313132300  0.4222044986678093  0.5691389792291901   T   T   T
  0.3578017921179187  0.3872330501456864  0.5399043902886793   T   T   T
  0.4625951421883201  0.5516617238622956  0.4875128022361963   F   F   F
  0.6066628982519106  0.3755259894424559  0.5108774327155642   T   T   T
  0.4918450134304975  0.4392648124848233  0.6581285096727935   T   T   T
  0.5876852749642472  0.4672866167127817  0.3065145293976564   T   T   T
  0.4900497958562298  0.4037080615820798  0.4151644571778519   F   F   F
  0.4356099992392252  0.6738742928252206  0.4122055194632080   T   T   T
  0.4684507777182851  0.5372845505869744  0.6601717719036179   T   T   T
  0.5397532608265934  0.5319899791087650  0.3771480104995177   F   F   F
  0.6681234739651384  0.6006051202611029  0.4834514467432894   T   T   T
  0.6658122309911261  0.5195715867681966  0.5505649269565157   T   T   T
  0.3748643893846890  0.3347261084682588  0.3849138884280426   T   T   T
  0.6791259089260507  0.4366701462896790  0.4866393684596438   T   T   T
  0.5398054339071399  0.3186427242236599  0.3920731120318334   T   T   T
  0.3024419694515829  0.5031663609029952  0.4366142977572846   T   T   T
  0.3134264246296448  0.3958871238258710  0.4496632189498134   T   T   T
  0.5123202141268623  0.6255980475300822  0.6165814855664157   T   T   T
  0.4491028930205203  0.3747912132052837  0.5857362216904702   T   T   T
  0.3907577779303366  0.5808305719868556  0.6127711223521627   T   T   T
  0.4054063820434719  0.3057158914546184  0.5013204406673526   T   T   T
  0.4026940625071512  0.3716491031437514  0.2870547175431366   T   T   T
  0.3839097185183103  0.5334167945190311  0.2920146683513857   T   T   T
  0.6928142542690759  0.4605623641431799  0.3870894116941815   T   T   T
  0.3376460749948264  0.5722268546487375  0.5127635041006330   T   T   T
  0.5994704267891154  0.5720679626078947  0.3075831319414233   T   T   T
  0.6123971725244876  0.6149862082810373  0.5747201790819578   T   T   T
  0.4407997957852936  0.6144165980049368  0.3234772402139503   T   T   T
  0.5901602124304087  0.7480987534468279  0.4654780663969414   T   T   T
  0.5777879377625341  0.7093587406395706  0.3981959844387737   T   T   T
  0.5890741575602660  0.7464043702248884  0.4213955122154841   T   T   T
  0.5987964638166444  0.7778439809428435  0.4003318342310360   T   T   T
 
  0.00000000E+00  0.00000000E+00  0.00000000E+00
  0.00000000E+00  0.00000000E+00  0.00000000E+00
  0.00000000E+00  0.00000000E+00  0.00000000E+00
  0.00000000E+00  0.00000000E+00  0.00000000E+00
  0.00000000E+00  0.00000000E+00  0.00000000E+00
  0.00000000E+00  0.00000000E+00  0.00000000E+00
  0.00000000E+00  0.00000000E+00  0.00000000E+00
  0.00000000E+00  0.00000000E+00  0.00000000E+00
  0.00000000E+00  0.00000000E+00  0.00000000E+00
  0.00000000E+00  0.00000000E+00  0.00000000E+00
  0.00000000E+00  0.00000000E+00  0.00000000E+00
  0.00000000E+00  0.00000000E+00  0.00000000E+00
  0.00000000E+00  0.00000000E+00  0.00000000E+00
  0.00000000E+00  0.00000000E+00  0.00000000E+00
  0.00000000E+00  0.00000000E+00  0.00000000E+00
  0.00000000E+00  0.00000000E+00  0.00000000E+00
  0.00000000E+00  0.00000000E+00  0.00000000E+00
  0.00000000E+00  0.00000000E+00  0.00000000E+00
  0.00000000E+00  0.00000000E+00  0.00000000E+00
  0.00000000E+00  0.00000000E+00  0.00000000E+00
  0.00000000E+00  0.00000000E+00  0.00000000E+00
  0.00000000E+00  0.00000000E+00  0.00000000E+00
  0.00000000E+00  0.00000000E+00  0.00000000E+00
  0.00000000E+00  0.00000000E+00  0.00000000E+00
  0.00000000E+00  0.00000000E+00  0.00000000E+00
  0.00000000E+00  0.00000000E+00  0.00000000E+00
  0.00000000E+00  0.00000000E+00  0.00000000E+00
  0.00000000E+00  0.00000000E+00  0.00000000E+00
  0.00000000E+00  0.00000000E+00  0.00000000E+00
  0.00000000E+00  0.00000000E+00  0.00000000E+00
  0.00000000E+00  0.00000000E+00  0.00000000E+00
  0.00000000E+00  0.00000000E+00  0.00000000E+00
  0.00000000E+00  0.00000000E+00  0.00000000E+00
  0.00000000E+00  0.00000000E+00  0.00000000E+00
  0.00000000E+00  0.00000000E+00  0.00000000E+00
  0.00000000E+00  0.00000000E+00  0.00000000E+00
  0.00000000E+00  0.00000000E+00  0.00000000E+00
  0.00000000E+00  0.00000000E+00  0.00000000E+00
  0.00000000E+00  0.00000000E+00  0.00000000E+00
  0.00000000E+00  0.00000000E+00  0.00000000E+00
  0.00000000E+00  0.00000000E+00  0.00000000E+00
  0.00000000E+00  0.00000000E+00  0.00000000E+00
  0.00000000E+00  0.00000000E+00  0.00000000E+00
  0.00000000E+00  0.00000000E+00  0.00000000E+00
  0.00000000E+00  0.00000000E+00  0.00000000E+00
  0.00000000E+00  0.00000000E+00  0.00000000E+00
  0.00000000E+00  0.00000000E+00  0.00000000E+00
  0.00000000E+00  0.00000000E+00  0.00000000E+00
  0.00000000E+00  0.00000000E+00  0.00000000E+00
  0.00000000E+00  0.00000000E+00  0.00000000E+00
  0.00000000E+00  0.00000000E+00  0.00000000E+00
  0.00000000E+00  0.00000000E+00  0.00000000E+00
  0.00000000E+00  0.00000000E+00  0.00000000E+00
  0.00000000E+00  0.00000000E+00  0.00000000E+00
  0.00000000E+00  0.00000000E+00  0.00000000E+00
  0.00000000E+00  0.00000000E+00  0.00000000E+00
  0.00000000E+00  0.00000000E+00  0.00000000E+00
  0.00000000E+00  0.00000000E+00  0.00000000E+00
  0.00000000E+00  0.00000000E+00  0.00000000E+00
  0.00000000E+00  0.00000000E+00  0.00000000E+00
  0.00000000E+00  0.00000000E+00  0.00000000E+00
  0.00000000E+00  0.00000000E+00  0.00000000E+00
  0.00000000E+00  0.00000000E+00  0.00000000E+00
  0.00000000E+00  0.00000000E+00  0.00000000E+00
  0.00000000E+00  0.00000000E+00  0.00000000E+00
  0.00000000E+00  0.00000000E+00  0.00000000E+00
  0.00000000E+00  0.00000000E+00  0.00000000E+00
  0.00000000E+00  0.00000000E+00  0.00000000E+00
  0.00000000E+00  0.00000000E+00  0.00000000E+00
  0.00000000E+00  0.00000000E+00  0.00000000E+00
  0.00000000E+00  0.00000000E+00  0.00000000E+00
  0.00000000E+00  0.00000000E+00  0.00000000E+00
