La Co Ni Sn Bi O  C  H                  
   1.00000000000000     
    29.1044006348000011    0.0000000000000000    0.0000000000000000
     0.4451680315000000   28.3694074727000007    0.0000000000000000
     0.0682082826000000    0.3036559964000000   28.5240018092999996
   La   Co   Ni   Sn   Bi   O    C    H 
    14    13    13    14    14     2     1     1
Selective dynamics
Direct
  0.5923227759449213  0.4200920987131878  0.4075593417190114   T   T   T
  0.6852299239237425  0.5712302836886932  0.3807733851343093   T   T   T
  0.4954762749097740  0.5278446311544334  0.2824249041979834   T   T   T
  0.5624981077197472  0.5221090343201457  0.6020560623003721   T   T   T
  0.5079929552451429  0.3875864595907254  0.3050333454360029   T   T   T
  0.5748718924108843  0.6555567196080301  0.4835919177403079   T   T   T
  0.5124017795297320  0.3385587152065648  0.4990412138648406   T   T   T
  0.5353062751594377  0.6376103938459884  0.3752909832791664   T   T   T
  0.4360350528784896  0.6430852477931043  0.5361605577673335   T   T   T
  0.4373551010143757  0.5015757590148624  0.3842817269995109   F   F   F
  0.4437846394494898  0.4460183835780285  0.5005161578087822   F   F   F
  0.3887380747491879  0.4669426062469797  0.6104604893692995   T   T   T
  0.3442110928846149  0.4452675639021997  0.3464811579009452   T   T   T
  0.3622003207704509  0.5864261810182894  0.3936922397269476   T   T   T
  0.4217425606853311  0.4061295180575186  0.3699802678458894   F   F   F
  0.5011311695957161  0.4887203336762909  0.4395023580252015   F   F   F
  0.4044148221271726  0.6101724300038001  0.4624736492929173   F   F   F
  0.4722931245665194  0.5596737886932672  0.5729988711091565   F   F   F
  0.6552684236953183  0.5165424048424470  0.4543399438695133   F   F   F
  0.5967309916701211  0.5535378348504167  0.5056109707055541   F   F   F
  0.5314074673932367  0.5941153005651714  0.5336729985293047   F   F   F
  0.5796732686089143  0.4997731718447866  0.4507473928409595   F   F   F
  0.4588192317520199  0.3296165254764680  0.3457307323136912   T   T   T
  0.3905180950192175  0.5252419063175111  0.4552418453041511   F   F   F
  0.4536491271692422  0.3239420511191473  0.4244229690014890   T   T   T
  0.5074804872141527  0.4592780196109629  0.3501259710292359   F   F   F
  0.6012877811302459  0.4669891268301640  0.5212355700313438   F   F   F
  0.5384608035519776  0.4312182275275163  0.4821288228790692   F   F   F
  0.4713083414346286  0.4805797151798927  0.5807598339419258   F   F   F
  0.3771163837573610  0.4514853175274567  0.4282230665427278   F   F   F
  0.4059018739390154  0.3822235888080883  0.4561785915149272   F   F   F
  0.5357818896390683  0.5680835373033233  0.4543473312664048   F   F   F
  0.4924712632432886  0.6367287407321953  0.4646113344718685   F   F   F
  0.4677327221812249  0.5829886973614862  0.4038343643763724   F   F   F
  0.5280944416629296  0.5063826634733033  0.5194466411805863   F   F   F
  0.6212454441397384  0.5105019604624417  0.3755946010283822   F   F   F
  0.6054499763524817  0.5821019035045651  0.4188664505762958   F   F   F
  0.4050790883739026  0.5245211222763402  0.5434909784116542   F   F   F
  0.3495221367123365  0.4711931214171050  0.5088251554118222   T   T   T
  0.4335811007523962  0.4574039605549244  0.3020549015881557   T   T   T
  0.5388924969975466  0.4220275324833133  0.5691553936465956   T   T   T
  0.3585820789709003  0.3884375537771015  0.5384274413291261   T   T   T
  0.4625951421883201  0.5516617238622956  0.4875128022361963   F   F   F
  0.6087776778275272  0.3765072470921088  0.5113217024073472   T   T   T
  0.4932105251955113  0.4401870043711321  0.6585055750047457   T   T   T
  0.5872100423175353  0.4674527768885668  0.3064542103575182   T   T   T
  0.4900497958562298  0.4037080615820798  0.4151644571778519   F   F   F
  0.4356553054559902  0.6749535080208691  0.4130332786397127   T   T   T
  0.4682331859760803  0.5376493381759521  0.6602914572386289   T   T   T
  0.5397532608265934  0.5319899791087650  0.3771480104995177   F   F   F
  0.6684062101365041  0.6006058824300510  0.4833560236695691   T   T   T
  0.6655979230821434  0.5193615700564681  0.5506461198561613   T   T   T
  0.3733020881535173  0.3360810945209373  0.3854337904662545   T   T   T
  0.6798154485154155  0.4374362906340275  0.4866043314139181   T   T   T
  0.5389465469822924  0.3183475626949904  0.3907890413701271   T   T   T
  0.3028370856586501  0.5038662637786921  0.4359566622983017   T   T   T
  0.3118854350829471  0.3972830466865214  0.4490772662106944   T   T   T
  0.5126491299997629  0.6252903450433533  0.6170123022081890   T   T   T
  0.4512374757294292  0.3746372646665502  0.5859985744507827   T   T   T
  0.3901011948131218  0.5802987511985838  0.6131431344615247   T   T   T
  0.4099944315650261  0.3077064777366981  0.5054396676079670   T   T   T
  0.4016955469095884  0.3721320445149780  0.2869520163309534   T   T   T
  0.3839683619998511  0.5341461114565906  0.2924122239435892   T   T   T
  0.6926484280154716  0.4604261767350927  0.3870321850449850   T   T   T
  0.3378719660360950  0.5726520261490141  0.5128646195105671   T   T   T
  0.5993160158970753  0.5723390035892009  0.3076796923760174   T   T   T
  0.6128634593034629  0.6145700459151372  0.5753743397750910   T   T   T
  0.4402960739217106  0.6156999158962668  0.3236992184433343   T   T   T
  0.3010796826333876  0.3506448366867438  0.5714937709813972   T   T   T
  0.2950587567271551  0.3074575335139799  0.5048095147740232   T   T   T
  0.2850046419035466  0.3164194060632434  0.5461740328070951   T   T   T
  0.2600664608721173  0.2942008363389363  0.5656949857550420   T   T   T
 
  0.00000000E+00  0.00000000E+00  0.00000000E+00
  0.00000000E+00  0.00000000E+00  0.00000000E+00
  0.00000000E+00  0.00000000E+00  0.00000000E+00
  0.00000000E+00  0.00000000E+00  0.00000000E+00
  0.00000000E+00  0.00000000E+00  0.00000000E+00
  0.00000000E+00  0.00000000E+00  0.00000000E+00
  0.00000000E+00  0.00000000E+00  0.00000000E+00
  0.00000000E+00  0.00000000E+00  0.00000000E+00
  0.00000000E+00  0.00000000E+00  0.00000000E+00
  0.00000000E+00  0.00000000E+00  0.00000000E+00
  0.00000000E+00  0.00000000E+00  0.00000000E+00
  0.00000000E+00  0.00000000E+00  0.00000000E+00
  0.00000000E+00  0.00000000E+00  0.00000000E+00
  0.00000000E+00  0.00000000E+00  0.00000000E+00
  0.00000000E+00  0.00000000E+00  0.00000000E+00
  0.00000000E+00  0.00000000E+00  0.00000000E+00
  0.00000000E+00  0.00000000E+00  0.00000000E+00
  0.00000000E+00  0.00000000E+00  0.00000000E+00
  0.00000000E+00  0.00000000E+00  0.00000000E+00
  0.00000000E+00  0.00000000E+00  0.00000000E+00
  0.00000000E+00  0.00000000E+00  0.00000000E+00
  0.00000000E+00  0.00000000E+00  0.00000000E+00
  0.00000000E+00  0.00000000E+00  0.00000000E+00
  0.00000000E+00  0.00000000E+00  0.00000000E+00
  0.00000000E+00  0.00000000E+00  0.00000000E+00
  0.00000000E+00  0.00000000E+00  0.00000000E+00
  0.00000000E+00  0.00000000E+00  0.00000000E+00
  0.00000000E+00  0.00000000E+00  0.00000000E+00
  0.00000000E+00  0.00000000E+00  0.00000000E+00
  0.00000000E+00  0.00000000E+00  0.00000000E+00
  0.00000000E+00  0.00000000E+00  0.00000000E+00
  0.00000000E+00  0.00000000E+00  0.00000000E+00
  0.00000000E+00  0.00000000E+00  0.00000000E+00
  0.00000000E+00  0.00000000E+00  0.00000000E+00
  0.00000000E+00  0.00000000E+00  0.00000000E+00
  0.00000000E+00  0.00000000E+00  0.00000000E+00
  0.00000000E+00  0.00000000E+00  0.00000000E+00
  0.00000000E+00  0.00000000E+00  0.00000000E+00
  0.00000000E+00  0.00000000E+00  0.00000000E+00
  0.00000000E+00  0.00000000E+00  0.00000000E+00
  0.00000000E+00  0.00000000E+00  0.00000000E+00
  0.00000000E+00  0.00000000E+00  0.00000000E+00
  0.00000000E+00  0.00000000E+00  0.00000000E+00
  0.00000000E+00  0.00000000E+00  0.00000000E+00
  0.00000000E+00  0.00000000E+00  0.00000000E+00
  0.00000000E+00  0.00000000E+00  0.00000000E+00
  0.00000000E+00  0.00000000E+00  0.00000000E+00
  0.00000000E+00  0.00000000E+00  0.00000000E+00
  0.00000000E+00  0.00000000E+00  0.00000000E+00
  0.00000000E+00  0.00000000E+00  0.00000000E+00
  0.00000000E+00  0.00000000E+00  0.00000000E+00
  0.00000000E+00  0.00000000E+00  0.00000000E+00
  0.00000000E+00  0.00000000E+00  0.00000000E+00
  0.00000000E+00  0.00000000E+00  0.00000000E+00
  0.00000000E+00  0.00000000E+00  0.00000000E+00
  0.00000000E+00  0.00000000E+00  0.00000000E+00
  0.00000000E+00  0.00000000E+00  0.00000000E+00
  0.00000000E+00  0.00000000E+00  0.00000000E+00
  0.00000000E+00  0.00000000E+00  0.00000000E+00
  0.00000000E+00  0.00000000E+00  0.00000000E+00
  0.00000000E+00  0.00000000E+00  0.00000000E+00
  0.00000000E+00  0.00000000E+00  0.00000000E+00
  0.00000000E+00  0.00000000E+00  0.00000000E+00
  0.00000000E+00  0.00000000E+00  0.00000000E+00
  0.00000000E+00  0.00000000E+00  0.00000000E+00
  0.00000000E+00  0.00000000E+00  0.00000000E+00
  0.00000000E+00  0.00000000E+00  0.00000000E+00
  0.00000000E+00  0.00000000E+00  0.00000000E+00
  0.00000000E+00  0.00000000E+00  0.00000000E+00
  0.00000000E+00  0.00000000E+00  0.00000000E+00
  0.00000000E+00  0.00000000E+00  0.00000000E+00
  0.00000000E+00  0.00000000E+00  0.00000000E+00
