La Co Ni Sn Bi O  C  H                  
   1.00000000000000     
    29.1044006348000011    0.0000000000000000    0.0000000000000000
     0.4451680315000000   28.3694074727000007    0.0000000000000000
     0.0682082826000000    0.3036559964000000   28.5240018092999996
   La   Co   Ni   Sn   Bi   O    C    H 
    14    13    13    14    14     2     1     1
Selective dynamics
Direct
  0.5920837007383332  0.4203860483517505  0.4078315826154432   T   T   T
  0.6855046051184406  0.5708089731028199  0.3809557963829938   T   T   T
  0.4964722352312984  0.5248383284242492  0.2783527117657490   T   T   T
  0.5623199576308537  0.5213467538752532  0.6020917379223011   T   T   T
  0.5079845468400134  0.3915895339930682  0.3017171927414901   T   T   T
  0.5752026814390896  0.6554733457745965  0.4836881053213609   T   T   T
  0.5103640439187167  0.3375208314338999  0.4979318090668712   T   T   T
  0.5353702404124056  0.6376469386557565  0.3752288673353463   T   T   T
  0.4356301994861363  0.6429307027795770  0.5359908945724735   T   T   T
  0.4373551010143757  0.5015757590148624  0.3842817269995109   F   F   F
  0.4437846394494898  0.4460183835780285  0.5005161578087822   F   F   F
  0.3876944489274365  0.4660202392917412  0.6091831674468049   T   T   T
  0.3437914358558400  0.4444385733949577  0.3470317324366947   T   T   T
  0.3622578644349846  0.5860103834144965  0.3936129156831751   T   T   T
  0.4217425606853311  0.4061295180575186  0.3699802678458894   F   F   F
  0.5011311695957161  0.4887203336762909  0.4395023580252015   F   F   F
  0.4044148221271726  0.6101724300038001  0.4624736492929173   F   F   F
  0.4722931245665194  0.5596737886932672  0.5729988711091565   F   F   F
  0.6552684236953183  0.5165424048424470  0.4543399438695133   F   F   F
  0.5967309916701211  0.5535378348504167  0.5056109707055541   F   F   F
  0.5314074673932367  0.5941153005651714  0.5336729985293047   F   F   F
  0.5796732686089143  0.4997731718447866  0.4507473928409595   F   F   F
  0.4587949043770798  0.3294947147258174  0.3446587702661526   T   T   T
  0.3905180950192175  0.5252419063175111  0.4552418453041511   F   F   F
  0.4543540922254656  0.3246268649161637  0.4236954697065543   T   T   T
  0.5074804872141527  0.4592780196109629  0.3501259710292359   F   F   F
  0.6012877811302459  0.4669891268301640  0.5212355700313438   F   F   F
  0.5384608035519776  0.4312182275275163  0.4821288228790692   F   F   F
  0.4713083414346286  0.4805797151798927  0.5807598339419258   F   F   F
  0.3771163837573610  0.4514853175274567  0.4282230665427278   F   F   F
  0.4059018739390154  0.3822235888080883  0.4561785915149272   F   F   F
  0.5357818896390683  0.5680835373033233  0.4543473312664048   F   F   F
  0.4924712632432886  0.6367287407321953  0.4646113344718685   F   F   F
  0.4677327221812249  0.5829886973614862  0.4038343643763724   F   F   F
  0.5280944416629296  0.5063826634733033  0.5194466411805863   F   F   F
  0.6212454441397384  0.5105019604624417  0.3755946010283822   F   F   F
  0.6054499763524817  0.5821019035045651  0.4188664505762958   F   F   F
  0.4050790883739026  0.5245211222763402  0.5434909784116542   F   F   F
  0.3509129100089035  0.4700252330323819  0.5087991777520858   T   T   T
  0.4314563355720955  0.4576352025626932  0.3034277399282390   T   T   T
  0.5380158316445161  0.4214494461163960  0.5686876149057836   T   T   T
  0.3575281818160039  0.3865365521288099  0.5391285642298534   T   T   T
  0.4625951421883201  0.5516617238622956  0.4875128022361963   F   F   F
  0.6074170790472916  0.3758517009651303  0.5104066458660229   T   T   T
  0.4918099644404046  0.4378927211634588  0.6574282225922247   T   T   T
  0.5894142799309717  0.4678566247030567  0.3072811847185574   T   T   T
  0.4900497958562298  0.4037080615820798  0.4151644571778519   F   F   F
  0.4355957893869887  0.6744194091911635  0.4123088579001047   T   T   T
  0.4685175480936716  0.5363029149191608  0.6601672741036824   T   T   T
  0.5397532608265934  0.5319899791087650  0.3771480104995177   F   F   F
  0.6683865621964378  0.6002751587158911  0.4837013203925177   T   T   T
  0.6656167567489858  0.5190402166872766  0.5509700320792882   T   T   T
  0.3740895061685775  0.3348828828990190  0.3851611726809308   T   T   T
  0.6793571511743305  0.4369070149340216  0.4864768112911399   T   T   T
  0.5389750765876020  0.3197258596386863  0.3885448592009494   T   T   T
  0.3026142950882586  0.5035353558308603  0.4368237960570438   T   T   T
  0.3133000197406363  0.3956235051595657  0.4489096688636229   T   T   T
  0.5124829185127995  0.6249297902456755  0.6170152426229034   T   T   T
  0.4495091358899505  0.3734171455389334  0.5842424029118173   T   T   T
  0.3903915991164214  0.5796222694345604  0.6135805511409527   T   T   T
  0.4066539739088898  0.3053463798757162  0.5010017670129114   T   T   T
  0.4012036917107799  0.3711577820901216  0.2876337793202233   T   T   T
  0.3834730393447894  0.5341562197512995  0.2922247392518132   T   T   T
  0.6921354046583345  0.4598985243625922  0.3866075694340492   T   T   T
  0.3376992911889121  0.5723874069014587  0.5127288374255801   T   T   T
  0.5995907248727708  0.5722818665618546  0.3078253489949341   T   T   T
  0.6126495495741217  0.6139627586677390  0.5757767353256545   T   T   T
  0.4414902607277615  0.6135594649076325  0.3230458007196408   T   T   T
  0.5042870152889033  0.4437892167291981  0.2292172484742542   T   T   T
  0.5218879483268895  0.5128188762653110  0.1948609083391132   T   T   T
  0.5190998133797141  0.4683313826372209  0.1942955350627330   T   T   T
  0.5299449039431771  0.4491626970173005  0.1623021795502989   T   T   T
 
  0.00000000E+00  0.00000000E+00  0.00000000E+00
  0.00000000E+00  0.00000000E+00  0.00000000E+00
  0.00000000E+00  0.00000000E+00  0.00000000E+00
  0.00000000E+00  0.00000000E+00  0.00000000E+00
  0.00000000E+00  0.00000000E+00  0.00000000E+00
  0.00000000E+00  0.00000000E+00  0.00000000E+00
  0.00000000E+00  0.00000000E+00  0.00000000E+00
  0.00000000E+00  0.00000000E+00  0.00000000E+00
  0.00000000E+00  0.00000000E+00  0.00000000E+00
  0.00000000E+00  0.00000000E+00  0.00000000E+00
  0.00000000E+00  0.00000000E+00  0.00000000E+00
  0.00000000E+00  0.00000000E+00  0.00000000E+00
  0.00000000E+00  0.00000000E+00  0.00000000E+00
  0.00000000E+00  0.00000000E+00  0.00000000E+00
  0.00000000E+00  0.00000000E+00  0.00000000E+00
  0.00000000E+00  0.00000000E+00  0.00000000E+00
  0.00000000E+00  0.00000000E+00  0.00000000E+00
  0.00000000E+00  0.00000000E+00  0.00000000E+00
  0.00000000E+00  0.00000000E+00  0.00000000E+00
  0.00000000E+00  0.00000000E+00  0.00000000E+00
  0.00000000E+00  0.00000000E+00  0.00000000E+00
  0.00000000E+00  0.00000000E+00  0.00000000E+00
  0.00000000E+00  0.00000000E+00  0.00000000E+00
  0.00000000E+00  0.00000000E+00  0.00000000E+00
  0.00000000E+00  0.00000000E+00  0.00000000E+00
  0.00000000E+00  0.00000000E+00  0.00000000E+00
  0.00000000E+00  0.00000000E+00  0.00000000E+00
  0.00000000E+00  0.00000000E+00  0.00000000E+00
  0.00000000E+00  0.00000000E+00  0.00000000E+00
  0.00000000E+00  0.00000000E+00  0.00000000E+00
  0.00000000E+00  0.00000000E+00  0.00000000E+00
  0.00000000E+00  0.00000000E+00  0.00000000E+00
  0.00000000E+00  0.00000000E+00  0.00000000E+00
  0.00000000E+00  0.00000000E+00  0.00000000E+00
  0.00000000E+00  0.00000000E+00  0.00000000E+00
  0.00000000E+00  0.00000000E+00  0.00000000E+00
  0.00000000E+00  0.00000000E+00  0.00000000E+00
  0.00000000E+00  0.00000000E+00  0.00000000E+00
  0.00000000E+00  0.00000000E+00  0.00000000E+00
  0.00000000E+00  0.00000000E+00  0.00000000E+00
  0.00000000E+00  0.00000000E+00  0.00000000E+00
  0.00000000E+00  0.00000000E+00  0.00000000E+00
  0.00000000E+00  0.00000000E+00  0.00000000E+00
  0.00000000E+00  0.00000000E+00  0.00000000E+00
  0.00000000E+00  0.00000000E+00  0.00000000E+00
  0.00000000E+00  0.00000000E+00  0.00000000E+00
  0.00000000E+00  0.00000000E+00  0.00000000E+00
  0.00000000E+00  0.00000000E+00  0.00000000E+00
  0.00000000E+00  0.00000000E+00  0.00000000E+00
  0.00000000E+00  0.00000000E+00  0.00000000E+00
  0.00000000E+00  0.00000000E+00  0.00000000E+00
  0.00000000E+00  0.00000000E+00  0.00000000E+00
  0.00000000E+00  0.00000000E+00  0.00000000E+00
  0.00000000E+00  0.00000000E+00  0.00000000E+00
  0.00000000E+00  0.00000000E+00  0.00000000E+00
  0.00000000E+00  0.00000000E+00  0.00000000E+00
  0.00000000E+00  0.00000000E+00  0.00000000E+00
  0.00000000E+00  0.00000000E+00  0.00000000E+00
  0.00000000E+00  0.00000000E+00  0.00000000E+00
  0.00000000E+00  0.00000000E+00  0.00000000E+00
  0.00000000E+00  0.00000000E+00  0.00000000E+00
  0.00000000E+00  0.00000000E+00  0.00000000E+00
  0.00000000E+00  0.00000000E+00  0.00000000E+00
  0.00000000E+00  0.00000000E+00  0.00000000E+00
  0.00000000E+00  0.00000000E+00  0.00000000E+00
  0.00000000E+00  0.00000000E+00  0.00000000E+00
  0.00000000E+00  0.00000000E+00  0.00000000E+00
  0.00000000E+00  0.00000000E+00  0.00000000E+00
  0.00000000E+00  0.00000000E+00  0.00000000E+00
  0.00000000E+00  0.00000000E+00  0.00000000E+00
  0.00000000E+00  0.00000000E+00  0.00000000E+00
  0.00000000E+00  0.00000000E+00  0.00000000E+00
