La Co Ni Sn Bi O  C  H                  
   1.00000000000000     
    29.1044006348000011    0.0000000000000000    0.0000000000000000
     0.4451680315000000   28.3694074727000007    0.0000000000000000
     0.0682082826000000    0.3036559964000000   28.5240018092999996
   La   Co   Ni   Sn   Bi   O    C    H 
    14    13    13    14    14     2     1     1
Selective dynamics
Direct
  0.5924082513709593  0.4205587094820214  0.4072068451694283   T   T   T
  0.6853052418803793  0.5712287541242013  0.3808825979431048   T   T   T
  0.4954410516790607  0.5274908379766114  0.2823385318465832   T   T   T
  0.5624683339956131  0.5214921504433395  0.6022164243377771   T   T   T
  0.5083375488727672  0.3872768579941269  0.3049244778470147   T   T   T
  0.5751742592299465  0.6555419502201990  0.4835564751266959   T   T   T
  0.5110904481932377  0.3360213429678590  0.5006795684431908   T   T   T
  0.5351859307580060  0.6376674366687217  0.3751321198495351   T   T   T
  0.4361789716250331  0.6433981804722076  0.5357637339274471   T   T   T
  0.4373551010143757  0.5015757590148624  0.3842817269995109   F   F   F
  0.4437846394494898  0.4460183835780285  0.5005161578087822   F   F   F
  0.3870191883752611  0.4675595242403891  0.6096647838828925   T   T   T
  0.3443634164632805  0.4444559740680935  0.3469276853416205   T   T   T
  0.3620655089236310  0.5857162373771082  0.3938221276525708   T   T   T
  0.4217425606853311  0.4061295180575186  0.3699802678458894   F   F   F
  0.5011311695957161  0.4887203336762909  0.4395023580252015   F   F   F
  0.4044148221271726  0.6101724300038001  0.4624736492929173   F   F   F
  0.4722931245665194  0.5596737886932672  0.5729988711091565   F   F   F
  0.6552684236953183  0.5165424048424470  0.4543399438695133   F   F   F
  0.5967309916701211  0.5535378348504167  0.5056109707055541   F   F   F
  0.5314074673932367  0.5941153005651714  0.5336729985293047   F   F   F
  0.5796732686089143  0.4997731718447866  0.4507473928409595   F   F   F
  0.4597997690333108  0.3302752859495406  0.3444903883097823   T   T   T
  0.3905180950192175  0.5252419063175111  0.4552418453041511   F   F   F
  0.4534674068153793  0.3242317063740072  0.4237618492769278   T   T   T
  0.5074804872141527  0.4592780196109629  0.3501259710292359   F   F   F
  0.6012877811302459  0.4669891268301640  0.5212355700313438   F   F   F
  0.5384608035519776  0.4312182275275163  0.4821288228790692   F   F   F
  0.4713083414346286  0.4805797151798927  0.5807598339419258   F   F   F
  0.3771163837573610  0.4514853175274567  0.4282230665427278   F   F   F
  0.4059018739390154  0.3822235888080883  0.4561785915149272   F   F   F
  0.5357818896390683  0.5680835373033233  0.4543473312664048   F   F   F
  0.4924712632432886  0.6367287407321953  0.4646113344718685   F   F   F
  0.4677327221812249  0.5829886973614862  0.4038343643763724   F   F   F
  0.5280944416629296  0.5063826634733033  0.5194466411805863   F   F   F
  0.6212454441397384  0.5105019604624417  0.3755946010283822   F   F   F
  0.6054499763524817  0.5821019035045651  0.4188664505762958   F   F   F
  0.4050790883739026  0.5245211222763402  0.5434909784116542   F   F   F
  0.3506202096678644  0.4703463023833321  0.5086348146815777   T   T   T
  0.4338096677160804  0.4572667765627338  0.3021658956776259   T   T   T
  0.5386200606549119  0.4216257122286130  0.5690101978085746   T   T   T
  0.3576464828705078  0.3875220198781805  0.5403681522397272   T   T   T
  0.4625951421883201  0.5516617238622956  0.4875128022361963   F   F   F
  0.6083036168891128  0.3765090268234455  0.5094796336868258   T   T   T
  0.4924884977110563  0.4392825653179771  0.6578587234593166   T   T   T
  0.5872788638142636  0.4676036491404821  0.3061404491024515   T   T   T
  0.4900497958562298  0.4037080615820798  0.4151644571778519   F   F   F
  0.4355417693264310  0.6746963478935075  0.4128113672400042   T   T   T
  0.4681183023266429  0.5370065845785722  0.6600733156139257   T   T   T
  0.5397532608265934  0.5319899791087650  0.3771480104995177   F   F   F
  0.6684490804787900  0.6003632230380712  0.4836392837463464   T   T   T
  0.6657621143977123  0.5191032602613699  0.5506755734087007   T   T   T
  0.3739659109878853  0.3353114744213244  0.3847075107872514   T   T   T
  0.6798138596672154  0.4372303297935629  0.4862104654100762   T   T   T
  0.5389073394204631  0.3185694771808936  0.3910150663522624   T   T   T
  0.3024794587786785  0.5033540152347036  0.4366063263431551   T   T   T
  0.3132739109781401  0.3963173045801312  0.4498732066218834   T   T   T
  0.5123630047395856  0.6250337387828858  0.6170678123501012   T   T   T
  0.4491868478878561  0.3756711454248159  0.5858134271514928   T   T   T
  0.3902943411611108  0.5806431930033495  0.6128813181361641   T   T   T
  0.4068234507686060  0.3067152906184754  0.5028703144183903   T   T   T
  0.4020273834249698  0.3718971203744252  0.2868003053626869   T   T   T
  0.3837668959825579  0.5337360725917636  0.2923884077738435   T   T   T
  0.6928840081512162  0.4606375519954266  0.3868171744515895   T   T   T
  0.3376942787555346  0.5723821080407147  0.5128884632165036   T   T   T
  0.5994155401268251  0.5724970194963629  0.3078114566543769   T   T   T
  0.6125669774818473  0.6140958121371758  0.5756332168734976   T   T   T
  0.4402663459713462  0.6151263319545851  0.3236580246589684   T   T   T
  0.5340108087929942  0.2908456303120561  0.5675761536514854   T   T   T
  0.5629859713907244  0.3440608204140085  0.6185845451205348   T   T   T
  0.5525834845020537  0.3030839882726470  0.6065589437255582   T   T   T
  0.5596851581498569  0.2736112649385960  0.6318450933164779   T   T   T
 
  0.00000000E+00  0.00000000E+00  0.00000000E+00
  0.00000000E+00  0.00000000E+00  0.00000000E+00
  0.00000000E+00  0.00000000E+00  0.00000000E+00
  0.00000000E+00  0.00000000E+00  0.00000000E+00
  0.00000000E+00  0.00000000E+00  0.00000000E+00
  0.00000000E+00  0.00000000E+00  0.00000000E+00
  0.00000000E+00  0.00000000E+00  0.00000000E+00
  0.00000000E+00  0.00000000E+00  0.00000000E+00
  0.00000000E+00  0.00000000E+00  0.00000000E+00
  0.00000000E+00  0.00000000E+00  0.00000000E+00
  0.00000000E+00  0.00000000E+00  0.00000000E+00
  0.00000000E+00  0.00000000E+00  0.00000000E+00
  0.00000000E+00  0.00000000E+00  0.00000000E+00
  0.00000000E+00  0.00000000E+00  0.00000000E+00
  0.00000000E+00  0.00000000E+00  0.00000000E+00
  0.00000000E+00  0.00000000E+00  0.00000000E+00
  0.00000000E+00  0.00000000E+00  0.00000000E+00
  0.00000000E+00  0.00000000E+00  0.00000000E+00
  0.00000000E+00  0.00000000E+00  0.00000000E+00
  0.00000000E+00  0.00000000E+00  0.00000000E+00
  0.00000000E+00  0.00000000E+00  0.00000000E+00
  0.00000000E+00  0.00000000E+00  0.00000000E+00
  0.00000000E+00  0.00000000E+00  0.00000000E+00
  0.00000000E+00  0.00000000E+00  0.00000000E+00
  0.00000000E+00  0.00000000E+00  0.00000000E+00
  0.00000000E+00  0.00000000E+00  0.00000000E+00
  0.00000000E+00  0.00000000E+00  0.00000000E+00
  0.00000000E+00  0.00000000E+00  0.00000000E+00
  0.00000000E+00  0.00000000E+00  0.00000000E+00
  0.00000000E+00  0.00000000E+00  0.00000000E+00
  0.00000000E+00  0.00000000E+00  0.00000000E+00
  0.00000000E+00  0.00000000E+00  0.00000000E+00
  0.00000000E+00  0.00000000E+00  0.00000000E+00
  0.00000000E+00  0.00000000E+00  0.00000000E+00
  0.00000000E+00  0.00000000E+00  0.00000000E+00
  0.00000000E+00  0.00000000E+00  0.00000000E+00
  0.00000000E+00  0.00000000E+00  0.00000000E+00
  0.00000000E+00  0.00000000E+00  0.00000000E+00
  0.00000000E+00  0.00000000E+00  0.00000000E+00
  0.00000000E+00  0.00000000E+00  0.00000000E+00
  0.00000000E+00  0.00000000E+00  0.00000000E+00
  0.00000000E+00  0.00000000E+00  0.00000000E+00
  0.00000000E+00  0.00000000E+00  0.00000000E+00
  0.00000000E+00  0.00000000E+00  0.00000000E+00
  0.00000000E+00  0.00000000E+00  0.00000000E+00
  0.00000000E+00  0.00000000E+00  0.00000000E+00
  0.00000000E+00  0.00000000E+00  0.00000000E+00
  0.00000000E+00  0.00000000E+00  0.00000000E+00
  0.00000000E+00  0.00000000E+00  0.00000000E+00
  0.00000000E+00  0.00000000E+00  0.00000000E+00
  0.00000000E+00  0.00000000E+00  0.00000000E+00
  0.00000000E+00  0.00000000E+00  0.00000000E+00
  0.00000000E+00  0.00000000E+00  0.00000000E+00
  0.00000000E+00  0.00000000E+00  0.00000000E+00
  0.00000000E+00  0.00000000E+00  0.00000000E+00
  0.00000000E+00  0.00000000E+00  0.00000000E+00
  0.00000000E+00  0.00000000E+00  0.00000000E+00
  0.00000000E+00  0.00000000E+00  0.00000000E+00
  0.00000000E+00  0.00000000E+00  0.00000000E+00
  0.00000000E+00  0.00000000E+00  0.00000000E+00
  0.00000000E+00  0.00000000E+00  0.00000000E+00
  0.00000000E+00  0.00000000E+00  0.00000000E+00
  0.00000000E+00  0.00000000E+00  0.00000000E+00
  0.00000000E+00  0.00000000E+00  0.00000000E+00
  0.00000000E+00  0.00000000E+00  0.00000000E+00
  0.00000000E+00  0.00000000E+00  0.00000000E+00
  0.00000000E+00  0.00000000E+00  0.00000000E+00
  0.00000000E+00  0.00000000E+00  0.00000000E+00
  0.00000000E+00  0.00000000E+00  0.00000000E+00
  0.00000000E+00  0.00000000E+00  0.00000000E+00
  0.00000000E+00  0.00000000E+00  0.00000000E+00
  0.00000000E+00  0.00000000E+00  0.00000000E+00
