La Co Ni Sn Bi O  C  H                  
   1.00000000000000     
    29.1044006348000011    0.0000000000000000    0.0000000000000000
     0.4451680315000000   28.3694074727000007    0.0000000000000000
     0.0682082826000000    0.3036559964000000   28.5240018092999996
   La   Co   Ni   Sn   Bi   O    C    H 
    14    13    13    14    14     2     1     1
Selective dynamics
Direct
  0.5922502445440908  0.4206035304226262  0.4073810363351482   T   T   T
  0.6856339025804064  0.5712061472115795  0.3815387130853943   T   T   T
  0.4964033027742016  0.5292403387720281  0.2820926060428238   T   T   T
  0.5624477489948309  0.5216669855649791  0.6022755629746549   T   T   T
  0.5123414564550778  0.3872765177264492  0.3064074911595022   T   T   T
  0.5752184740908609  0.6554503453942322  0.4836309188218513   T   T   T
  0.5090456243421323  0.3377483576606397  0.4995382461354798   T   T   T
  0.5350400458279955  0.6378818054875718  0.3754976730952725   T   T   T
  0.4360546003272250  0.6433444797291085  0.5358187629834475   T   T   T
  0.4373551010143757  0.5015757590148624  0.3842817269995109   F   F   F
  0.4437846394494898  0.4460183835780285  0.5005161578087822   F   F   F
  0.3874861239452754  0.4666734456917397  0.6094715967795702   T   T   T
  0.3429611934475161  0.4455839593616143  0.3449429704258394   T   T   T
  0.3622297506854187  0.5856010095822929  0.3937017503381751   T   T   T
  0.4217425606853311  0.4061295180575186  0.3699802678458894   F   F   F
  0.5011311695957161  0.4887203336762909  0.4395023580252015   F   F   F
  0.4044148221271726  0.6101724300038001  0.4624736492929173   F   F   F
  0.4722931245665194  0.5596737886932672  0.5729988711091565   F   F   F
  0.6552684236953183  0.5165424048424470  0.4543399438695133   F   F   F
  0.5967309916701211  0.5535378348504167  0.5056109707055541   F   F   F
  0.5314074673932367  0.5941153005651714  0.5336729985293047   F   F   F
  0.5796732686089143  0.4997731718447866  0.4507473928409595   F   F   F
  0.4613843730424237  0.3321169266796263  0.3461456135208342   T   T   T
  0.3905180950192175  0.5252419063175111  0.4552418453041511   F   F   F
  0.4567378810384982  0.3244083896763356  0.4265356250267420   T   T   T
  0.5074804872141527  0.4592780196109629  0.3501259710292359   F   F   F
  0.6012877811302459  0.4669891268301640  0.5212355700313438   F   F   F
  0.5384608035519776  0.4312182275275163  0.4821288228790692   F   F   F
  0.4713083414346286  0.4805797151798927  0.5807598339419258   F   F   F
  0.3771163837573610  0.4514853175274567  0.4282230665427278   F   F   F
  0.4059018739390154  0.3822235888080883  0.4561785915149272   F   F   F
  0.5357818896390683  0.5680835373033233  0.4543473312664048   F   F   F
  0.4924712632432886  0.6367287407321953  0.4646113344718685   F   F   F
  0.4677327221812249  0.5829886973614862  0.4038343643763724   F   F   F
  0.5280944416629296  0.5063826634733033  0.5194466411805863   F   F   F
  0.6212454441397384  0.5105019604624417  0.3755946010283822   F   F   F
  0.6054499763524817  0.5821019035045651  0.4188664505762958   F   F   F
  0.4050790883739026  0.5245211222763402  0.5434909784116542   F   F   F
  0.3506189224313868  0.4701285361651352  0.5088873861739516   T   T   T
  0.4357290571069979  0.4589577993809449  0.3016039312579198   T   T   T
  0.5379391586352779  0.4216879725514046  0.5688856240276383   T   T   T
  0.3575233764423096  0.3868708146007291  0.5392987587325597   T   T   T
  0.4625951421883201  0.5516617238622956  0.4875128022361963   F   F   F
  0.6065791550161788  0.3752489920004509  0.5100010632346917   T   T   T
  0.4920332360818018  0.4390054101079442  0.6578763079144613   T   T   T
  0.5880517009330468  0.4686484696574319  0.3058991165625946   T   T   T
  0.4900497958562298  0.4037080615820798  0.4151644571778519   F   F   F
  0.4352395292160684  0.6750220586199881  0.4133320605093881   T   T   T
  0.4683234049818344  0.5370455882385482  0.6602445162322648   T   T   T
  0.5397532608265934  0.5319899791087650  0.3771480104995177   F   F   F
  0.6685165847938440  0.6004400976872057  0.4840461221061854   T   T   T
  0.6657424251347602  0.5190333538678678  0.5507939102569229   T   T   T
  0.3769874763990558  0.3337833276918212  0.3867498537616630   T   T   T
  0.6788824025742156  0.4366240187642684  0.4867744351933623   T   T   T
  0.5404717870005937  0.3182187507021729  0.3922237246063620   T   T   T
  0.3025866256379157  0.5030378084365591  0.4367966850385421   T   T   T
  0.3138072905252975  0.3956188482164491  0.4486821810700026   T   T   T
  0.5123180223088012  0.6252777715144811  0.6168844832821997   T   T   T
  0.4487376794184111  0.3741508353226473  0.5852288283148370   T   T   T
  0.3904117523341037  0.5802224255325924  0.6130549755049225   T   T   T
  0.4051585016832427  0.3052703315417757  0.5012795457829955   T   T   T
  0.4064491891547581  0.3739376893944892  0.2870518780830250   T   T   T
  0.3853289686585152  0.5349071140483622  0.2911814384795837   T   T   T
  0.6928119507726623  0.4602999052556507  0.3874808360893533   T   T   T
  0.3377061376566511  0.5722636235631277  0.5128383100544031   T   T   T
  0.6001304366436399  0.5734654769777078  0.3086126800485084   T   T   T
  0.6125798547823909  0.6142049360284466  0.5756669988163410   T   T   T
  0.4403242514057344  0.6162869322459400  0.3239049534138461   T   T   T
  0.3234144291636498  0.3176505622558382  0.3056478030924674   T   T   T
  0.2898635218606694  0.3890166533116239  0.3198342089588720   T   T   T
  0.2901559789692156  0.3461854177514558  0.3046084631990914   T   T   T
  0.2571792678651174  0.3345979503360150  0.2891625222523609   T   T   T
 
  0.00000000E+00  0.00000000E+00  0.00000000E+00
  0.00000000E+00  0.00000000E+00  0.00000000E+00
  0.00000000E+00  0.00000000E+00  0.00000000E+00
  0.00000000E+00  0.00000000E+00  0.00000000E+00
  0.00000000E+00  0.00000000E+00  0.00000000E+00
  0.00000000E+00  0.00000000E+00  0.00000000E+00
  0.00000000E+00  0.00000000E+00  0.00000000E+00
  0.00000000E+00  0.00000000E+00  0.00000000E+00
  0.00000000E+00  0.00000000E+00  0.00000000E+00
  0.00000000E+00  0.00000000E+00  0.00000000E+00
  0.00000000E+00  0.00000000E+00  0.00000000E+00
  0.00000000E+00  0.00000000E+00  0.00000000E+00
  0.00000000E+00  0.00000000E+00  0.00000000E+00
  0.00000000E+00  0.00000000E+00  0.00000000E+00
  0.00000000E+00  0.00000000E+00  0.00000000E+00
  0.00000000E+00  0.00000000E+00  0.00000000E+00
  0.00000000E+00  0.00000000E+00  0.00000000E+00
  0.00000000E+00  0.00000000E+00  0.00000000E+00
  0.00000000E+00  0.00000000E+00  0.00000000E+00
  0.00000000E+00  0.00000000E+00  0.00000000E+00
  0.00000000E+00  0.00000000E+00  0.00000000E+00
  0.00000000E+00  0.00000000E+00  0.00000000E+00
  0.00000000E+00  0.00000000E+00  0.00000000E+00
  0.00000000E+00  0.00000000E+00  0.00000000E+00
  0.00000000E+00  0.00000000E+00  0.00000000E+00
  0.00000000E+00  0.00000000E+00  0.00000000E+00
  0.00000000E+00  0.00000000E+00  0.00000000E+00
  0.00000000E+00  0.00000000E+00  0.00000000E+00
  0.00000000E+00  0.00000000E+00  0.00000000E+00
  0.00000000E+00  0.00000000E+00  0.00000000E+00
  0.00000000E+00  0.00000000E+00  0.00000000E+00
  0.00000000E+00  0.00000000E+00  0.00000000E+00
  0.00000000E+00  0.00000000E+00  0.00000000E+00
  0.00000000E+00  0.00000000E+00  0.00000000E+00
  0.00000000E+00  0.00000000E+00  0.00000000E+00
  0.00000000E+00  0.00000000E+00  0.00000000E+00
  0.00000000E+00  0.00000000E+00  0.00000000E+00
  0.00000000E+00  0.00000000E+00  0.00000000E+00
  0.00000000E+00  0.00000000E+00  0.00000000E+00
  0.00000000E+00  0.00000000E+00  0.00000000E+00
  0.00000000E+00  0.00000000E+00  0.00000000E+00
  0.00000000E+00  0.00000000E+00  0.00000000E+00
  0.00000000E+00  0.00000000E+00  0.00000000E+00
  0.00000000E+00  0.00000000E+00  0.00000000E+00
  0.00000000E+00  0.00000000E+00  0.00000000E+00
  0.00000000E+00  0.00000000E+00  0.00000000E+00
  0.00000000E+00  0.00000000E+00  0.00000000E+00
  0.00000000E+00  0.00000000E+00  0.00000000E+00
  0.00000000E+00  0.00000000E+00  0.00000000E+00
  0.00000000E+00  0.00000000E+00  0.00000000E+00
  0.00000000E+00  0.00000000E+00  0.00000000E+00
  0.00000000E+00  0.00000000E+00  0.00000000E+00
  0.00000000E+00  0.00000000E+00  0.00000000E+00
  0.00000000E+00  0.00000000E+00  0.00000000E+00
  0.00000000E+00  0.00000000E+00  0.00000000E+00
  0.00000000E+00  0.00000000E+00  0.00000000E+00
  0.00000000E+00  0.00000000E+00  0.00000000E+00
  0.00000000E+00  0.00000000E+00  0.00000000E+00
  0.00000000E+00  0.00000000E+00  0.00000000E+00
  0.00000000E+00  0.00000000E+00  0.00000000E+00
  0.00000000E+00  0.00000000E+00  0.00000000E+00
  0.00000000E+00  0.00000000E+00  0.00000000E+00
  0.00000000E+00  0.00000000E+00  0.00000000E+00
  0.00000000E+00  0.00000000E+00  0.00000000E+00
  0.00000000E+00  0.00000000E+00  0.00000000E+00
  0.00000000E+00  0.00000000E+00  0.00000000E+00
  0.00000000E+00  0.00000000E+00  0.00000000E+00
  0.00000000E+00  0.00000000E+00  0.00000000E+00
  0.00000000E+00  0.00000000E+00  0.00000000E+00
  0.00000000E+00  0.00000000E+00  0.00000000E+00
  0.00000000E+00  0.00000000E+00  0.00000000E+00
  0.00000000E+00  0.00000000E+00  0.00000000E+00
