La Co Ni Sn Bi O  C  H                  
   1.00000000000000     
    29.1044006348000011    0.0000000000000000    0.0000000000000000
     0.4451680315000000   28.3694074727000007    0.0000000000000000
     0.0682082826000000    0.3036559964000000   28.5240018092999996
   La   Co   Ni   Sn   Bi   O    C    H 
    14    13    13    14    14     2     1     1
Selective dynamics
Direct
  0.5923526508542091  0.4204273081058951  0.4078098058284184   T   T   T
  0.6852474055247799  0.5711978232281756  0.3810097213624050   T   T   T
  0.4957121177186358  0.5268702237791540  0.2808076093565274   T   T   T
  0.5623615794675890  0.5212820069038853  0.6020340636602356   T   T   T
  0.5073970076853354  0.3910149095538879  0.3001229945927781   T   T   T
  0.5751960853775312  0.6555045830535358  0.4836831248877241   T   T   T
  0.5106192289594433  0.3374208535815120  0.4976632241597208   T   T   T
  0.5350395459893009  0.6378314471867753  0.3754809391749169   T   T   T
  0.4357281959090917  0.6430036578683018  0.5360905033220164   T   T   T
  0.4373551010143757  0.5015757590148624  0.3842817269995109   F   F   F
  0.4437846394494898  0.4460183835780285  0.5005161578087822   F   F   F
  0.3877787718800089  0.4658375527894398  0.6091931882256735   T   T   T
  0.3434691329433556  0.4449966587737219  0.3471524292353910   T   T   T
  0.3616577101182187  0.5855708569881640  0.3940716715599671   T   T   T
  0.4217425606853311  0.4061295180575186  0.3699802678458894   F   F   F
  0.5011311695957161  0.4887203336762909  0.4395023580252015   F   F   F
  0.4044148221271726  0.6101724300038001  0.4624736492929173   F   F   F
  0.4722931245665194  0.5596737886932672  0.5729988711091565   F   F   F
  0.6552684236953183  0.5165424048424470  0.4543399438695133   F   F   F
  0.5967309916701211  0.5535378348504167  0.5056109707055541   F   F   F
  0.5314074673932367  0.5941153005651714  0.5336729985293047   F   F   F
  0.5796732686089143  0.4997731718447866  0.4507473928409595   F   F   F
  0.4583863006918139  0.3287271781493297  0.3453629809549783   T   T   T
  0.3905180950192175  0.5252419063175111  0.4552418453041511   F   F   F
  0.4544488960623339  0.3249376211214385  0.4238704312842145   T   T   T
  0.5074804872141527  0.4592780196109629  0.3501259710292359   F   F   F
  0.6012877811302459  0.4669891268301640  0.5212355700313438   F   F   F
  0.5384608035519776  0.4312182275275163  0.4821288228790692   F   F   F
  0.4713083414346286  0.4805797151798927  0.5807598339419258   F   F   F
  0.3771163837573610  0.4514853175274567  0.4282230665427278   F   F   F
  0.4059018739390154  0.3822235888080883  0.4561785915149272   F   F   F
  0.5357818896390683  0.5680835373033233  0.4543473312664048   F   F   F
  0.4924712632432886  0.6367287407321953  0.4646113344718685   F   F   F
  0.4677327221812249  0.5829886973614862  0.4038343643763724   F   F   F
  0.5280944416629296  0.5063826634733033  0.5194466411805863   F   F   F
  0.6212454441397384  0.5105019604624417  0.3755946010283822   F   F   F
  0.6054499763524817  0.5821019035045651  0.4188664505762958   F   F   F
  0.4050790883739026  0.5245211222763402  0.5434909784116542   F   F   F
  0.3512143520544275  0.4699159378314290  0.5089680136373587   T   T   T
  0.4315022803076390  0.4567596544394066  0.3024784978702774   T   T   T
  0.5378046405468898  0.4213450499442861  0.5685576239589597   T   T   T
  0.3573870887026708  0.3864165311753606  0.5391029500779347   T   T   T
  0.4625951421883201  0.5516617238622956  0.4875128022361963   F   F   F
  0.6075805042142673  0.3759958057832847  0.5108691284086841   T   T   T
  0.4916293889249299  0.4378192486636676  0.6573723030066044   T   T   T
  0.5883676881481079  0.4679941899763127  0.3067537038063714   T   T   T
  0.4900497958562298  0.4037080615820798  0.4151644571778519   F   F   F
  0.4352922875415132  0.6746616266765429  0.4127803945893745   T   T   T
  0.4685626927155978  0.5362243471759228  0.6602108759006368   T   T   T
  0.5397532608265934  0.5319899791087650  0.3771480104995177   F   F   F
  0.6684544260928154  0.6002800720466812  0.4837979565238367   T   T   T
  0.6657626734202370  0.5192084329975883  0.5508220695142705   T   T   T
  0.3737126152059287  0.3346585421586014  0.3857177171073307   T   T   T
  0.6795831941873357  0.4370906358436248  0.4868041093279698   T   T   T
  0.5389678799586116  0.3199470207008789  0.3879096048690027   T   T   T
  0.3023843568461678  0.5030620579292233  0.4376810542157986   T   T   T
  0.3132895661896313  0.3952557735503165  0.4486652146878810   T   T   T
  0.5124237847893526  0.6249092866587009  0.6170450936289336   T   T   T
  0.4494235308194848  0.3730571413959645  0.5841306673129609   T   T   T
  0.3904567006003606  0.5795241428012562  0.6136117601055696   T   T   T
  0.4066428456585863  0.3053953793026387  0.5010055310644697   T   T   T
  0.4000401461226588  0.3700756718137483  0.2889288717659026   T   T   T
  0.3834461289362870  0.5341961333247643  0.2928773039688027   T   T   T
  0.6925805422637455  0.4603267267615675  0.3870582225071369   T   T   T
  0.3378883052172421  0.5726813048060712  0.5128698301918460   T   T   T
  0.5993038742302583  0.5727911984081129  0.3079507981194797   T   T   T
  0.6126073521172563  0.6140453615477087  0.5757404442181630   T   T   T
  0.4400590564024818  0.6151935368618228  0.3239033838513013   T   T   T
  0.4995332874803762  0.3863074370928781  0.2098907627625211   T   T   T
  0.4841723677133550  0.4613049255944137  0.2308179840582854   T   T   T
  0.4798486635766966  0.4255137077317837  0.2032047900794472   T   T   T
  0.4566857712883767  0.4309731328177305  0.1727668091696941   T   T   T
 
  0.00000000E+00  0.00000000E+00  0.00000000E+00
  0.00000000E+00  0.00000000E+00  0.00000000E+00
  0.00000000E+00  0.00000000E+00  0.00000000E+00
  0.00000000E+00  0.00000000E+00  0.00000000E+00
  0.00000000E+00  0.00000000E+00  0.00000000E+00
  0.00000000E+00  0.00000000E+00  0.00000000E+00
  0.00000000E+00  0.00000000E+00  0.00000000E+00
  0.00000000E+00  0.00000000E+00  0.00000000E+00
  0.00000000E+00  0.00000000E+00  0.00000000E+00
  0.00000000E+00  0.00000000E+00  0.00000000E+00
  0.00000000E+00  0.00000000E+00  0.00000000E+00
  0.00000000E+00  0.00000000E+00  0.00000000E+00
  0.00000000E+00  0.00000000E+00  0.00000000E+00
  0.00000000E+00  0.00000000E+00  0.00000000E+00
  0.00000000E+00  0.00000000E+00  0.00000000E+00
  0.00000000E+00  0.00000000E+00  0.00000000E+00
  0.00000000E+00  0.00000000E+00  0.00000000E+00
  0.00000000E+00  0.00000000E+00  0.00000000E+00
  0.00000000E+00  0.00000000E+00  0.00000000E+00
  0.00000000E+00  0.00000000E+00  0.00000000E+00
  0.00000000E+00  0.00000000E+00  0.00000000E+00
  0.00000000E+00  0.00000000E+00  0.00000000E+00
  0.00000000E+00  0.00000000E+00  0.00000000E+00
  0.00000000E+00  0.00000000E+00  0.00000000E+00
  0.00000000E+00  0.00000000E+00  0.00000000E+00
  0.00000000E+00  0.00000000E+00  0.00000000E+00
  0.00000000E+00  0.00000000E+00  0.00000000E+00
  0.00000000E+00  0.00000000E+00  0.00000000E+00
  0.00000000E+00  0.00000000E+00  0.00000000E+00
  0.00000000E+00  0.00000000E+00  0.00000000E+00
  0.00000000E+00  0.00000000E+00  0.00000000E+00
  0.00000000E+00  0.00000000E+00  0.00000000E+00
  0.00000000E+00  0.00000000E+00  0.00000000E+00
  0.00000000E+00  0.00000000E+00  0.00000000E+00
  0.00000000E+00  0.00000000E+00  0.00000000E+00
  0.00000000E+00  0.00000000E+00  0.00000000E+00
  0.00000000E+00  0.00000000E+00  0.00000000E+00
  0.00000000E+00  0.00000000E+00  0.00000000E+00
  0.00000000E+00  0.00000000E+00  0.00000000E+00
  0.00000000E+00  0.00000000E+00  0.00000000E+00
  0.00000000E+00  0.00000000E+00  0.00000000E+00
  0.00000000E+00  0.00000000E+00  0.00000000E+00
  0.00000000E+00  0.00000000E+00  0.00000000E+00
  0.00000000E+00  0.00000000E+00  0.00000000E+00
  0.00000000E+00  0.00000000E+00  0.00000000E+00
  0.00000000E+00  0.00000000E+00  0.00000000E+00
  0.00000000E+00  0.00000000E+00  0.00000000E+00
  0.00000000E+00  0.00000000E+00  0.00000000E+00
  0.00000000E+00  0.00000000E+00  0.00000000E+00
  0.00000000E+00  0.00000000E+00  0.00000000E+00
  0.00000000E+00  0.00000000E+00  0.00000000E+00
  0.00000000E+00  0.00000000E+00  0.00000000E+00
  0.00000000E+00  0.00000000E+00  0.00000000E+00
  0.00000000E+00  0.00000000E+00  0.00000000E+00
  0.00000000E+00  0.00000000E+00  0.00000000E+00
  0.00000000E+00  0.00000000E+00  0.00000000E+00
  0.00000000E+00  0.00000000E+00  0.00000000E+00
  0.00000000E+00  0.00000000E+00  0.00000000E+00
  0.00000000E+00  0.00000000E+00  0.00000000E+00
  0.00000000E+00  0.00000000E+00  0.00000000E+00
  0.00000000E+00  0.00000000E+00  0.00000000E+00
  0.00000000E+00  0.00000000E+00  0.00000000E+00
  0.00000000E+00  0.00000000E+00  0.00000000E+00
  0.00000000E+00  0.00000000E+00  0.00000000E+00
  0.00000000E+00  0.00000000E+00  0.00000000E+00
  0.00000000E+00  0.00000000E+00  0.00000000E+00
  0.00000000E+00  0.00000000E+00  0.00000000E+00
  0.00000000E+00  0.00000000E+00  0.00000000E+00
  0.00000000E+00  0.00000000E+00  0.00000000E+00
  0.00000000E+00  0.00000000E+00  0.00000000E+00
  0.00000000E+00  0.00000000E+00  0.00000000E+00
  0.00000000E+00  0.00000000E+00  0.00000000E+00
