La Co Ni Sn Bi O  C  H                  
   1.00000000000000     
    29.1044006348000011    0.0000000000000000    0.0000000000000000
     0.4451680315000000   28.3694074727000007    0.0000000000000000
     0.0682082826000000    0.3036559964000000   28.5240018092999996
   La   Co   Ni   Sn   Bi   O    C    H 
    14    13    13    14    14     2     1     1
Selective dynamics
Direct
  0.5919847251811589  0.4207371972137042  0.4071848048565682   T   T   T
  0.6855030119226738  0.5711057748434208  0.3811468597834333   T   T   T
  0.4951470738187869  0.5296354731726033  0.2828153969883100   T   T   T
  0.5627325909923576  0.5214832802039931  0.6021303304000731   T   T   T
  0.5078692078702729  0.3866549123129076  0.3056095117627187   T   T   T
  0.5752100138056145  0.6556109552091866  0.4835523173015547   T   T   T
  0.5082963874209325  0.3380452067773025  0.4991251534774205   T   T   T
  0.5349133434077497  0.6378426755074315  0.3755249270529000   T   T   T
  0.4358838929368086  0.6431906950404898  0.5361474812827925   T   T   T
  0.4373551010143757  0.5015757590148624  0.3842817269995109   F   F   F
  0.4437846394494898  0.4460183835780285  0.5005161578087822   F   F   F
  0.3874351804729096  0.4664784701525622  0.6093584464315729   T   T   T
  0.3433301246680927  0.4459670474551971  0.3474773005779418   T   T   T
  0.3618521840580663  0.5858449447719500  0.3944596199938081   T   T   T
  0.4217425606853311  0.4061295180575186  0.3699802678458894   F   F   F
  0.5011311695957161  0.4887203336762909  0.4395023580252015   F   F   F
  0.4044148221271726  0.6101724300038001  0.4624736492929173   F   F   F
  0.4722931245665194  0.5596737886932672  0.5729988711091565   F   F   F
  0.6552684236953183  0.5165424048424470  0.4543399438695133   F   F   F
  0.5967309916701211  0.5535378348504167  0.5056109707055541   F   F   F
  0.5314074673932367  0.5941153005651714  0.5336729985293047   F   F   F
  0.5796732686089143  0.4997731718447866  0.4507473928409595   F   F   F
  0.4568025263814051  0.3285341383110912  0.3428372190141813   T   T   T
  0.3905180950192175  0.5252419063175111  0.4552418453041511   F   F   F
  0.4524055591246468  0.3253387064668612  0.4214940157472377   T   T   T
  0.5074804872141527  0.4592780196109629  0.3501259710292359   F   F   F
  0.6012877811302459  0.4669891268301640  0.5212355700313438   F   F   F
  0.5384608035519776  0.4312182275275163  0.4821288228790692   F   F   F
  0.4713083414346286  0.4805797151798927  0.5807598339419258   F   F   F
  0.3771163837573610  0.4514853175274567  0.4282230665427278   F   F   F
  0.4059018739390154  0.3822235888080883  0.4561785915149272   F   F   F
  0.5357818896390683  0.5680835373033233  0.4543473312664048   F   F   F
  0.4924712632432886  0.6367287407321953  0.4646113344718685   F   F   F
  0.4677327221812249  0.5829886973614862  0.4038343643763724   F   F   F
  0.5280944416629296  0.5063826634733033  0.5194466411805863   F   F   F
  0.6212454441397384  0.5105019604624417  0.3755946010283822   F   F   F
  0.6054499763524817  0.5821019035045651  0.4188664505762958   F   F   F
  0.4050790883739026  0.5245211222763402  0.5434909784116542   F   F   F
  0.3508826005504462  0.4708103134282796  0.5091175920728980   T   T   T
  0.4337538599884837  0.4595189810871604  0.3026598035936161   T   T   T
  0.5379753707555742  0.4216551314751730  0.5686569221022770   T   T   T
  0.3575865429297977  0.3869872025376066  0.5388943963233109   T   T   T
  0.4625951421883201  0.5516617238622956  0.4875128022361963   F   F   F
  0.6061506442948456  0.3749105771652340  0.5095297428251068   T   T   T
  0.4917787735451559  0.4382185346656073  0.6576771482099233   T   T   T
  0.5864872747876878  0.4682164384085588  0.3059165130827190   T   T   T
  0.4900497958562298  0.4037080615820798  0.4151644571778519   F   F   F
  0.4354483395346783  0.6753835633162933  0.4134952285799456   T   T   T
  0.4686843013741777  0.5363533683810566  0.6602193416893880   T   T   T
  0.5397532608265934  0.5319899791087650  0.3771480104995177   F   F   F
  0.6684879652421882  0.6004226528003304  0.4837537875439136   T   T   T
  0.6658780378876622  0.5191428793838364  0.5503849403348050   T   T   T
  0.3720496162416057  0.3360136664738230  0.3835766797225131   T   T   T
  0.6783164082011325  0.4363994746612044  0.4863530896242165   T   T   T
  0.5387463370751263  0.3192631942828688  0.3919353032183635   T   T   T
  0.3023209231289751  0.5034274668841068  0.4377546204752313   T   T   T
  0.3127935765139870  0.3962811984608937  0.4490227084261054   T   T   T
  0.5126704045833751  0.6247391852106938  0.6171130579718499   T   T   T
  0.4486639729711173  0.3740788135793543  0.5852177118836734   T   T   T
  0.3904688499310277  0.5798306015042544  0.6136332829228760   T   T   T
  0.4047003670760940  0.3054611764311364  0.5001920925072425   T   T   T
  0.4014510738962496  0.3765403303170216  0.2859113360960326   T   T   T
  0.3832973602443993  0.5349444146010500  0.2926637992026647   T   T   T
  0.6927794049861780  0.4603990710525343  0.3872676417662457   T   T   T
  0.3381036810064879  0.5730510154094253  0.5132321163499638   T   T   T
  0.5996253080270668  0.5731428842253549  0.3084646754936397   T   T   T
  0.6126644015066650  0.6143515232015003  0.5755043087176471   T   T   T
  0.4394855379142338  0.6165572050315437  0.3243277240106323   T   T   T
  0.4516703468015177  0.2674806786267693  0.3129121891304141   T   T   T
  0.3758955427048125  0.2617634952609550  0.3349665620654180   T   T   T
  0.4124162856085976  0.2473481758578929  0.3154859188241617   T   T   T
  0.4113139388629474  0.2126104009095388  0.2979166543281232   T   T   T
 
  0.00000000E+00  0.00000000E+00  0.00000000E+00
  0.00000000E+00  0.00000000E+00  0.00000000E+00
  0.00000000E+00  0.00000000E+00  0.00000000E+00
  0.00000000E+00  0.00000000E+00  0.00000000E+00
  0.00000000E+00  0.00000000E+00  0.00000000E+00
  0.00000000E+00  0.00000000E+00  0.00000000E+00
  0.00000000E+00  0.00000000E+00  0.00000000E+00
  0.00000000E+00  0.00000000E+00  0.00000000E+00
  0.00000000E+00  0.00000000E+00  0.00000000E+00
  0.00000000E+00  0.00000000E+00  0.00000000E+00
  0.00000000E+00  0.00000000E+00  0.00000000E+00
  0.00000000E+00  0.00000000E+00  0.00000000E+00
  0.00000000E+00  0.00000000E+00  0.00000000E+00
  0.00000000E+00  0.00000000E+00  0.00000000E+00
  0.00000000E+00  0.00000000E+00  0.00000000E+00
  0.00000000E+00  0.00000000E+00  0.00000000E+00
  0.00000000E+00  0.00000000E+00  0.00000000E+00
  0.00000000E+00  0.00000000E+00  0.00000000E+00
  0.00000000E+00  0.00000000E+00  0.00000000E+00
  0.00000000E+00  0.00000000E+00  0.00000000E+00
  0.00000000E+00  0.00000000E+00  0.00000000E+00
  0.00000000E+00  0.00000000E+00  0.00000000E+00
  0.00000000E+00  0.00000000E+00  0.00000000E+00
  0.00000000E+00  0.00000000E+00  0.00000000E+00
  0.00000000E+00  0.00000000E+00  0.00000000E+00
  0.00000000E+00  0.00000000E+00  0.00000000E+00
  0.00000000E+00  0.00000000E+00  0.00000000E+00
  0.00000000E+00  0.00000000E+00  0.00000000E+00
  0.00000000E+00  0.00000000E+00  0.00000000E+00
  0.00000000E+00  0.00000000E+00  0.00000000E+00
  0.00000000E+00  0.00000000E+00  0.00000000E+00
  0.00000000E+00  0.00000000E+00  0.00000000E+00
  0.00000000E+00  0.00000000E+00  0.00000000E+00
  0.00000000E+00  0.00000000E+00  0.00000000E+00
  0.00000000E+00  0.00000000E+00  0.00000000E+00
  0.00000000E+00  0.00000000E+00  0.00000000E+00
  0.00000000E+00  0.00000000E+00  0.00000000E+00
  0.00000000E+00  0.00000000E+00  0.00000000E+00
  0.00000000E+00  0.00000000E+00  0.00000000E+00
  0.00000000E+00  0.00000000E+00  0.00000000E+00
  0.00000000E+00  0.00000000E+00  0.00000000E+00
  0.00000000E+00  0.00000000E+00  0.00000000E+00
  0.00000000E+00  0.00000000E+00  0.00000000E+00
  0.00000000E+00  0.00000000E+00  0.00000000E+00
  0.00000000E+00  0.00000000E+00  0.00000000E+00
  0.00000000E+00  0.00000000E+00  0.00000000E+00
  0.00000000E+00  0.00000000E+00  0.00000000E+00
  0.00000000E+00  0.00000000E+00  0.00000000E+00
  0.00000000E+00  0.00000000E+00  0.00000000E+00
  0.00000000E+00  0.00000000E+00  0.00000000E+00
  0.00000000E+00  0.00000000E+00  0.00000000E+00
  0.00000000E+00  0.00000000E+00  0.00000000E+00
  0.00000000E+00  0.00000000E+00  0.00000000E+00
  0.00000000E+00  0.00000000E+00  0.00000000E+00
  0.00000000E+00  0.00000000E+00  0.00000000E+00
  0.00000000E+00  0.00000000E+00  0.00000000E+00
  0.00000000E+00  0.00000000E+00  0.00000000E+00
  0.00000000E+00  0.00000000E+00  0.00000000E+00
  0.00000000E+00  0.00000000E+00  0.00000000E+00
  0.00000000E+00  0.00000000E+00  0.00000000E+00
  0.00000000E+00  0.00000000E+00  0.00000000E+00
  0.00000000E+00  0.00000000E+00  0.00000000E+00
  0.00000000E+00  0.00000000E+00  0.00000000E+00
  0.00000000E+00  0.00000000E+00  0.00000000E+00
  0.00000000E+00  0.00000000E+00  0.00000000E+00
  0.00000000E+00  0.00000000E+00  0.00000000E+00
  0.00000000E+00  0.00000000E+00  0.00000000E+00
  0.00000000E+00  0.00000000E+00  0.00000000E+00
  0.00000000E+00  0.00000000E+00  0.00000000E+00
  0.00000000E+00  0.00000000E+00  0.00000000E+00
  0.00000000E+00  0.00000000E+00  0.00000000E+00
  0.00000000E+00  0.00000000E+00  0.00000000E+00
