La Co Ni Sn Bi O  C  H                  
   1.00000000000000     
    29.1044006348000011    0.0000000000000000    0.0000000000000000
     0.4451680315000000   28.3694074727000007    0.0000000000000000
     0.0682082826000000    0.3036559964000000   28.5240018092999996
   La   Co   Ni   Sn   Bi   O    C    H 
    14    13    13    14    14     2     1     1
Selective dynamics
Direct
  0.5922765219057798  0.4205333092570570  0.4075584694240153   T   T   T
  0.6855087463457725  0.5711567927813168  0.3812605497241127   T   T   T
  0.4958992131994156  0.5280912529234432  0.2822350476425319   T   T   T
  0.5625241637721849  0.5215830071503499  0.6020258472795172   T   T   T
  0.5088161308472243  0.3874718238457504  0.3052529237192468   T   T   T
  0.5750729494851101  0.6555589596103693  0.4836366057860642   T   T   T
  0.5083277845459990  0.3379386133775914  0.4994397494208633   T   T   T
  0.5350004411952216  0.6377427843091513  0.3752001369166600   T   T   T
  0.4358279629689421  0.6432985945525231  0.5357604522058100   T   T   T
  0.4373551010143757  0.5015757590148624  0.3842817269995109   F   F   F
  0.4437846394494898  0.4460183835780285  0.5005161578087822   F   F   F
  0.3873769656663838  0.4667391790924232  0.6094721620342157   T   T   T
  0.3406842188576577  0.4463248849977610  0.3453743823305652   T   T   T
  0.3619384082901828  0.5850589832730283  0.3936402876332927   T   T   T
  0.4217425606853311  0.4061295180575186  0.3699802678458894   F   F   F
  0.5011311695957161  0.4887203336762909  0.4395023580252015   F   F   F
  0.4044148221271726  0.6101724300038001  0.4624736492929173   F   F   F
  0.4722931245665194  0.5596737886932672  0.5729988711091565   F   F   F
  0.6552684236953183  0.5165424048424470  0.4543399438695133   F   F   F
  0.5967309916701211  0.5535378348504167  0.5056109707055541   F   F   F
  0.5314074673932367  0.5941153005651714  0.5336729985293047   F   F   F
  0.5796732686089143  0.4997731718447866  0.4507473928409595   F   F   F
  0.4604303599136021  0.3308689197489705  0.3447444268477408   T   T   T
  0.3905180950192175  0.5252419063175111  0.4552418453041511   F   F   F
  0.4541626985124718  0.3247123707743129  0.4240834087655315   T   T   T
  0.5074804872141527  0.4592780196109629  0.3501259710292359   F   F   F
  0.6012877811302459  0.4669891268301640  0.5212355700313438   F   F   F
  0.5384608035519776  0.4312182275275163  0.4821288228790692   F   F   F
  0.4713083414346286  0.4805797151798927  0.5807598339419258   F   F   F
  0.3771163837573610  0.4514853175274567  0.4282230665427278   F   F   F
  0.4059018739390154  0.3822235888080883  0.4561785915149272   F   F   F
  0.5357818896390683  0.5680835373033233  0.4543473312664048   F   F   F
  0.4924712632432886  0.6367287407321953  0.4646113344718685   F   F   F
  0.4677327221812249  0.5829886973614862  0.4038343643763724   F   F   F
  0.5280944416629296  0.5063826634733033  0.5194466411805863   F   F   F
  0.6212454441397384  0.5105019604624417  0.3755946010283822   F   F   F
  0.6054499763524817  0.5821019035045651  0.4188664505762958   F   F   F
  0.4050790883739026  0.5245211222763402  0.5434909784116542   F   F   F
  0.3508864085004672  0.4706903081019507  0.5091938296486151   T   T   T
  0.4341423150034313  0.4576401458073171  0.3023925015707311   T   T   T
  0.5378963329486505  0.4215375044564289  0.5688271993198116   T   T   T
  0.3576421834974032  0.3873121742206794  0.5387054665007558   T   T   T
  0.4625951421883201  0.5516617238622956  0.4875128022361963   F   F   F
  0.6062587468066254  0.3750807037275780  0.5099009605341068   T   T   T
  0.4918577840529140  0.4387092053891413  0.6577781103200473   T   T   T
  0.5874967425047897  0.4677651192396226  0.3062709571248432   T   T   T
  0.4900497958562298  0.4037080615820798  0.4151644571778519   F   F   F
  0.4352897703606160  0.6746817913176731  0.4128315209872986   T   T   T
  0.4685952190966275  0.5368513761296339  0.6602492954376180   T   T   T
  0.5397532608265934  0.5319899791087650  0.3771480104995177   F   F   F
  0.6683083546535892  0.6005056273880656  0.4838399482340465   T   T   T
  0.6658995677648292  0.5191624278051922  0.5504794261794526   T   T   T
  0.3740103446323475  0.3355555700948155  0.3852601088506033   T   T   T
  0.6787067195299761  0.4363407566718713  0.4865496196358219   T   T   T
  0.5395180196141582  0.3187043471518902  0.3916309891616389   T   T   T
  0.3022966509399982  0.5029966310662096  0.4374361632418238   T   T   T
  0.3121121626801933  0.3961531848534662  0.4483931143280797   T   T   T
  0.5122849774760287  0.6252626310415663  0.6168350370815158   T   T   T
  0.4484189577125084  0.3740572992471519  0.5853229335464099   T   T   T
  0.3906665970830543  0.5802066333916729  0.6132665051879115   T   T   T
  0.4041212544176543  0.3053685717851235  0.5004832890828665   T   T   T
  0.4018674416554460  0.3726238993145261  0.2877422336058722   T   T   T
  0.3847302789007454  0.5343246766009724  0.2914681648742872   T   T   T
  0.6927643452333228  0.4603626226734345  0.3873913150255333   T   T   T
  0.3376889099612679  0.5723524096257964  0.5127929884039694   T   T   T
  0.5998080372953086  0.5727390019840354  0.3082200995119455   T   T   T
  0.6125517806488131  0.6142336906381505  0.5756771160604733   T   T   T
  0.4402621788488257  0.6154136366933008  0.3236741407853824   T   T   T
  0.2658397845381133  0.4197644878151618  0.3357624273569162   T   T   T
  0.2297596871846205  0.3851224104816379  0.3979628767039395   T   T   T
  0.2322655661046026  0.3975595783462082  0.3560336126681590   T   T   T
  0.2031968147051530  0.3895084014950604  0.3322114059869314   T   T   T
 
  0.00000000E+00  0.00000000E+00  0.00000000E+00
  0.00000000E+00  0.00000000E+00  0.00000000E+00
  0.00000000E+00  0.00000000E+00  0.00000000E+00
  0.00000000E+00  0.00000000E+00  0.00000000E+00
  0.00000000E+00  0.00000000E+00  0.00000000E+00
  0.00000000E+00  0.00000000E+00  0.00000000E+00
  0.00000000E+00  0.00000000E+00  0.00000000E+00
  0.00000000E+00  0.00000000E+00  0.00000000E+00
  0.00000000E+00  0.00000000E+00  0.00000000E+00
  0.00000000E+00  0.00000000E+00  0.00000000E+00
  0.00000000E+00  0.00000000E+00  0.00000000E+00
  0.00000000E+00  0.00000000E+00  0.00000000E+00
  0.00000000E+00  0.00000000E+00  0.00000000E+00
  0.00000000E+00  0.00000000E+00  0.00000000E+00
  0.00000000E+00  0.00000000E+00  0.00000000E+00
  0.00000000E+00  0.00000000E+00  0.00000000E+00
  0.00000000E+00  0.00000000E+00  0.00000000E+00
  0.00000000E+00  0.00000000E+00  0.00000000E+00
  0.00000000E+00  0.00000000E+00  0.00000000E+00
  0.00000000E+00  0.00000000E+00  0.00000000E+00
  0.00000000E+00  0.00000000E+00  0.00000000E+00
  0.00000000E+00  0.00000000E+00  0.00000000E+00
  0.00000000E+00  0.00000000E+00  0.00000000E+00
  0.00000000E+00  0.00000000E+00  0.00000000E+00
  0.00000000E+00  0.00000000E+00  0.00000000E+00
  0.00000000E+00  0.00000000E+00  0.00000000E+00
  0.00000000E+00  0.00000000E+00  0.00000000E+00
  0.00000000E+00  0.00000000E+00  0.00000000E+00
  0.00000000E+00  0.00000000E+00  0.00000000E+00
  0.00000000E+00  0.00000000E+00  0.00000000E+00
  0.00000000E+00  0.00000000E+00  0.00000000E+00
  0.00000000E+00  0.00000000E+00  0.00000000E+00
  0.00000000E+00  0.00000000E+00  0.00000000E+00
  0.00000000E+00  0.00000000E+00  0.00000000E+00
  0.00000000E+00  0.00000000E+00  0.00000000E+00
  0.00000000E+00  0.00000000E+00  0.00000000E+00
  0.00000000E+00  0.00000000E+00  0.00000000E+00
  0.00000000E+00  0.00000000E+00  0.00000000E+00
  0.00000000E+00  0.00000000E+00  0.00000000E+00
  0.00000000E+00  0.00000000E+00  0.00000000E+00
  0.00000000E+00  0.00000000E+00  0.00000000E+00
  0.00000000E+00  0.00000000E+00  0.00000000E+00
  0.00000000E+00  0.00000000E+00  0.00000000E+00
  0.00000000E+00  0.00000000E+00  0.00000000E+00
  0.00000000E+00  0.00000000E+00  0.00000000E+00
  0.00000000E+00  0.00000000E+00  0.00000000E+00
  0.00000000E+00  0.00000000E+00  0.00000000E+00
  0.00000000E+00  0.00000000E+00  0.00000000E+00
  0.00000000E+00  0.00000000E+00  0.00000000E+00
  0.00000000E+00  0.00000000E+00  0.00000000E+00
  0.00000000E+00  0.00000000E+00  0.00000000E+00
  0.00000000E+00  0.00000000E+00  0.00000000E+00
  0.00000000E+00  0.00000000E+00  0.00000000E+00
  0.00000000E+00  0.00000000E+00  0.00000000E+00
  0.00000000E+00  0.00000000E+00  0.00000000E+00
  0.00000000E+00  0.00000000E+00  0.00000000E+00
  0.00000000E+00  0.00000000E+00  0.00000000E+00
  0.00000000E+00  0.00000000E+00  0.00000000E+00
  0.00000000E+00  0.00000000E+00  0.00000000E+00
  0.00000000E+00  0.00000000E+00  0.00000000E+00
  0.00000000E+00  0.00000000E+00  0.00000000E+00
  0.00000000E+00  0.00000000E+00  0.00000000E+00
  0.00000000E+00  0.00000000E+00  0.00000000E+00
  0.00000000E+00  0.00000000E+00  0.00000000E+00
  0.00000000E+00  0.00000000E+00  0.00000000E+00
  0.00000000E+00  0.00000000E+00  0.00000000E+00
  0.00000000E+00  0.00000000E+00  0.00000000E+00
  0.00000000E+00  0.00000000E+00  0.00000000E+00
  0.00000000E+00  0.00000000E+00  0.00000000E+00
  0.00000000E+00  0.00000000E+00  0.00000000E+00
  0.00000000E+00  0.00000000E+00  0.00000000E+00
  0.00000000E+00  0.00000000E+00  0.00000000E+00
