La Co Ni Sn Bi O  C  H                  
   1.00000000000000     
    29.1044006348000011    0.0000000000000000    0.0000000000000000
     0.4451680315000000   28.3694074727000007    0.0000000000000000
     0.0682082826000000    0.3036559964000000   28.5240018092999996
   La   Co   Ni   Sn   Bi   O    C    H 
    14    13    13    14    14     2     1     1
Selective dynamics
Direct
  0.5923390752676105  0.4206142782119517  0.4080065093482422   T   T   T
  0.6857344453803594  0.5708785558008023  0.3809975117380355   T   T   T
  0.4956031894931753  0.5279740591773245  0.2823459780977017   T   T   T
  0.5651404002317182  0.5208785868930011  0.6058262854856722   T   T   T
  0.5089977469804843  0.3871829988160805  0.3054273234272715   T   T   T
  0.5749122084025169  0.6555181957841064  0.4839638374300194   T   T   T
  0.5086413145984992  0.3378913035833505  0.4994076732966681   T   T   T
  0.5348570774662427  0.6378695791174414  0.3754017487526533   T   T   T
  0.4359277917527623  0.6430470591110604  0.5360917280603784   T   T   T
  0.4373551010143757  0.5015757590148624  0.3842817269995109   F   F   F
  0.4437846394494898  0.4460183835780285  0.5005161578087822   F   F   F
  0.3868860269959648  0.4665126514274038  0.6089328636213298   T   T   T
  0.3446822497206625  0.4445373630654403  0.3466321381511540   T   T   T
  0.3619617134347044  0.5854085108283658  0.3937787908158725   T   T   T
  0.4217425606853311  0.4061295180575186  0.3699802678458894   F   F   F
  0.5011311695957161  0.4887203336762909  0.4395023580252015   F   F   F
  0.4044148221271726  0.6101724300038001  0.4624736492929173   F   F   F
  0.4722931245665194  0.5596737886932672  0.5729988711091565   F   F   F
  0.6552684236953183  0.5165424048424470  0.4543399438695133   F   F   F
  0.5967309916701211  0.5535378348504167  0.5056109707055541   F   F   F
  0.5314074673932367  0.5941153005651714  0.5336729985293047   F   F   F
  0.5796732686089143  0.4997731718447866  0.4507473928409595   F   F   F
  0.4608960522392445  0.3308668621886199  0.3446654490845377   T   T   T
  0.3905180950192175  0.5252419063175111  0.4552418453041511   F   F   F
  0.4544467790010508  0.3246192945852880  0.4237699816200991   T   T   T
  0.5074804872141527  0.4592780196109629  0.3501259710292359   F   F   F
  0.6012877811302459  0.4669891268301640  0.5212355700313438   F   F   F
  0.5384608035519776  0.4312182275275163  0.4821288228790692   F   F   F
  0.4713083414346286  0.4805797151798927  0.5807598339419258   F   F   F
  0.3771163837573610  0.4514853175274567  0.4282230665427278   F   F   F
  0.4059018739390154  0.3822235888080883  0.4561785915149272   F   F   F
  0.5357818896390683  0.5680835373033233  0.4543473312664048   F   F   F
  0.4924712632432886  0.6367287407321953  0.4646113344718685   F   F   F
  0.4677327221812249  0.5829886973614862  0.4038343643763724   F   F   F
  0.5280944416629296  0.5063826634733033  0.5194466411805863   F   F   F
  0.6212454441397384  0.5105019604624417  0.3755946010283822   F   F   F
  0.6054499763524817  0.5821019035045651  0.4188664505762958   F   F   F
  0.4050790883739026  0.5245211222763402  0.5434909784116542   F   F   F
  0.3507245177198740  0.4703018361790498  0.5086422370970691   T   T   T
  0.4341814260707827  0.4574144036988546  0.3020815943148299   T   T   T
  0.5375358255287475  0.4220267327469753  0.5689894391031515   T   T   T
  0.3574379609291312  0.3868471912394690  0.5391203693251456   T   T   T
  0.4625951421883201  0.5516617238622956  0.4875128022361963   F   F   F
  0.6064144624443423  0.3755302311491402  0.5109723322764661   T   T   T
  0.4906268648501092  0.4382124844021840  0.6577175370413115   T   T   T
  0.5874953647976194  0.4677733962235246  0.3064322408195700   T   T   T
  0.4900497958562298  0.4037080615820798  0.4151644571778519   F   F   F
  0.4352716232210690  0.6748834096649160  0.4131487059492553   T   T   T
  0.4682680564715842  0.5369583481077850  0.6598061727569172   T   T   T
  0.5397532608265934  0.5319899791087650  0.3771480104995177   F   F   F
  0.6680540756130360  0.6008383011786794  0.4833078369727388   T   T   T
  0.6661049565763079  0.5197341861168074  0.5502301990457894   T   T   T
  0.3748241562945133  0.3345903601397556  0.3847282942819979   T   T   T
  0.6789632895120663  0.4365973881793282  0.4869488156759869   T   T   T
  0.5398235155595357  0.3186065913233188  0.3917736719185251   T   T   T
  0.3022425292439380  0.5028943854290798  0.4364296540007703   T   T   T
  0.3134605462440840  0.3954517761531824  0.4487098630072083   T   T   T
  0.5135088869385256  0.6242813343192259  0.6171110901118854   T   T   T
  0.4484892859594317  0.3739987323730881  0.5851520633383942   T   T   T
  0.3902544715951224  0.5799041127856791  0.6133204160209824   T   T   T
  0.4050495659874877  0.3052772315161528  0.5006762656699082   T   T   T
  0.4026405896616899  0.3717528073665209  0.2870361490634682   T   T   T
  0.3840369572394012  0.5337493638330537  0.2919790988235960   T   T   T
  0.6926377287464727  0.4601168937224793  0.3874940432280019   T   T   T
  0.3374764297888589  0.5718850504091333  0.5126765812592757   T   T   T
  0.5996997647176795  0.5728517398023737  0.3084590316314283   T   T   T
  0.6134132517704027  0.6135989851053056  0.5760362326730848   T   T   T
  0.4400157489002771  0.6154091801559076  0.3237762861994207   T   T   T
  0.6051533587847817  0.5399494453419624  0.6735607725886259   T   T   T
  0.6180348206272573  0.6186986378986009  0.6799347128929732   T   T   T
  0.6201860099195465  0.5772455421067857  0.6946322977788075   T   T   T
  0.6365574986108203  0.5696430908066117  0.7293092426705756   T   T   T
 
  0.00000000E+00  0.00000000E+00  0.00000000E+00
  0.00000000E+00  0.00000000E+00  0.00000000E+00
  0.00000000E+00  0.00000000E+00  0.00000000E+00
  0.00000000E+00  0.00000000E+00  0.00000000E+00
  0.00000000E+00  0.00000000E+00  0.00000000E+00
  0.00000000E+00  0.00000000E+00  0.00000000E+00
  0.00000000E+00  0.00000000E+00  0.00000000E+00
  0.00000000E+00  0.00000000E+00  0.00000000E+00
  0.00000000E+00  0.00000000E+00  0.00000000E+00
  0.00000000E+00  0.00000000E+00  0.00000000E+00
  0.00000000E+00  0.00000000E+00  0.00000000E+00
  0.00000000E+00  0.00000000E+00  0.00000000E+00
  0.00000000E+00  0.00000000E+00  0.00000000E+00
  0.00000000E+00  0.00000000E+00  0.00000000E+00
  0.00000000E+00  0.00000000E+00  0.00000000E+00
  0.00000000E+00  0.00000000E+00  0.00000000E+00
  0.00000000E+00  0.00000000E+00  0.00000000E+00
  0.00000000E+00  0.00000000E+00  0.00000000E+00
  0.00000000E+00  0.00000000E+00  0.00000000E+00
  0.00000000E+00  0.00000000E+00  0.00000000E+00
  0.00000000E+00  0.00000000E+00  0.00000000E+00
  0.00000000E+00  0.00000000E+00  0.00000000E+00
  0.00000000E+00  0.00000000E+00  0.00000000E+00
  0.00000000E+00  0.00000000E+00  0.00000000E+00
  0.00000000E+00  0.00000000E+00  0.00000000E+00
  0.00000000E+00  0.00000000E+00  0.00000000E+00
  0.00000000E+00  0.00000000E+00  0.00000000E+00
  0.00000000E+00  0.00000000E+00  0.00000000E+00
  0.00000000E+00  0.00000000E+00  0.00000000E+00
  0.00000000E+00  0.00000000E+00  0.00000000E+00
  0.00000000E+00  0.00000000E+00  0.00000000E+00
  0.00000000E+00  0.00000000E+00  0.00000000E+00
  0.00000000E+00  0.00000000E+00  0.00000000E+00
  0.00000000E+00  0.00000000E+00  0.00000000E+00
  0.00000000E+00  0.00000000E+00  0.00000000E+00
  0.00000000E+00  0.00000000E+00  0.00000000E+00
  0.00000000E+00  0.00000000E+00  0.00000000E+00
  0.00000000E+00  0.00000000E+00  0.00000000E+00
  0.00000000E+00  0.00000000E+00  0.00000000E+00
  0.00000000E+00  0.00000000E+00  0.00000000E+00
  0.00000000E+00  0.00000000E+00  0.00000000E+00
  0.00000000E+00  0.00000000E+00  0.00000000E+00
  0.00000000E+00  0.00000000E+00  0.00000000E+00
  0.00000000E+00  0.00000000E+00  0.00000000E+00
  0.00000000E+00  0.00000000E+00  0.00000000E+00
  0.00000000E+00  0.00000000E+00  0.00000000E+00
  0.00000000E+00  0.00000000E+00  0.00000000E+00
  0.00000000E+00  0.00000000E+00  0.00000000E+00
  0.00000000E+00  0.00000000E+00  0.00000000E+00
  0.00000000E+00  0.00000000E+00  0.00000000E+00
  0.00000000E+00  0.00000000E+00  0.00000000E+00
  0.00000000E+00  0.00000000E+00  0.00000000E+00
  0.00000000E+00  0.00000000E+00  0.00000000E+00
  0.00000000E+00  0.00000000E+00  0.00000000E+00
  0.00000000E+00  0.00000000E+00  0.00000000E+00
  0.00000000E+00  0.00000000E+00  0.00000000E+00
  0.00000000E+00  0.00000000E+00  0.00000000E+00
  0.00000000E+00  0.00000000E+00  0.00000000E+00
  0.00000000E+00  0.00000000E+00  0.00000000E+00
  0.00000000E+00  0.00000000E+00  0.00000000E+00
  0.00000000E+00  0.00000000E+00  0.00000000E+00
  0.00000000E+00  0.00000000E+00  0.00000000E+00
  0.00000000E+00  0.00000000E+00  0.00000000E+00
  0.00000000E+00  0.00000000E+00  0.00000000E+00
  0.00000000E+00  0.00000000E+00  0.00000000E+00
  0.00000000E+00  0.00000000E+00  0.00000000E+00
  0.00000000E+00  0.00000000E+00  0.00000000E+00
  0.00000000E+00  0.00000000E+00  0.00000000E+00
  0.00000000E+00  0.00000000E+00  0.00000000E+00
  0.00000000E+00  0.00000000E+00  0.00000000E+00
  0.00000000E+00  0.00000000E+00  0.00000000E+00
  0.00000000E+00  0.00000000E+00  0.00000000E+00
