La Co Ni Sn Bi O  C  H                  
   1.00000000000000     
    29.1044006348000011    0.0000000000000000    0.0000000000000000
     0.4451680315000000   28.3694074727000007    0.0000000000000000
     0.0682082826000000    0.3036559964000000   28.5240018092999996
   La   Co   Ni   Sn   Bi   O    C    H 
    14    13    13    14    14     2     1     1
Selective dynamics
Direct
  0.5926880885609557  0.4201523004771452  0.4085009060668935   T   T   T
  0.6852791746628147  0.5711977045133573  0.3807809209998520   T   T   T
  0.4954824262392989  0.5269239559053623  0.2823510447842697   T   T   T
  0.5624377000910513  0.5212713383166211  0.6020382102253530   T   T   T
  0.5080031786879960  0.3874542657193277  0.3044202054033735   T   T   T
  0.5750803061042613  0.6555656921877139  0.4835545716162270   T   T   T
  0.5110039354067639  0.3345818063592796  0.4993603682280164   T   T   T
  0.5350660292919549  0.6376233310614837  0.3749509175073441   T   T   T
  0.4358200592367638  0.6429684375033197  0.5360747320614557   T   T   T
  0.4373551010143757  0.5015757590148624  0.3842817269995109   F   F   F
  0.4437846394494898  0.4460183835780285  0.5005161578087822   F   F   F
  0.3876021669668346  0.4663135609750154  0.6093007469250697   T   T   T
  0.3444122311172189  0.4445540808006232  0.3468818439317078   T   T   T
  0.3620636749407636  0.5854837581069026  0.3937250220806109   T   T   T
  0.4217425606853311  0.4061295180575186  0.3699802678458894   F   F   F
  0.5011311695957161  0.4887203336762909  0.4395023580252015   F   F   F
  0.4044148221271726  0.6101724300038001  0.4624736492929173   F   F   F
  0.4722931245665194  0.5596737886932672  0.5729988711091565   F   F   F
  0.6552684236953183  0.5165424048424470  0.4543399438695133   F   F   F
  0.5967309916701211  0.5535378348504167  0.5056109707055541   F   F   F
  0.5314074673932367  0.5941153005651714  0.5336729985293047   F   F   F
  0.5796732686089143  0.4997731718447866  0.4507473928409595   F   F   F
  0.4601985188356255  0.3310537784760900  0.3436964819590119   T   T   T
  0.3905180950192175  0.5252419063175111  0.4552418453041511   F   F   F
  0.4537025233859401  0.3245514330693728  0.4231642455019319   T   T   T
  0.5074804872141527  0.4592780196109629  0.3501259710292359   F   F   F
  0.6012877811302459  0.4669891268301640  0.5212355700313438   F   F   F
  0.5384608035519776  0.4312182275275163  0.4821288228790692   F   F   F
  0.4713083414346286  0.4805797151798927  0.5807598339419258   F   F   F
  0.3771163837573610  0.4514853175274567  0.4282230665427278   F   F   F
  0.4059018739390154  0.3822235888080883  0.4561785915149272   F   F   F
  0.5357818896390683  0.5680835373033233  0.4543473312664048   F   F   F
  0.4924712632432886  0.6367287407321953  0.4646113344718685   F   F   F
  0.4677327221812249  0.5829886973614862  0.4038343643763724   F   F   F
  0.5280944416629296  0.5063826634733033  0.5194466411805863   F   F   F
  0.6212454441397384  0.5105019604624417  0.3755946010283822   F   F   F
  0.6054499763524817  0.5821019035045651  0.4188664505762958   F   F   F
  0.4050790883739026  0.5245211222763402  0.5434909784116542   F   F   F
  0.3508138402154148  0.4701535698414230  0.5087430847118390   T   T   T
  0.4338933219309903  0.4570961974680174  0.3021041289413823   T   T   T
  0.5375782640772303  0.4212839134565901  0.5686654594635439   T   T   T
  0.3575130447093156  0.3868161384784353  0.5393606974014814   T   T   T
  0.4625951421883201  0.5516617238622956  0.4875128022361963   F   F   F
  0.6075747171961231  0.3761460693885912  0.5116480220600403   T   T   T
  0.4915280488276511  0.4382961231350161  0.6575883818604019   T   T   T
  0.5874022680967713  0.4670490659990911  0.3067488076048171   T   T   T
  0.4900497958562298  0.4037080615820798  0.4151644571778519   F   F   F
  0.4354527730402887  0.6745087160136097  0.4126617974639807   T   T   T
  0.4684838008515569  0.5366066248651771  0.6601755248942599   T   T   T
  0.5397532608265934  0.5319899791087650  0.3771480104995177   F   F   F
  0.6683565849950159  0.6003413769998844  0.4836802822066628   T   T   T
  0.6658842823494394  0.5193017950472201  0.5506699502118648   T   T   T
  0.3740625461627527  0.3353312033264892  0.3844163564218320   T   T   T
  0.6798196588491282  0.4371669360913693  0.4869929978766953   T   T   T
  0.5386605389414207  0.3187156627545084  0.3910869673840754   T   T   T
  0.3024214148889368  0.5033207322791536  0.4367135379073644   T   T   T
  0.3131355376308025  0.3961373500073689  0.4492600567913859   T   T   T
  0.5126851658160764  0.6248060200690988  0.6171148941791680   T   T   T
  0.4489680963386500  0.3734678739350885  0.5849432633165075   T   T   T
  0.3902307012878927  0.5798463856442502  0.6135124801668652   T   T   T
  0.4063656163717738  0.3059020665817854  0.5013809482581623   T   T   T
  0.4016236206692441  0.3719321954362543  0.2865949563306644   T   T   T
  0.3838463719210555  0.5336064679710883  0.2921136438367295   T   T   T
  0.6927097500763741  0.4603844975651046  0.3873315801005296   T   T   T
  0.3376912966815831  0.5722491658325178  0.5127839951083200   T   T   T
  0.5994365380448360  0.5722909843430406  0.3076938799154172   T   T   T
  0.6126177849636583  0.6140200726588532  0.5755659727409499   T   T   T
  0.4402249905840493  0.6148287164982160  0.3235038206794559   T   T   T
  0.5493784671981795  0.2617779934713150  0.4991608175752074   T   T   T
  0.5878842282201169  0.2434111590552164  0.4317245091527049   T   T   T
  0.5755160809403568  0.2354687853919103  0.4729654303167165   T   T   T
  0.5878368852047459  0.2022476480677680  0.4904302657725043   T   T   T
 
  0.00000000E+00  0.00000000E+00  0.00000000E+00
  0.00000000E+00  0.00000000E+00  0.00000000E+00
  0.00000000E+00  0.00000000E+00  0.00000000E+00
  0.00000000E+00  0.00000000E+00  0.00000000E+00
  0.00000000E+00  0.00000000E+00  0.00000000E+00
  0.00000000E+00  0.00000000E+00  0.00000000E+00
  0.00000000E+00  0.00000000E+00  0.00000000E+00
  0.00000000E+00  0.00000000E+00  0.00000000E+00
  0.00000000E+00  0.00000000E+00  0.00000000E+00
  0.00000000E+00  0.00000000E+00  0.00000000E+00
  0.00000000E+00  0.00000000E+00  0.00000000E+00
  0.00000000E+00  0.00000000E+00  0.00000000E+00
  0.00000000E+00  0.00000000E+00  0.00000000E+00
  0.00000000E+00  0.00000000E+00  0.00000000E+00
  0.00000000E+00  0.00000000E+00  0.00000000E+00
  0.00000000E+00  0.00000000E+00  0.00000000E+00
  0.00000000E+00  0.00000000E+00  0.00000000E+00
  0.00000000E+00  0.00000000E+00  0.00000000E+00
  0.00000000E+00  0.00000000E+00  0.00000000E+00
  0.00000000E+00  0.00000000E+00  0.00000000E+00
  0.00000000E+00  0.00000000E+00  0.00000000E+00
  0.00000000E+00  0.00000000E+00  0.00000000E+00
  0.00000000E+00  0.00000000E+00  0.00000000E+00
  0.00000000E+00  0.00000000E+00  0.00000000E+00
  0.00000000E+00  0.00000000E+00  0.00000000E+00
  0.00000000E+00  0.00000000E+00  0.00000000E+00
  0.00000000E+00  0.00000000E+00  0.00000000E+00
  0.00000000E+00  0.00000000E+00  0.00000000E+00
  0.00000000E+00  0.00000000E+00  0.00000000E+00
  0.00000000E+00  0.00000000E+00  0.00000000E+00
  0.00000000E+00  0.00000000E+00  0.00000000E+00
  0.00000000E+00  0.00000000E+00  0.00000000E+00
  0.00000000E+00  0.00000000E+00  0.00000000E+00
  0.00000000E+00  0.00000000E+00  0.00000000E+00
  0.00000000E+00  0.00000000E+00  0.00000000E+00
  0.00000000E+00  0.00000000E+00  0.00000000E+00
  0.00000000E+00  0.00000000E+00  0.00000000E+00
  0.00000000E+00  0.00000000E+00  0.00000000E+00
  0.00000000E+00  0.00000000E+00  0.00000000E+00
  0.00000000E+00  0.00000000E+00  0.00000000E+00
  0.00000000E+00  0.00000000E+00  0.00000000E+00
  0.00000000E+00  0.00000000E+00  0.00000000E+00
  0.00000000E+00  0.00000000E+00  0.00000000E+00
  0.00000000E+00  0.00000000E+00  0.00000000E+00
  0.00000000E+00  0.00000000E+00  0.00000000E+00
  0.00000000E+00  0.00000000E+00  0.00000000E+00
  0.00000000E+00  0.00000000E+00  0.00000000E+00
  0.00000000E+00  0.00000000E+00  0.00000000E+00
  0.00000000E+00  0.00000000E+00  0.00000000E+00
  0.00000000E+00  0.00000000E+00  0.00000000E+00
  0.00000000E+00  0.00000000E+00  0.00000000E+00
  0.00000000E+00  0.00000000E+00  0.00000000E+00
  0.00000000E+00  0.00000000E+00  0.00000000E+00
  0.00000000E+00  0.00000000E+00  0.00000000E+00
  0.00000000E+00  0.00000000E+00  0.00000000E+00
  0.00000000E+00  0.00000000E+00  0.00000000E+00
  0.00000000E+00  0.00000000E+00  0.00000000E+00
  0.00000000E+00  0.00000000E+00  0.00000000E+00
  0.00000000E+00  0.00000000E+00  0.00000000E+00
  0.00000000E+00  0.00000000E+00  0.00000000E+00
  0.00000000E+00  0.00000000E+00  0.00000000E+00
  0.00000000E+00  0.00000000E+00  0.00000000E+00
  0.00000000E+00  0.00000000E+00  0.00000000E+00
  0.00000000E+00  0.00000000E+00  0.00000000E+00
  0.00000000E+00  0.00000000E+00  0.00000000E+00
  0.00000000E+00  0.00000000E+00  0.00000000E+00
  0.00000000E+00  0.00000000E+00  0.00000000E+00
  0.00000000E+00  0.00000000E+00  0.00000000E+00
  0.00000000E+00  0.00000000E+00  0.00000000E+00
  0.00000000E+00  0.00000000E+00  0.00000000E+00
  0.00000000E+00  0.00000000E+00  0.00000000E+00
  0.00000000E+00  0.00000000E+00  0.00000000E+00
