La Co Ni Sn Bi O  C  H                  
   1.00000000000000     
    29.1044006348000011    0.0000000000000000    0.0000000000000000
     0.4451680315000000   28.3694074727000007    0.0000000000000000
     0.0682082826000000    0.3036559964000000   28.5240018092999996
   La   Co   Ni   Sn   Bi   O    C    H 
    14    13    13    14    14     2     1     1
Selective dynamics
Direct
  0.5925592205370852  0.4215474584671048  0.4075818558910136   T   T   T
  0.6849411854785517  0.5716567689587101  0.3809155316021641   T   T   T
  0.4951304765377087  0.5285386024400019  0.2825341127499935   T   T   T
  0.5626247416842772  0.5218514160459153  0.6020309141351722   T   T   T
  0.5089326976552772  0.3886591994518630  0.3044243793089352   T   T   T
  0.5751682053381327  0.6555617806483751  0.4835882468455566   T   T   T
  0.5069592740336285  0.3362718333324511  0.5004243554497588   T   T   T
  0.5349716319767182  0.6376794576947102  0.3752750057440826   T   T   T
  0.4364233302361421  0.6439448487959970  0.5353527902764248   T   T   T
  0.4373551010143757  0.5015757590148624  0.3842817269995109   F   F   F
  0.4437846394494898  0.4460183835780285  0.5005161578087822   F   F   F
  0.3874269963290113  0.4687766889979283  0.6107952641261636   T   T   T
  0.3440390317043946  0.4443185785560714  0.3470658876967032   T   T   T
  0.3617266886559831  0.5858285449963327  0.3939863201913634   T   T   T
  0.4217425606853311  0.4061295180575186  0.3699802678458894   F   F   F
  0.5011311695957161  0.4887203336762909  0.4395023580252015   F   F   F
  0.4044148221271726  0.6101724300038001  0.4624736492929173   F   F   F
  0.4722931245665194  0.5596737886932672  0.5729988711091565   F   F   F
  0.6552684236953183  0.5165424048424470  0.4543399438695133   F   F   F
  0.5967309916701211  0.5535378348504167  0.5056109707055541   F   F   F
  0.5314074673932367  0.5941153005651714  0.5336729985293047   F   F   F
  0.5796732686089143  0.4997731718447866  0.4507473928409595   F   F   F
  0.4597225727494304  0.3324242564196762  0.3479493135371847   T   T   T
  0.3905180950192175  0.5252419063175111  0.4552418453041511   F   F   F
  0.4546447044334915  0.3188466737617164  0.4262969089271815   T   T   T
  0.5074804872141527  0.4592780196109629  0.3501259710292359   F   F   F
  0.6012877811302459  0.4669891268301640  0.5212355700313438   F   F   F
  0.5384608035519776  0.4312182275275163  0.4821288228790692   F   F   F
  0.4713083414346286  0.4805797151798927  0.5807598339419258   F   F   F
  0.3771163837573610  0.4514853175274567  0.4282230665427278   F   F   F
  0.4059018739390154  0.3822235888080883  0.4561785915149272   F   F   F
  0.5357818896390683  0.5680835373033233  0.4543473312664048   F   F   F
  0.4924712632432886  0.6367287407321953  0.4646113344718685   F   F   F
  0.4677327221812249  0.5829886973614862  0.4038343643763724   F   F   F
  0.5280944416629296  0.5063826634733033  0.5194466411805863   F   F   F
  0.6212454441397384  0.5105019604624417  0.3755946010283822   F   F   F
  0.6054499763524817  0.5821019035045651  0.4188664505762958   F   F   F
  0.4050790883739026  0.5245211222763402  0.5434909784116542   F   F   F
  0.3501991301704965  0.4712105003266054  0.5086275302985218   T   T   T
  0.4337127827298922  0.4577512713589528  0.3024625147061149   T   T   T
  0.5379102143648670  0.4217282067107080  0.5690061540578802   T   T   T
  0.3568510379135791  0.3897685456920963  0.5423511315192922   T   T   T
  0.4625951421883201  0.5516617238622956  0.4875128022361963   F   F   F
  0.6054290550675629  0.3748102321476686  0.5098236355111245   T   T   T
  0.4922847068115275  0.4397373470409988  0.6583452229870891   T   T   T
  0.5872018631055297  0.4683208870726460  0.3059658873067987   T   T   T
  0.4900497958562298  0.4037080615820798  0.4151644571778519   F   F   F
  0.4353616091883792  0.6747761870151517  0.4129759362969088   T   T   T
  0.4684581842970752  0.5379088296393006  0.6600981698630494   T   T   T
  0.5397532608265934  0.5319899791087650  0.3771480104995177   F   F   F
  0.6685520727974265  0.6005301047880456  0.4837439731776678   T   T   T
  0.6659143896395153  0.5193841276416175  0.5503886050722367   T   T   T
  0.3739836991040714  0.3355655517720209  0.3864207508622354   T   T   T
  0.6782884954831268  0.4362466456644100  0.4871652292133369   T   T   T
  0.5414622537956562  0.3217839369113921  0.3899093056250884   T   T   T
  0.3021200511525852  0.5032824236413225  0.4362336930309557   T   T   T
  0.3134277155825171  0.3966626136461681  0.4513836231212578   T   T   T
  0.5124054980363731  0.6256729753547067  0.6164780257885738   T   T   T
  0.4482997004863596  0.3756705802218403  0.5867185623233406   T   T   T
  0.3906132036900056  0.5816176781677699  0.6125957239247999   T   T   T
  0.4002909369503378  0.3080297279134522  0.5033577459718370   T   T   T
  0.4026254428826465  0.3720780564109462  0.2871286452421344   T   T   T
  0.3834257510111598  0.5339151020401256  0.2925223964642049   T   T   T
  0.6933905343578871  0.4610686553280014  0.3883185266931336   T   T   T
  0.3376207802805176  0.5721545182150113  0.5129265179435627   T   T   T
  0.5990819200644886  0.5728116518418201  0.3077212542775642   T   T   T
  0.6129173505563819  0.6145451247962272  0.5754485584720617   T   T   T
  0.4395722543566947  0.6156501251421450  0.3238952467791677   T   T   T
  0.5121618096909377  0.2501199065816905  0.4947729313847256   T   T   T
  0.4620293916147101  0.2495849238814049  0.4338047115712415   T   T   T
  0.4893688910738268  0.2296241707523675  0.4631264836658199   T   T   T
  0.4929671983927515  0.1907534508925287  0.4603919427308098   T   T   T
 
  0.00000000E+00  0.00000000E+00  0.00000000E+00
  0.00000000E+00  0.00000000E+00  0.00000000E+00
  0.00000000E+00  0.00000000E+00  0.00000000E+00
  0.00000000E+00  0.00000000E+00  0.00000000E+00
  0.00000000E+00  0.00000000E+00  0.00000000E+00
  0.00000000E+00  0.00000000E+00  0.00000000E+00
  0.00000000E+00  0.00000000E+00  0.00000000E+00
  0.00000000E+00  0.00000000E+00  0.00000000E+00
  0.00000000E+00  0.00000000E+00  0.00000000E+00
  0.00000000E+00  0.00000000E+00  0.00000000E+00
  0.00000000E+00  0.00000000E+00  0.00000000E+00
  0.00000000E+00  0.00000000E+00  0.00000000E+00
  0.00000000E+00  0.00000000E+00  0.00000000E+00
  0.00000000E+00  0.00000000E+00  0.00000000E+00
  0.00000000E+00  0.00000000E+00  0.00000000E+00
  0.00000000E+00  0.00000000E+00  0.00000000E+00
  0.00000000E+00  0.00000000E+00  0.00000000E+00
  0.00000000E+00  0.00000000E+00  0.00000000E+00
  0.00000000E+00  0.00000000E+00  0.00000000E+00
  0.00000000E+00  0.00000000E+00  0.00000000E+00
  0.00000000E+00  0.00000000E+00  0.00000000E+00
  0.00000000E+00  0.00000000E+00  0.00000000E+00
  0.00000000E+00  0.00000000E+00  0.00000000E+00
  0.00000000E+00  0.00000000E+00  0.00000000E+00
  0.00000000E+00  0.00000000E+00  0.00000000E+00
  0.00000000E+00  0.00000000E+00  0.00000000E+00
  0.00000000E+00  0.00000000E+00  0.00000000E+00
  0.00000000E+00  0.00000000E+00  0.00000000E+00
  0.00000000E+00  0.00000000E+00  0.00000000E+00
  0.00000000E+00  0.00000000E+00  0.00000000E+00
  0.00000000E+00  0.00000000E+00  0.00000000E+00
  0.00000000E+00  0.00000000E+00  0.00000000E+00
  0.00000000E+00  0.00000000E+00  0.00000000E+00
  0.00000000E+00  0.00000000E+00  0.00000000E+00
  0.00000000E+00  0.00000000E+00  0.00000000E+00
  0.00000000E+00  0.00000000E+00  0.00000000E+00
  0.00000000E+00  0.00000000E+00  0.00000000E+00
  0.00000000E+00  0.00000000E+00  0.00000000E+00
  0.00000000E+00  0.00000000E+00  0.00000000E+00
  0.00000000E+00  0.00000000E+00  0.00000000E+00
  0.00000000E+00  0.00000000E+00  0.00000000E+00
  0.00000000E+00  0.00000000E+00  0.00000000E+00
  0.00000000E+00  0.00000000E+00  0.00000000E+00
  0.00000000E+00  0.00000000E+00  0.00000000E+00
  0.00000000E+00  0.00000000E+00  0.00000000E+00
  0.00000000E+00  0.00000000E+00  0.00000000E+00
  0.00000000E+00  0.00000000E+00  0.00000000E+00
  0.00000000E+00  0.00000000E+00  0.00000000E+00
  0.00000000E+00  0.00000000E+00  0.00000000E+00
  0.00000000E+00  0.00000000E+00  0.00000000E+00
  0.00000000E+00  0.00000000E+00  0.00000000E+00
  0.00000000E+00  0.00000000E+00  0.00000000E+00
  0.00000000E+00  0.00000000E+00  0.00000000E+00
  0.00000000E+00  0.00000000E+00  0.00000000E+00
  0.00000000E+00  0.00000000E+00  0.00000000E+00
  0.00000000E+00  0.00000000E+00  0.00000000E+00
  0.00000000E+00  0.00000000E+00  0.00000000E+00
  0.00000000E+00  0.00000000E+00  0.00000000E+00
  0.00000000E+00  0.00000000E+00  0.00000000E+00
  0.00000000E+00  0.00000000E+00  0.00000000E+00
  0.00000000E+00  0.00000000E+00  0.00000000E+00
  0.00000000E+00  0.00000000E+00  0.00000000E+00
  0.00000000E+00  0.00000000E+00  0.00000000E+00
  0.00000000E+00  0.00000000E+00  0.00000000E+00
  0.00000000E+00  0.00000000E+00  0.00000000E+00
  0.00000000E+00  0.00000000E+00  0.00000000E+00
  0.00000000E+00  0.00000000E+00  0.00000000E+00
  0.00000000E+00  0.00000000E+00  0.00000000E+00
  0.00000000E+00  0.00000000E+00  0.00000000E+00
  0.00000000E+00  0.00000000E+00  0.00000000E+00
  0.00000000E+00  0.00000000E+00  0.00000000E+00
  0.00000000E+00  0.00000000E+00  0.00000000E+00
