La Co Ni Sn Bi O  C  H                  
   1.00000000000000     
    29.1044006348000011    0.0000000000000000    0.0000000000000000
     0.4451680315000000   28.3694074727000007    0.0000000000000000
     0.0682082826000000    0.3036559964000000   28.5240018092999996
   La   Co   Ni   Sn   Bi   O    C    H 
    14    13    13    14    14     2     1     1
Selective dynamics
Direct
  0.5924541667887148  0.4205326454722600  0.4081067582052842   T   T   T
  0.6853229219516227  0.5709648634948012  0.3805621369708796   T   T   T
  0.4956269103046874  0.5268644339635759  0.2821203043938794   T   T   T
  0.5644515598205597  0.5216181156427316  0.6045731790239085   T   T   T
  0.5087119141821496  0.3871613953717918  0.3051865471352677   T   T   T
  0.5748631070509552  0.6556955293138672  0.4832940845038049   T   T   T
  0.5106651904661829  0.3382408497999123  0.4989651064297646   T   T   T
  0.5353499191099603  0.6375187679617623  0.3751249645551557   T   T   T
  0.4352679066746263  0.6428526909095769  0.5359263656290405   T   T   T
  0.4373551010143757  0.5015757590148624  0.3842817269995109   F   F   F
  0.4437846394494898  0.4460183835780285  0.5005161578087822   F   F   F
  0.3875466883268082  0.4658815031138460  0.6086470570256729   T   T   T
  0.3446775761618307  0.4442318574105805  0.3466299117569347   T   T   T
  0.3621997168457796  0.5854205458246752  0.3933491149295623   T   T   T
  0.4217425606853311  0.4061295180575186  0.3699802678458894   F   F   F
  0.5011311695957161  0.4887203336762909  0.4395023580252015   F   F   F
  0.4044148221271726  0.6101724300038001  0.4624736492929173   F   F   F
  0.4722931245665194  0.5596737886932672  0.5729988711091565   F   F   F
  0.6552684236953183  0.5165424048424470  0.4543399438695133   F   F   F
  0.5967309916701211  0.5535378348504167  0.5056109707055541   F   F   F
  0.5314074673932367  0.5941153005651714  0.5336729985293047   F   F   F
  0.5796732686089143  0.4997731718447866  0.4507473928409595   F   F   F
  0.4608384922176699  0.3308590793767592  0.3445774227679625   T   T   T
  0.3905180950192175  0.5252419063175111  0.4552418453041511   F   F   F
  0.4542595055435366  0.3244798198298178  0.4238373120204233   T   T   T
  0.5074804872141527  0.4592780196109629  0.3501259710292359   F   F   F
  0.6012877811302459  0.4669891268301640  0.5212355700313438   F   F   F
  0.5384608035519776  0.4312182275275163  0.4821288228790692   F   F   F
  0.4713083414346286  0.4805797151798927  0.5807598339419258   F   F   F
  0.3771163837573610  0.4514853175274567  0.4282230665427278   F   F   F
  0.4059018739390154  0.3822235888080883  0.4561785915149272   F   F   F
  0.5357818896390683  0.5680835373033233  0.4543473312664048   F   F   F
  0.4924712632432886  0.6367287407321953  0.4646113344718685   F   F   F
  0.4677327221812249  0.5829886973614862  0.4038343643763724   F   F   F
  0.5280944416629296  0.5063826634733033  0.5194466411805863   F   F   F
  0.6212454441397384  0.5105019604624417  0.3755946010283822   F   F   F
  0.6054499763524817  0.5821019035045651  0.4188664505762958   F   F   F
  0.4050790883739026  0.5245211222763402  0.5434909784116542   F   F   F
  0.3503599434597836  0.4707243688080850  0.5083720706784526   T   T   T
  0.4340069722424563  0.4570657689061525  0.3019704802527761   T   T   T
  0.5378687806808135  0.4220629563999062  0.5698548414383336   T   T   T
  0.3573681753742006  0.3872241048671629  0.5388885938168183   T   T   T
  0.4625951421883201  0.5516617238622956  0.4875128022361963   F   F   F
  0.6074728623353430  0.3762728503759221  0.5115924498908623   T   T   T
  0.4892497702242776  0.4375742620807382  0.6585165813652083   T   T   T
  0.5876071690568972  0.4672747353448711  0.3064965814215413   T   T   T
  0.4900497958562298  0.4037080615820798  0.4151644571778519   F   F   F
  0.4355784731867222  0.6743946574850298  0.4126572672135879   T   T   T
  0.4689162223397131  0.5380316520888836  0.6599266131212663   T   T   T
  0.5397532608265934  0.5319899791087650  0.3771480104995177   F   F   F
  0.6681554613971780  0.6008761326479198  0.4829214103503239   T   T   T
  0.6660693220997383  0.5194322773091046  0.5500926182479543   T   T   T
  0.3746766632111601  0.3348336435563893  0.3846355611766499   T   T   T
  0.6796658624911216  0.4370167466015125  0.4869986614730287   T   T   T
  0.5396229448570905  0.3185332881575455  0.3913473432481459   T   T   T
  0.3023731860285636  0.5032811790421347  0.4358920583549227   T   T   T
  0.3132516354289361  0.3958284883705914  0.4486323578579086   T   T   T
  0.5126002574308235  0.6256380838476314  0.6163912747473645   T   T   T
  0.4489466138808599  0.3732325434949562  0.5842705409794334   T   T   T
  0.3902984723997588  0.5796438697905876  0.6137146169082022   T   T   T
  0.4072317476947218  0.3061358798942334  0.5018116928291424   T   T   T
  0.4025198086293805  0.3714771873742723  0.2869035540365087   T   T   T
  0.3839869681601575  0.5334566553824935  0.2918981077549512   T   T   T
  0.6926917400509950  0.4602366321438364  0.3872411266983040   T   T   T
  0.3373163319797575  0.5717491458895984  0.5125021767561129   T   T   T
  0.5992516938932907  0.5722435851441423  0.3076102780779843   T   T   T
  0.6127110339831597  0.6147100936555129  0.5750428357955238   T   T   T
  0.4406260079429739  0.6146811405180297  0.3233993429738348   T   T   T
  0.5877255406992782  0.4990418914969930  0.6817190594861252   T   T   T
  0.5478055136424670  0.4438758771140877  0.7228354763097550   T   T   T
  0.5792182233599139  0.4736467133113843  0.7180558526118475   T   T   T
  0.6021409943857373  0.4790067230617141  0.7487365076414056   T   T   T
 
  0.00000000E+00  0.00000000E+00  0.00000000E+00
  0.00000000E+00  0.00000000E+00  0.00000000E+00
  0.00000000E+00  0.00000000E+00  0.00000000E+00
  0.00000000E+00  0.00000000E+00  0.00000000E+00
  0.00000000E+00  0.00000000E+00  0.00000000E+00
  0.00000000E+00  0.00000000E+00  0.00000000E+00
  0.00000000E+00  0.00000000E+00  0.00000000E+00
  0.00000000E+00  0.00000000E+00  0.00000000E+00
  0.00000000E+00  0.00000000E+00  0.00000000E+00
  0.00000000E+00  0.00000000E+00  0.00000000E+00
  0.00000000E+00  0.00000000E+00  0.00000000E+00
  0.00000000E+00  0.00000000E+00  0.00000000E+00
  0.00000000E+00  0.00000000E+00  0.00000000E+00
  0.00000000E+00  0.00000000E+00  0.00000000E+00
  0.00000000E+00  0.00000000E+00  0.00000000E+00
  0.00000000E+00  0.00000000E+00  0.00000000E+00
  0.00000000E+00  0.00000000E+00  0.00000000E+00
  0.00000000E+00  0.00000000E+00  0.00000000E+00
  0.00000000E+00  0.00000000E+00  0.00000000E+00
  0.00000000E+00  0.00000000E+00  0.00000000E+00
  0.00000000E+00  0.00000000E+00  0.00000000E+00
  0.00000000E+00  0.00000000E+00  0.00000000E+00
  0.00000000E+00  0.00000000E+00  0.00000000E+00
  0.00000000E+00  0.00000000E+00  0.00000000E+00
  0.00000000E+00  0.00000000E+00  0.00000000E+00
  0.00000000E+00  0.00000000E+00  0.00000000E+00
  0.00000000E+00  0.00000000E+00  0.00000000E+00
  0.00000000E+00  0.00000000E+00  0.00000000E+00
  0.00000000E+00  0.00000000E+00  0.00000000E+00
  0.00000000E+00  0.00000000E+00  0.00000000E+00
  0.00000000E+00  0.00000000E+00  0.00000000E+00
  0.00000000E+00  0.00000000E+00  0.00000000E+00
  0.00000000E+00  0.00000000E+00  0.00000000E+00
  0.00000000E+00  0.00000000E+00  0.00000000E+00
  0.00000000E+00  0.00000000E+00  0.00000000E+00
  0.00000000E+00  0.00000000E+00  0.00000000E+00
  0.00000000E+00  0.00000000E+00  0.00000000E+00
  0.00000000E+00  0.00000000E+00  0.00000000E+00
  0.00000000E+00  0.00000000E+00  0.00000000E+00
  0.00000000E+00  0.00000000E+00  0.00000000E+00
  0.00000000E+00  0.00000000E+00  0.00000000E+00
  0.00000000E+00  0.00000000E+00  0.00000000E+00
  0.00000000E+00  0.00000000E+00  0.00000000E+00
  0.00000000E+00  0.00000000E+00  0.00000000E+00
  0.00000000E+00  0.00000000E+00  0.00000000E+00
  0.00000000E+00  0.00000000E+00  0.00000000E+00
  0.00000000E+00  0.00000000E+00  0.00000000E+00
  0.00000000E+00  0.00000000E+00  0.00000000E+00
  0.00000000E+00  0.00000000E+00  0.00000000E+00
  0.00000000E+00  0.00000000E+00  0.00000000E+00
  0.00000000E+00  0.00000000E+00  0.00000000E+00
  0.00000000E+00  0.00000000E+00  0.00000000E+00
  0.00000000E+00  0.00000000E+00  0.00000000E+00
  0.00000000E+00  0.00000000E+00  0.00000000E+00
  0.00000000E+00  0.00000000E+00  0.00000000E+00
  0.00000000E+00  0.00000000E+00  0.00000000E+00
  0.00000000E+00  0.00000000E+00  0.00000000E+00
  0.00000000E+00  0.00000000E+00  0.00000000E+00
  0.00000000E+00  0.00000000E+00  0.00000000E+00
  0.00000000E+00  0.00000000E+00  0.00000000E+00
  0.00000000E+00  0.00000000E+00  0.00000000E+00
  0.00000000E+00  0.00000000E+00  0.00000000E+00
  0.00000000E+00  0.00000000E+00  0.00000000E+00
  0.00000000E+00  0.00000000E+00  0.00000000E+00
  0.00000000E+00  0.00000000E+00  0.00000000E+00
  0.00000000E+00  0.00000000E+00  0.00000000E+00
  0.00000000E+00  0.00000000E+00  0.00000000E+00
  0.00000000E+00  0.00000000E+00  0.00000000E+00
  0.00000000E+00  0.00000000E+00  0.00000000E+00
  0.00000000E+00  0.00000000E+00  0.00000000E+00
  0.00000000E+00  0.00000000E+00  0.00000000E+00
  0.00000000E+00  0.00000000E+00  0.00000000E+00
