La Co Ni Sn Bi O  C  H                  
   1.00000000000000     
    29.1044006348000011    0.0000000000000000    0.0000000000000000
     0.4451680315000000   28.3694074727000007    0.0000000000000000
     0.0682082826000000    0.3036559964000000   28.5240018092999996
   La   Co   Ni   Sn   Bi   O    C    H 
    14    13    13    14    14     2     1     1
Selective dynamics
Direct
  0.5920289181082399  0.4210285823769495  0.4059087038721153   T   T   T
  0.6846775337951662  0.5718540119922623  0.3809168477682516   T   T   T
  0.4950822934425335  0.5281196285272250  0.2824614243525371   T   T   T
  0.5619808065815696  0.5219222305866223  0.6024347122836770   T   T   T
  0.5084020046348565  0.3875574726494752  0.3051043161934515   T   T   T
  0.5754807012624504  0.6550215768311997  0.4836292181934501   T   T   T
  0.5100065705108726  0.3369129994055300  0.5002290383416217   T   T   T
  0.5349594123200085  0.6378995902717598  0.3751006073731894   T   T   T
  0.4361855514864301  0.6434697813072946  0.5356140919466511   T   T   T
  0.4373551010143757  0.5015757590148624  0.3842817269995109   F   F   F
  0.4437846394494898  0.4460183835780285  0.5005161578087822   F   F   F
  0.3872643459104022  0.4671754919170004  0.6094918338665732   T   T   T
  0.3442893387968109  0.4444095695917161  0.3470860559683100   T   T   T
  0.3619848176326974  0.5855940615450713  0.3938470479190607   T   T   T
  0.4217425606853311  0.4061295180575186  0.3699802678458894   F   F   F
  0.5011311695957161  0.4887203336762909  0.4395023580252015   F   F   F
  0.4044148221271726  0.6101724300038001  0.4624736492929173   F   F   F
  0.4722931245665194  0.5596737886932672  0.5729988711091565   F   F   F
  0.6552684236953183  0.5165424048424470  0.4543399438695133   F   F   F
  0.5967309916701211  0.5535378348504167  0.5056109707055541   F   F   F
  0.5314074673932367  0.5941153005651714  0.5336729985293047   F   F   F
  0.5796732686089143  0.4997731718447866  0.4507473928409595   F   F   F
  0.4598960648452732  0.3304283808529890  0.3438709446183548   T   T   T
  0.3905180950192175  0.5252419063175111  0.4552418453041511   F   F   F
  0.4540897670248606  0.3244441402315214  0.4236003882585070   T   T   T
  0.5074804872141527  0.4592780196109629  0.3501259710292359   F   F   F
  0.6012877811302459  0.4669891268301640  0.5212355700313438   F   F   F
  0.5384608035519776  0.4312182275275163  0.4821288228790692   F   F   F
  0.4713083414346286  0.4805797151798927  0.5807598339419258   F   F   F
  0.3771163837573610  0.4514853175274567  0.4282230665427278   F   F   F
  0.4059018739390154  0.3822235888080883  0.4561785915149272   F   F   F
  0.5357818896390683  0.5680835373033233  0.4543473312664048   F   F   F
  0.4924712632432886  0.6367287407321953  0.4646113344718685   F   F   F
  0.4677327221812249  0.5829886973614862  0.4038343643763724   F   F   F
  0.5280944416629296  0.5063826634733033  0.5194466411805863   F   F   F
  0.6212454441397384  0.5105019604624417  0.3755946010283822   F   F   F
  0.6054499763524817  0.5821019035045651  0.4188664505762958   F   F   F
  0.4050790883739026  0.5245211222763402  0.5434909784116542   F   F   F
  0.3506742069296153  0.4701017761039530  0.5088450085155226   T   T   T
  0.4337966130319980  0.4574854083163589  0.3021747528994806   T   T   T
  0.5388604100703599  0.4222701841422781  0.5686824221431833   T   T   T
  0.3580880391601566  0.3869263899166347  0.5399148350219964   T   T   T
  0.4625951421883201  0.5516617238622956  0.4875128022361963   F   F   F
  0.6089736603157997  0.3776882550682589  0.5031370754223834   T   T   T
  0.4919917299794169  0.4389919495611678  0.6577583520934182   T   T   T
  0.5871438291941328  0.4684684238186690  0.3052132179834156   T   T   T
  0.4900497958562298  0.4037080615820798  0.4151644571778519   F   F   F
  0.4354661377834606  0.6747781021960446  0.4130500908205590   T   T   T
  0.4680188289756741  0.5371429916293176  0.6600912825546440   T   T   T
  0.5397532608265934  0.5319899791087650  0.3771480104995177   F   F   F
  0.6691900809291358  0.5994318098929312  0.4843217337814471   T   T   T
  0.6649334391434735  0.5192895432413764  0.5520850155936280   T   T   T
  0.3743646985513944  0.3350636971176988  0.3847567420072895   T   T   T
  0.6825512072596042  0.4388480022822199  0.4884228708788373   T   T   T
  0.5388384500049790  0.3185899919947298  0.3908778559596820   T   T   T
  0.3024268266076388  0.5032499847910403  0.4368092606818306   T   T   T
  0.3134113863024958  0.3959976066310973  0.4499308604780076   T   T   T
  0.5122619932969558  0.6254751290661442  0.6168610166794275   T   T   T
  0.4494792471196200  0.3750059428650711  0.5855929886240244   T   T   T
  0.3903351327218272  0.5806647032344956  0.6129108616583100   T   T   T
  0.4059002903857345  0.3057032144076208  0.5011274660855535   T   T   T
  0.4020023367373081  0.3721461634499383  0.2867473047743365   T   T   T
  0.3835111389104405  0.5337195808270873  0.2925431456779116   T   T   T
  0.6930141935509437  0.4609205255337444  0.3878483350552689   T   T   T
  0.3376459718276524  0.5722224949063762  0.5128554987283427   T   T   T
  0.5990055975365384  0.5730312759311106  0.3076516673644126   T   T   T
  0.6127161321071074  0.6140913174913050  0.5759717579731704   T   T   T
  0.4398341606338881  0.6155161725125408  0.3238397469057077   T   T   T
  0.5652041232924490  0.2890302419831380  0.5461438560837514   T   T   T
  0.6289477007261827  0.3300665960904534  0.5652572530138239   T   T   T
  0.6021888166186311  0.2949408088653661  0.5687677873117393   T   T   T
  0.6128646429466963  0.2670063387893075  0.5942623349415801   T   T   T
 
  0.00000000E+00  0.00000000E+00  0.00000000E+00
  0.00000000E+00  0.00000000E+00  0.00000000E+00
  0.00000000E+00  0.00000000E+00  0.00000000E+00
  0.00000000E+00  0.00000000E+00  0.00000000E+00
  0.00000000E+00  0.00000000E+00  0.00000000E+00
  0.00000000E+00  0.00000000E+00  0.00000000E+00
  0.00000000E+00  0.00000000E+00  0.00000000E+00
  0.00000000E+00  0.00000000E+00  0.00000000E+00
  0.00000000E+00  0.00000000E+00  0.00000000E+00
  0.00000000E+00  0.00000000E+00  0.00000000E+00
  0.00000000E+00  0.00000000E+00  0.00000000E+00
  0.00000000E+00  0.00000000E+00  0.00000000E+00
  0.00000000E+00  0.00000000E+00  0.00000000E+00
  0.00000000E+00  0.00000000E+00  0.00000000E+00
  0.00000000E+00  0.00000000E+00  0.00000000E+00
  0.00000000E+00  0.00000000E+00  0.00000000E+00
  0.00000000E+00  0.00000000E+00  0.00000000E+00
  0.00000000E+00  0.00000000E+00  0.00000000E+00
  0.00000000E+00  0.00000000E+00  0.00000000E+00
  0.00000000E+00  0.00000000E+00  0.00000000E+00
  0.00000000E+00  0.00000000E+00  0.00000000E+00
  0.00000000E+00  0.00000000E+00  0.00000000E+00
  0.00000000E+00  0.00000000E+00  0.00000000E+00
  0.00000000E+00  0.00000000E+00  0.00000000E+00
  0.00000000E+00  0.00000000E+00  0.00000000E+00
  0.00000000E+00  0.00000000E+00  0.00000000E+00
  0.00000000E+00  0.00000000E+00  0.00000000E+00
  0.00000000E+00  0.00000000E+00  0.00000000E+00
  0.00000000E+00  0.00000000E+00  0.00000000E+00
  0.00000000E+00  0.00000000E+00  0.00000000E+00
  0.00000000E+00  0.00000000E+00  0.00000000E+00
  0.00000000E+00  0.00000000E+00  0.00000000E+00
  0.00000000E+00  0.00000000E+00  0.00000000E+00
  0.00000000E+00  0.00000000E+00  0.00000000E+00
  0.00000000E+00  0.00000000E+00  0.00000000E+00
  0.00000000E+00  0.00000000E+00  0.00000000E+00
  0.00000000E+00  0.00000000E+00  0.00000000E+00
  0.00000000E+00  0.00000000E+00  0.00000000E+00
  0.00000000E+00  0.00000000E+00  0.00000000E+00
  0.00000000E+00  0.00000000E+00  0.00000000E+00
  0.00000000E+00  0.00000000E+00  0.00000000E+00
  0.00000000E+00  0.00000000E+00  0.00000000E+00
  0.00000000E+00  0.00000000E+00  0.00000000E+00
  0.00000000E+00  0.00000000E+00  0.00000000E+00
  0.00000000E+00  0.00000000E+00  0.00000000E+00
  0.00000000E+00  0.00000000E+00  0.00000000E+00
  0.00000000E+00  0.00000000E+00  0.00000000E+00
  0.00000000E+00  0.00000000E+00  0.00000000E+00
  0.00000000E+00  0.00000000E+00  0.00000000E+00
  0.00000000E+00  0.00000000E+00  0.00000000E+00
  0.00000000E+00  0.00000000E+00  0.00000000E+00
  0.00000000E+00  0.00000000E+00  0.00000000E+00
  0.00000000E+00  0.00000000E+00  0.00000000E+00
  0.00000000E+00  0.00000000E+00  0.00000000E+00
  0.00000000E+00  0.00000000E+00  0.00000000E+00
  0.00000000E+00  0.00000000E+00  0.00000000E+00
  0.00000000E+00  0.00000000E+00  0.00000000E+00
  0.00000000E+00  0.00000000E+00  0.00000000E+00
  0.00000000E+00  0.00000000E+00  0.00000000E+00
  0.00000000E+00  0.00000000E+00  0.00000000E+00
  0.00000000E+00  0.00000000E+00  0.00000000E+00
  0.00000000E+00  0.00000000E+00  0.00000000E+00
  0.00000000E+00  0.00000000E+00  0.00000000E+00
  0.00000000E+00  0.00000000E+00  0.00000000E+00
  0.00000000E+00  0.00000000E+00  0.00000000E+00
  0.00000000E+00  0.00000000E+00  0.00000000E+00
  0.00000000E+00  0.00000000E+00  0.00000000E+00
  0.00000000E+00  0.00000000E+00  0.00000000E+00
  0.00000000E+00  0.00000000E+00  0.00000000E+00
  0.00000000E+00  0.00000000E+00  0.00000000E+00
  0.00000000E+00  0.00000000E+00  0.00000000E+00
  0.00000000E+00  0.00000000E+00  0.00000000E+00
