La Co Ni Sn Bi O  C  H                  
   1.00000000000000     
    29.1044006348000011    0.0000000000000000    0.0000000000000000
     0.4451680315000000   28.3694074727000007    0.0000000000000000
     0.0682082826000000    0.3036559964000000   28.5240018092999996
   La   Co   Ni   Sn   Bi   O    C    H 
    14    13    13    14    14     2     1     1
Selective dynamics
Direct
  0.5922983826561902  0.4205158988317574  0.4077635220689225   T   T   T
  0.6855001435848056  0.5710586514880411  0.3810830338411966   T   T   T
  0.4954639292368532  0.5279605952209534  0.2825177579372313   T   T   T
  0.5623716490746377  0.5216649352280818  0.6019915235528427   T   T   T
  0.5089951051823426  0.3869362857275372  0.3055411602821155   T   T   T
  0.5751774575569137  0.6554584150279682  0.4833020832390479   T   T   T
  0.5087629636295379  0.3381891853465512  0.5000504061897926   T   T   T
  0.5348722704008747  0.6376295726037763  0.3750967681681107   T   T   T
  0.4358661609634635  0.6437658840833224  0.5350423799197163   T   T   T
  0.4373551010143757  0.5015757590148624  0.3842817269995109   F   F   F
  0.4437846394494898  0.4460183835780285  0.5005161578087822   F   F   F
  0.3825148749519907  0.4669779002302996  0.6116389863106138   T   T   T
  0.3445478100522664  0.4443228755489615  0.3466744847913071   T   T   T
  0.3616915354933353  0.5857268743002140  0.3937742227380169   T   T   T
  0.4217425606853311  0.4061295180575186  0.3699802678458894   F   F   F
  0.5011311695957161  0.4887203336762909  0.4395023580252015   F   F   F
  0.4044148221271726  0.6101724300038001  0.4624736492929173   F   F   F
  0.4722931245665194  0.5596737886932672  0.5729988711091565   F   F   F
  0.6552684236953183  0.5165424048424470  0.4543399438695133   F   F   F
  0.5967309916701211  0.5535378348504167  0.5056109707055541   F   F   F
  0.5314074673932367  0.5941153005651714  0.5336729985293047   F   F   F
  0.5796732686089143  0.4997731718447866  0.4507473928409595   F   F   F
  0.4609516448624291  0.3308390334501500  0.3449248389011057   T   T   T
  0.3905180950192175  0.5252419063175111  0.4552418453041511   F   F   F
  0.4546828469868739  0.3245279055598720  0.4243185029608840   T   T   T
  0.5074804872141527  0.4592780196109629  0.3501259710292359   F   F   F
  0.6012877811302459  0.4669891268301640  0.5212355700313438   F   F   F
  0.5384608035519776  0.4312182275275163  0.4821288228790692   F   F   F
  0.4713083414346286  0.4805797151798927  0.5807598339419258   F   F   F
  0.3771163837573610  0.4514853175274567  0.4282230665427278   F   F   F
  0.4059018739390154  0.3822235888080883  0.4561785915149272   F   F   F
  0.5357818896390683  0.5680835373033233  0.4543473312664048   F   F   F
  0.4924712632432886  0.6367287407321953  0.4646113344718685   F   F   F
  0.4677327221812249  0.5829886973614862  0.4038343643763724   F   F   F
  0.5280944416629296  0.5063826634733033  0.5194466411805863   F   F   F
  0.6212454441397384  0.5105019604624417  0.3755946010283822   F   F   F
  0.6054499763524817  0.5821019035045651  0.4188664505762958   F   F   F
  0.4050790883739026  0.5245211222763402  0.5434909784116542   F   F   F
  0.3508774838906505  0.4700216713934931  0.5077371976263345   T   T   T
  0.4339312057229175  0.4572790213460685  0.3021245296905458   T   T   T
  0.5381704869743252  0.4217905486813587  0.5688080175050665   T   T   T
  0.3577553684855200  0.3868384437631828  0.5388151363239616   T   T   T
  0.4625951421883201  0.5516617238622956  0.4875128022361963   F   F   F
  0.6067180385677812  0.3752031544769175  0.5101406104182862   T   T   T
  0.4934573492483684  0.4383626074549178  0.6578166757368323   T   T   T
  0.5872881847038729  0.4677181148108558  0.3063435953435163   T   T   T
  0.4900497958562298  0.4037080615820798  0.4151644571778519   F   F   F
  0.4354195663589111  0.6747433345986388  0.4128597731235912   T   T   T
  0.4675700752390824  0.5359662063106989  0.6595944815443719   T   T   T
  0.5397532608265934  0.5319899791087650  0.3771480104995177   F   F   F
  0.6683790298517889  0.6004820955753253  0.4837149898944807   T   T   T
  0.6658478160255095  0.5192593574450030  0.5505798450755245   T   T   T
  0.3749403885247208  0.3345431838514111  0.3849798430707914   T   T   T
  0.6788736719112571  0.4365449801902331  0.4866265268079707   T   T   T
  0.5398681756700743  0.3185905873626748  0.3920460617525131   T   T   T
  0.3022978994685496  0.5030817781298398  0.4362971859562957   T   T   T
  0.3133487707544235  0.3956759220756959  0.4486571803752108   T   T   T
  0.5118029838381943  0.6250712053199783  0.6168206614685889   T   T   T
  0.4486625471208296  0.3758424754232410  0.5860308038090798   T   T   T
  0.3911391105737775  0.5806969604097680  0.6124985661889237   T   T   T
  0.4054499218093381  0.3054337568634269  0.5011391917146664   T   T   T
  0.4026549750929950  0.3714847152733706  0.2871382612537012   T   T   T
  0.3838052422407994  0.5336590136292447  0.2923819088099981   T   T   T
  0.6926508465460859  0.4602407119598618  0.3872596514642368   T   T   T
  0.3376668437281640  0.5717149009329440  0.5128824375104111   T   T   T
  0.5996799505974501  0.5726605916941746  0.3080731430901187   T   T   T
  0.6124042843627097  0.6143611175368509  0.5754216152228983   T   T   T
  0.4398119287764896  0.6153845985778796  0.3237480590513870   T   T   T
  0.3315727712027011  0.4772926059505941  0.6812072749662276   T   T   T
  0.2999730287019452  0.4961504994640157  0.6112858061285509   T   T   T
  0.2975300156048338  0.4909783255270145  0.6557256005995155   T   T   T
  0.2641446218671612  0.4987185710936722  0.6733951339634048   T   T   T
 
  0.00000000E+00  0.00000000E+00  0.00000000E+00
  0.00000000E+00  0.00000000E+00  0.00000000E+00
  0.00000000E+00  0.00000000E+00  0.00000000E+00
  0.00000000E+00  0.00000000E+00  0.00000000E+00
  0.00000000E+00  0.00000000E+00  0.00000000E+00
  0.00000000E+00  0.00000000E+00  0.00000000E+00
  0.00000000E+00  0.00000000E+00  0.00000000E+00
  0.00000000E+00  0.00000000E+00  0.00000000E+00
  0.00000000E+00  0.00000000E+00  0.00000000E+00
  0.00000000E+00  0.00000000E+00  0.00000000E+00
  0.00000000E+00  0.00000000E+00  0.00000000E+00
  0.00000000E+00  0.00000000E+00  0.00000000E+00
  0.00000000E+00  0.00000000E+00  0.00000000E+00
  0.00000000E+00  0.00000000E+00  0.00000000E+00
  0.00000000E+00  0.00000000E+00  0.00000000E+00
  0.00000000E+00  0.00000000E+00  0.00000000E+00
  0.00000000E+00  0.00000000E+00  0.00000000E+00
  0.00000000E+00  0.00000000E+00  0.00000000E+00
  0.00000000E+00  0.00000000E+00  0.00000000E+00
  0.00000000E+00  0.00000000E+00  0.00000000E+00
  0.00000000E+00  0.00000000E+00  0.00000000E+00
  0.00000000E+00  0.00000000E+00  0.00000000E+00
  0.00000000E+00  0.00000000E+00  0.00000000E+00
  0.00000000E+00  0.00000000E+00  0.00000000E+00
  0.00000000E+00  0.00000000E+00  0.00000000E+00
  0.00000000E+00  0.00000000E+00  0.00000000E+00
  0.00000000E+00  0.00000000E+00  0.00000000E+00
  0.00000000E+00  0.00000000E+00  0.00000000E+00
  0.00000000E+00  0.00000000E+00  0.00000000E+00
  0.00000000E+00  0.00000000E+00  0.00000000E+00
  0.00000000E+00  0.00000000E+00  0.00000000E+00
  0.00000000E+00  0.00000000E+00  0.00000000E+00
  0.00000000E+00  0.00000000E+00  0.00000000E+00
  0.00000000E+00  0.00000000E+00  0.00000000E+00
  0.00000000E+00  0.00000000E+00  0.00000000E+00
  0.00000000E+00  0.00000000E+00  0.00000000E+00
  0.00000000E+00  0.00000000E+00  0.00000000E+00
  0.00000000E+00  0.00000000E+00  0.00000000E+00
  0.00000000E+00  0.00000000E+00  0.00000000E+00
  0.00000000E+00  0.00000000E+00  0.00000000E+00
  0.00000000E+00  0.00000000E+00  0.00000000E+00
  0.00000000E+00  0.00000000E+00  0.00000000E+00
  0.00000000E+00  0.00000000E+00  0.00000000E+00
  0.00000000E+00  0.00000000E+00  0.00000000E+00
  0.00000000E+00  0.00000000E+00  0.00000000E+00
  0.00000000E+00  0.00000000E+00  0.00000000E+00
  0.00000000E+00  0.00000000E+00  0.00000000E+00
  0.00000000E+00  0.00000000E+00  0.00000000E+00
  0.00000000E+00  0.00000000E+00  0.00000000E+00
  0.00000000E+00  0.00000000E+00  0.00000000E+00
  0.00000000E+00  0.00000000E+00  0.00000000E+00
  0.00000000E+00  0.00000000E+00  0.00000000E+00
  0.00000000E+00  0.00000000E+00  0.00000000E+00
  0.00000000E+00  0.00000000E+00  0.00000000E+00
  0.00000000E+00  0.00000000E+00  0.00000000E+00
  0.00000000E+00  0.00000000E+00  0.00000000E+00
  0.00000000E+00  0.00000000E+00  0.00000000E+00
  0.00000000E+00  0.00000000E+00  0.00000000E+00
  0.00000000E+00  0.00000000E+00  0.00000000E+00
  0.00000000E+00  0.00000000E+00  0.00000000E+00
  0.00000000E+00  0.00000000E+00  0.00000000E+00
  0.00000000E+00  0.00000000E+00  0.00000000E+00
  0.00000000E+00  0.00000000E+00  0.00000000E+00
  0.00000000E+00  0.00000000E+00  0.00000000E+00
  0.00000000E+00  0.00000000E+00  0.00000000E+00
  0.00000000E+00  0.00000000E+00  0.00000000E+00
  0.00000000E+00  0.00000000E+00  0.00000000E+00
  0.00000000E+00  0.00000000E+00  0.00000000E+00
  0.00000000E+00  0.00000000E+00  0.00000000E+00
  0.00000000E+00  0.00000000E+00  0.00000000E+00
  0.00000000E+00  0.00000000E+00  0.00000000E+00
  0.00000000E+00  0.00000000E+00  0.00000000E+00
