La Co Ni Sn Bi O  C  H                  
   1.00000000000000     
    29.1044006348000011    0.0000000000000000    0.0000000000000000
     0.4451680315000000   28.3694074727000007    0.0000000000000000
     0.0682082826000000    0.3036559964000000   28.5240018092999996
   La   Co   Ni   Sn   Bi   O    C    H 
    14    13    13    14    14     2     1     1
Selective dynamics
Direct
  0.5921057499144782  0.4206592711290929  0.4076931150435978   T   T   T
  0.6892667373511556  0.5721668477259172  0.3760985816038105   T   T   T
  0.4956327908568090  0.5270943072014239  0.2819592368964752   T   T   T
  0.5627167949620062  0.5220147314096469  0.6019723142522310   T   T   T
  0.5093067243339710  0.3871726206078357  0.3055661667796326   T   T   T
  0.5753347466003382  0.6555459456678828  0.4829456337062089   T   T   T
  0.5086286595540143  0.3382599408475649  0.4997287340856763   T   T   T
  0.5352232049883839  0.6377067288548152  0.3750266199071326   T   T   T
  0.4359400661789082  0.6433631157913388  0.5355988480236130   T   T   T
  0.4373551010143757  0.5015757590148624  0.3842817269995109   F   F   F
  0.4437846394494898  0.4460183835780285  0.5005161578087822   F   F   F
  0.3873093122247452  0.4671908407494417  0.6096456655323034   T   T   T
  0.3445962036555546  0.4440236536370993  0.3468441417084149   T   T   T
  0.3620778049342487  0.5854296086139231  0.3936207414837711   T   T   T
  0.4217425606853311  0.4061295180575186  0.3699802678458894   F   F   F
  0.5011311695957161  0.4887203336762909  0.4395023580252015   F   F   F
  0.4044148221271726  0.6101724300038001  0.4624736492929173   F   F   F
  0.4722931245665194  0.5596737886932672  0.5729988711091565   F   F   F
  0.6552684236953183  0.5165424048424470  0.4543399438695133   F   F   F
  0.5967309916701211  0.5535378348504167  0.5056109707055541   F   F   F
  0.5314074673932367  0.5941153005651714  0.5336729985293047   F   F   F
  0.5796732686089143  0.4997731718447866  0.4507473928409595   F   F   F
  0.4609353423372648  0.3309782939598213  0.3449309074333645   T   T   T
  0.3905180950192175  0.5252419063175111  0.4552418453041511   F   F   F
  0.4542995193066641  0.3245324832478879  0.4243446762141158   T   T   T
  0.5074804872141527  0.4592780196109629  0.3501259710292359   F   F   F
  0.6012877811302459  0.4669891268301640  0.5212355700313438   F   F   F
  0.5384608035519776  0.4312182275275163  0.4821288228790692   F   F   F
  0.4713083414346286  0.4805797151798927  0.5807598339419258   F   F   F
  0.3771163837573610  0.4514853175274567  0.4282230665427278   F   F   F
  0.4059018739390154  0.3822235888080883  0.4561785915149272   F   F   F
  0.5357818896390683  0.5680835373033233  0.4543473312664048   F   F   F
  0.4924712632432886  0.6367287407321953  0.4646113344718685   F   F   F
  0.4677327221812249  0.5829886973614862  0.4038343643763724   F   F   F
  0.5280944416629296  0.5063826634733033  0.5194466411805863   F   F   F
  0.6212454441397384  0.5105019604624417  0.3755946010283822   F   F   F
  0.6054499763524817  0.5821019035045651  0.4188664505762958   F   F   F
  0.4050790883739026  0.5245211222763402  0.5434909784116542   F   F   F
  0.3506817496844554  0.4702840671237400  0.5088097117647530   T   T   T
  0.4340218177443164  0.4571457143322187  0.3021603628887595   T   T   T
  0.5383376658298479  0.4219245871408269  0.5690848119117402   T   T   T
  0.3576684858607786  0.3872859712950210  0.5399620065568875   T   T   T
  0.4625951421883201  0.5516617238622956  0.4875128022361963   F   F   F
  0.6065362828683150  0.3751064603388616  0.5102475512294002   T   T   T
  0.4918976914080815  0.4390535402483413  0.6580360326703497   T   T   T
  0.5878738202594935  0.4677542936355152  0.3063524832773187   T   T   T
  0.4900497958562298  0.4037080615820798  0.4151644571778519   F   F   F
  0.4354262637486158  0.6744439761073162  0.4124873202113301   T   T   T
  0.4684914960647789  0.5371661890240613  0.6599816465053582   T   T   T
  0.5397532608265934  0.5319899791087650  0.3771480104995177   F   F   F
  0.6681601187788033  0.6000230964085338  0.4817815961761009   T   T   T
  0.6660380130109371  0.5193408026114076  0.5501730267689576   T   T   T
  0.3748217421520080  0.3347033400746677  0.3848616664043444   T   T   T
  0.6788017238691955  0.4363509668083516  0.4864032672344030   T   T   T
  0.5395709899516484  0.3184672526446247  0.3921365293013917   T   T   T
  0.3024556879443961  0.5030542724643555  0.4365402493157749   T   T   T
  0.3135143066214436  0.3958156812833087  0.4497102184635524   T   T   T
  0.5125243975338987  0.6253882682251237  0.6166895467620579   T   T   T
  0.4489906563151202  0.3748067177754413  0.5857141040084795   T   T   T
  0.3904409473619189  0.5805014101596203  0.6130799576223547   T   T   T
  0.4050927648934985  0.3057097542329857  0.5014144741035802   T   T   T
  0.4029434973206549  0.3714974309917706  0.2870245926784974   T   T   T
  0.3838540692933066  0.5333937378761793  0.2920634515078682   T   T   T
  0.6924510708269840  0.4605513978864343  0.3877526624707773   T   T   T
  0.3376134145345602  0.5722118538722489  0.5127577560418723   T   T   T
  0.5985411103677147  0.5723890273554584  0.3078101099315533   T   T   T
  0.6129574331780047  0.6144407485346214  0.5748723288164190   T   T   T
  0.4404551719721700  0.6145453834413794  0.3234321040850216   T   T   T
  0.7719432685048689  0.5851902045396531  0.3573442903869253   T   T   T
  0.7292072479300413  0.5513597903228498  0.3014247900613913   T   T   T
  0.7679424673577828  0.5627240824674359  0.3187964553016682   T   T   T
  0.7997571638123205  0.5517821784246963  0.2999734068583562   T   T   T
 
  0.00000000E+00  0.00000000E+00  0.00000000E+00
  0.00000000E+00  0.00000000E+00  0.00000000E+00
  0.00000000E+00  0.00000000E+00  0.00000000E+00
  0.00000000E+00  0.00000000E+00  0.00000000E+00
  0.00000000E+00  0.00000000E+00  0.00000000E+00
  0.00000000E+00  0.00000000E+00  0.00000000E+00
  0.00000000E+00  0.00000000E+00  0.00000000E+00
  0.00000000E+00  0.00000000E+00  0.00000000E+00
  0.00000000E+00  0.00000000E+00  0.00000000E+00
  0.00000000E+00  0.00000000E+00  0.00000000E+00
  0.00000000E+00  0.00000000E+00  0.00000000E+00
  0.00000000E+00  0.00000000E+00  0.00000000E+00
  0.00000000E+00  0.00000000E+00  0.00000000E+00
  0.00000000E+00  0.00000000E+00  0.00000000E+00
  0.00000000E+00  0.00000000E+00  0.00000000E+00
  0.00000000E+00  0.00000000E+00  0.00000000E+00
  0.00000000E+00  0.00000000E+00  0.00000000E+00
  0.00000000E+00  0.00000000E+00  0.00000000E+00
  0.00000000E+00  0.00000000E+00  0.00000000E+00
  0.00000000E+00  0.00000000E+00  0.00000000E+00
  0.00000000E+00  0.00000000E+00  0.00000000E+00
  0.00000000E+00  0.00000000E+00  0.00000000E+00
  0.00000000E+00  0.00000000E+00  0.00000000E+00
  0.00000000E+00  0.00000000E+00  0.00000000E+00
  0.00000000E+00  0.00000000E+00  0.00000000E+00
  0.00000000E+00  0.00000000E+00  0.00000000E+00
  0.00000000E+00  0.00000000E+00  0.00000000E+00
  0.00000000E+00  0.00000000E+00  0.00000000E+00
  0.00000000E+00  0.00000000E+00  0.00000000E+00
  0.00000000E+00  0.00000000E+00  0.00000000E+00
  0.00000000E+00  0.00000000E+00  0.00000000E+00
  0.00000000E+00  0.00000000E+00  0.00000000E+00
  0.00000000E+00  0.00000000E+00  0.00000000E+00
  0.00000000E+00  0.00000000E+00  0.00000000E+00
  0.00000000E+00  0.00000000E+00  0.00000000E+00
  0.00000000E+00  0.00000000E+00  0.00000000E+00
  0.00000000E+00  0.00000000E+00  0.00000000E+00
  0.00000000E+00  0.00000000E+00  0.00000000E+00
  0.00000000E+00  0.00000000E+00  0.00000000E+00
  0.00000000E+00  0.00000000E+00  0.00000000E+00
  0.00000000E+00  0.00000000E+00  0.00000000E+00
  0.00000000E+00  0.00000000E+00  0.00000000E+00
  0.00000000E+00  0.00000000E+00  0.00000000E+00
  0.00000000E+00  0.00000000E+00  0.00000000E+00
  0.00000000E+00  0.00000000E+00  0.00000000E+00
  0.00000000E+00  0.00000000E+00  0.00000000E+00
  0.00000000E+00  0.00000000E+00  0.00000000E+00
  0.00000000E+00  0.00000000E+00  0.00000000E+00
  0.00000000E+00  0.00000000E+00  0.00000000E+00
  0.00000000E+00  0.00000000E+00  0.00000000E+00
  0.00000000E+00  0.00000000E+00  0.00000000E+00
  0.00000000E+00  0.00000000E+00  0.00000000E+00
  0.00000000E+00  0.00000000E+00  0.00000000E+00
  0.00000000E+00  0.00000000E+00  0.00000000E+00
  0.00000000E+00  0.00000000E+00  0.00000000E+00
  0.00000000E+00  0.00000000E+00  0.00000000E+00
  0.00000000E+00  0.00000000E+00  0.00000000E+00
  0.00000000E+00  0.00000000E+00  0.00000000E+00
  0.00000000E+00  0.00000000E+00  0.00000000E+00
  0.00000000E+00  0.00000000E+00  0.00000000E+00
  0.00000000E+00  0.00000000E+00  0.00000000E+00
  0.00000000E+00  0.00000000E+00  0.00000000E+00
  0.00000000E+00  0.00000000E+00  0.00000000E+00
  0.00000000E+00  0.00000000E+00  0.00000000E+00
  0.00000000E+00  0.00000000E+00  0.00000000E+00
  0.00000000E+00  0.00000000E+00  0.00000000E+00
  0.00000000E+00  0.00000000E+00  0.00000000E+00
  0.00000000E+00  0.00000000E+00  0.00000000E+00
  0.00000000E+00  0.00000000E+00  0.00000000E+00
  0.00000000E+00  0.00000000E+00  0.00000000E+00
  0.00000000E+00  0.00000000E+00  0.00000000E+00
  0.00000000E+00  0.00000000E+00  0.00000000E+00
