La Co Ni Sn Bi O  C  H                  
   1.00000000000000     
    29.1044006348000011    0.0000000000000000    0.0000000000000000
     0.4451680315000000   28.3694074727000007    0.0000000000000000
     0.0682082826000000    0.3036559964000000   28.5240018092999996
   La   Co   Ni   Sn   Bi   O    C    H 
    14    13    13    14    14     2     1     1
Selective dynamics
Direct
  0.5923603880472937  0.4202133234012009  0.4080746619858970   T   T   T
  0.6856481280120197  0.5708150069502301  0.3812553091188595   T   T   T
  0.4957877419929639  0.5277144084239190  0.2822745291621580   T   T   T
  0.5657762220183551  0.5196464470589665  0.6063264695791248   T   T   T
  0.5087566435474777  0.3872573691993241  0.3051606464532564   T   T   T
  0.5748283864254230  0.6556051392760746  0.4839042875758743   T   T   T
  0.5091767690473988  0.3377014765120510  0.4989021944398584   T   T   T
  0.5351806950357563  0.6376980306050880  0.3752881816408828   T   T   T
  0.4360606254964619  0.6430163333027369  0.5360762156625883   T   T   T
  0.4373551010143757  0.5015757590148624  0.3842817269995109   F   F   F
  0.4437846394494898  0.4460183835780285  0.5005161578087822   F   F   F
  0.3868037445247161  0.4660659334755382  0.6085517001154909   T   T   T
  0.3447542242869561  0.4445416135913792  0.3465888021776574   T   T   T
  0.3621435576318704  0.5854136726343268  0.3935113462892689   T   T   T
  0.4217425606853311  0.4061295180575186  0.3699802678458894   F   F   F
  0.5011311695957161  0.4887203336762909  0.4395023580252015   F   F   F
  0.4044148221271726  0.6101724300038001  0.4624736492929173   F   F   F
  0.4722931245665194  0.5596737886932672  0.5729988711091565   F   F   F
  0.6552684236953183  0.5165424048424470  0.4543399438695133   F   F   F
  0.5967309916701211  0.5535378348504167  0.5056109707055541   F   F   F
  0.5314074673932367  0.5941153005651714  0.5336729985293047   F   F   F
  0.5796732686089143  0.4997731718447866  0.4507473928409595   F   F   F
  0.4605013848596184  0.3306880442719243  0.3442879964624099   T   T   T
  0.3905180950192175  0.5252419063175111  0.4552418453041511   F   F   F
  0.4542397351196663  0.3245740387152159  0.4236519065362426   T   T   T
  0.5074804872141527  0.4592780196109629  0.3501259710292359   F   F   F
  0.6012877811302459  0.4669891268301640  0.5212355700313438   F   F   F
  0.5384608035519776  0.4312182275275163  0.4821288228790692   F   F   F
  0.4713083414346286  0.4805797151798927  0.5807598339419258   F   F   F
  0.3771163837573610  0.4514853175274567  0.4282230665427278   F   F   F
  0.4059018739390154  0.3822235888080883  0.4561785915149272   F   F   F
  0.5357818896390683  0.5680835373033233  0.4543473312664048   F   F   F
  0.4924712632432886  0.6367287407321953  0.4646113344718685   F   F   F
  0.4677327221812249  0.5829886973614862  0.4038343643763724   F   F   F
  0.5280944416629296  0.5063826634733033  0.5194466411805863   F   F   F
  0.6212454441397384  0.5105019604624417  0.3755946010283822   F   F   F
  0.6054499763524817  0.5821019035045651  0.4188664505762958   F   F   F
  0.4050790883739026  0.5245211222763402  0.5434909784116542   F   F   F
  0.3507631206017513  0.4701176966337948  0.5086565073092369   T   T   T
  0.4342489017041167  0.4572181893607556  0.3020033764580813   T   T   T
  0.5372244598187652  0.4217599846924224  0.5688185958984883   T   T   T
  0.3574134397698632  0.3865002053413949  0.5389401376329038   T   T   T
  0.4625951421883201  0.5516617238622956  0.4875128022361963   F   F   F
  0.6066787916542462  0.3757557276207660  0.5117175398141725   T   T   T
  0.4899915874336749  0.4369990802189403  0.6572620950374681   T   T   T
  0.5875043126295267  0.4674453029464885  0.3065024795624554   T   T   T
  0.4900497958562298  0.4037080615820798  0.4151644571778519   F   F   F
  0.4354438689907517  0.6746431494092124  0.4127977814727559   T   T   T
  0.4679663095115592  0.5360052497642954  0.6597250537999482   T   T   T
  0.5397532608265934  0.5319899791087650  0.3771480104995177   F   F   F
  0.6679779948009004  0.6009711152994068  0.4834177084580262   T   T   T
  0.6667197421700013  0.5194831932389204  0.5499401700908629   T   T   T
  0.3746704038401621  0.3347985135694410  0.3844706617199026   T   T   T
  0.6790394515281389  0.4365425617163169  0.4870601616026975   T   T   T
  0.5394807070086561  0.3183508912814214  0.3911692866319353   T   T   T
  0.3023548972801816  0.5029873324009464  0.4363096792278418   T   T   T
  0.3134449187262824  0.3956356379223943  0.4487069255079008   T   T   T
  0.5129593807358590  0.6240070214283606  0.6174303499139471   T   T   T
  0.4484515609489452  0.3731711482370175  0.5844705660953786   T   T   T
  0.3902731051808908  0.5796964711086176  0.6132211272717981   T   T   T
  0.4055359434963683  0.3050608636461528  0.5004813344706428   T   T   T
  0.4024718261312435  0.3717305138009852  0.2868626122110861   T   T   T
  0.3843276151075223  0.5336589882576996  0.2917682160690389   T   T   T
  0.6924785473046599  0.4599793208653695  0.3875849532933851   T   T   T
  0.3375041725729497  0.5719118948275905  0.5126448730495021   T   T   T
  0.5997905055634328  0.5725130854960581  0.3081094152835402   T   T   T
  0.6125325844910114  0.6136215097666665  0.5757150487872366   T   T   T
  0.4403356581671146  0.6152527617387059  0.3235468308704907   T   T   T
  0.5967439418608953  0.5242295319067141  0.6882647315979706   T   T   T
  0.6218208832177171  0.4627105334325216  0.6451931680078419   T   T   T
  0.6210170446821821  0.4866683371953238  0.6829114489574739   T   T   T
  0.6427144050190230  0.4740368831856469  0.7127387271701005   T   T   T
 
  0.00000000E+00  0.00000000E+00  0.00000000E+00
  0.00000000E+00  0.00000000E+00  0.00000000E+00
  0.00000000E+00  0.00000000E+00  0.00000000E+00
  0.00000000E+00  0.00000000E+00  0.00000000E+00
  0.00000000E+00  0.00000000E+00  0.00000000E+00
  0.00000000E+00  0.00000000E+00  0.00000000E+00
  0.00000000E+00  0.00000000E+00  0.00000000E+00
  0.00000000E+00  0.00000000E+00  0.00000000E+00
  0.00000000E+00  0.00000000E+00  0.00000000E+00
  0.00000000E+00  0.00000000E+00  0.00000000E+00
  0.00000000E+00  0.00000000E+00  0.00000000E+00
  0.00000000E+00  0.00000000E+00  0.00000000E+00
  0.00000000E+00  0.00000000E+00  0.00000000E+00
  0.00000000E+00  0.00000000E+00  0.00000000E+00
  0.00000000E+00  0.00000000E+00  0.00000000E+00
  0.00000000E+00  0.00000000E+00  0.00000000E+00
  0.00000000E+00  0.00000000E+00  0.00000000E+00
  0.00000000E+00  0.00000000E+00  0.00000000E+00
  0.00000000E+00  0.00000000E+00  0.00000000E+00
  0.00000000E+00  0.00000000E+00  0.00000000E+00
  0.00000000E+00  0.00000000E+00  0.00000000E+00
  0.00000000E+00  0.00000000E+00  0.00000000E+00
  0.00000000E+00  0.00000000E+00  0.00000000E+00
  0.00000000E+00  0.00000000E+00  0.00000000E+00
  0.00000000E+00  0.00000000E+00  0.00000000E+00
  0.00000000E+00  0.00000000E+00  0.00000000E+00
  0.00000000E+00  0.00000000E+00  0.00000000E+00
  0.00000000E+00  0.00000000E+00  0.00000000E+00
  0.00000000E+00  0.00000000E+00  0.00000000E+00
  0.00000000E+00  0.00000000E+00  0.00000000E+00
  0.00000000E+00  0.00000000E+00  0.00000000E+00
  0.00000000E+00  0.00000000E+00  0.00000000E+00
  0.00000000E+00  0.00000000E+00  0.00000000E+00
  0.00000000E+00  0.00000000E+00  0.00000000E+00
  0.00000000E+00  0.00000000E+00  0.00000000E+00
  0.00000000E+00  0.00000000E+00  0.00000000E+00
  0.00000000E+00  0.00000000E+00  0.00000000E+00
  0.00000000E+00  0.00000000E+00  0.00000000E+00
  0.00000000E+00  0.00000000E+00  0.00000000E+00
  0.00000000E+00  0.00000000E+00  0.00000000E+00
  0.00000000E+00  0.00000000E+00  0.00000000E+00
  0.00000000E+00  0.00000000E+00  0.00000000E+00
  0.00000000E+00  0.00000000E+00  0.00000000E+00
  0.00000000E+00  0.00000000E+00  0.00000000E+00
  0.00000000E+00  0.00000000E+00  0.00000000E+00
  0.00000000E+00  0.00000000E+00  0.00000000E+00
  0.00000000E+00  0.00000000E+00  0.00000000E+00
  0.00000000E+00  0.00000000E+00  0.00000000E+00
  0.00000000E+00  0.00000000E+00  0.00000000E+00
  0.00000000E+00  0.00000000E+00  0.00000000E+00
  0.00000000E+00  0.00000000E+00  0.00000000E+00
  0.00000000E+00  0.00000000E+00  0.00000000E+00
  0.00000000E+00  0.00000000E+00  0.00000000E+00
  0.00000000E+00  0.00000000E+00  0.00000000E+00
  0.00000000E+00  0.00000000E+00  0.00000000E+00
  0.00000000E+00  0.00000000E+00  0.00000000E+00
  0.00000000E+00  0.00000000E+00  0.00000000E+00
  0.00000000E+00  0.00000000E+00  0.00000000E+00
  0.00000000E+00  0.00000000E+00  0.00000000E+00
  0.00000000E+00  0.00000000E+00  0.00000000E+00
  0.00000000E+00  0.00000000E+00  0.00000000E+00
  0.00000000E+00  0.00000000E+00  0.00000000E+00
  0.00000000E+00  0.00000000E+00  0.00000000E+00
  0.00000000E+00  0.00000000E+00  0.00000000E+00
  0.00000000E+00  0.00000000E+00  0.00000000E+00
  0.00000000E+00  0.00000000E+00  0.00000000E+00
  0.00000000E+00  0.00000000E+00  0.00000000E+00
  0.00000000E+00  0.00000000E+00  0.00000000E+00
  0.00000000E+00  0.00000000E+00  0.00000000E+00
  0.00000000E+00  0.00000000E+00  0.00000000E+00
  0.00000000E+00  0.00000000E+00  0.00000000E+00
  0.00000000E+00  0.00000000E+00  0.00000000E+00
