La Co Ni Sn Bi O  C  H                  
   1.00000000000000     
    29.1044006348000011    0.0000000000000000    0.0000000000000000
     0.4451680315000000   28.3694074727000007    0.0000000000000000
     0.0682082826000000    0.3036559964000000   28.5240018092999996
   La   Co   Ni   Sn   Bi   O    C    H 
    14    13    13    14    14     2     1     1
Selective dynamics
Direct
  0.5921248834815457  0.4213011054005953  0.4072523477938512   T   T   T
  0.6854394765501374  0.5711395559704328  0.3812050576453208   T   T   T
  0.4950242782202168  0.5294782619956399  0.2826091129739888   T   T   T
  0.5627291820373617  0.5216993427494190  0.6021508251289145   T   T   T
  0.5107526300620341  0.3857817087262959  0.3052492381445789   T   T   T
  0.5752417068445542  0.6555413497570027  0.4835221292728567   T   T   T
  0.5079403155594311  0.3382073231092814  0.4999459265008983   T   T   T
  0.5346624372611696  0.6378090847667167  0.3753851757638634   T   T   T
  0.4356807085544643  0.6431880684703727  0.5358273978805367   T   T   T
  0.4373551010143757  0.5015757590148624  0.3842817269995109   F   F   F
  0.4437846394494898  0.4460183835780285  0.5005161578087822   F   F   F
  0.3874683224263957  0.4668032942181928  0.6096144325292614   T   T   T
  0.3441433808810982  0.4450347965427171  0.3470803572598780   T   T   T
  0.3615979114498826  0.5855787307600903  0.3943012501483154   T   T   T
  0.4217425606853311  0.4061295180575186  0.3699802678458894   F   F   F
  0.5011311695957161  0.4887203336762909  0.4395023580252015   F   F   F
  0.4044148221271726  0.6101724300038001  0.4624736492929173   F   F   F
  0.4722931245665194  0.5596737886932672  0.5729988711091565   F   F   F
  0.6552684236953183  0.5165424048424470  0.4543399438695133   F   F   F
  0.5967309916701211  0.5535378348504167  0.5056109707055541   F   F   F
  0.5314074673932367  0.5941153005651714  0.5336729985293047   F   F   F
  0.5796732686089143  0.4997731718447866  0.4507473928409595   F   F   F
  0.4593167452213056  0.3265520826288827  0.3425916673511131   T   T   T
  0.3905180950192175  0.5252419063175111  0.4552418453041511   F   F   F
  0.4537087335911110  0.3252523405974392  0.4220802347984591   T   T   T
  0.5074804872141527  0.4592780196109629  0.3501259710292359   F   F   F
  0.6012877811302459  0.4669891268301640  0.5212355700313438   F   F   F
  0.5384608035519776  0.4312182275275163  0.4821288228790692   F   F   F
  0.4713083414346286  0.4805797151798927  0.5807598339419258   F   F   F
  0.3771163837573610  0.4514853175274567  0.4282230665427278   F   F   F
  0.4059018739390154  0.3822235888080883  0.4561785915149272   F   F   F
  0.5357818896390683  0.5680835373033233  0.4543473312664048   F   F   F
  0.4924712632432886  0.6367287407321953  0.4646113344718685   F   F   F
  0.4677327221812249  0.5829886973614862  0.4038343643763724   F   F   F
  0.5280944416629296  0.5063826634733033  0.5194466411805863   F   F   F
  0.6212454441397384  0.5105019604624417  0.3755946010283822   F   F   F
  0.6054499763524817  0.5821019035045651  0.4188664505762958   F   F   F
  0.4050790883739026  0.5245211222763402  0.5434909784116542   F   F   F
  0.3510164624055336  0.4704044908878741  0.5088690115546737   T   T   T
  0.4342179476585331  0.4588689128837488  0.3023099041423004   T   T   T
  0.5384856233146879  0.4217316096967552  0.5688087858243847   T   T   T
  0.3576103472131538  0.3869804201062734  0.5395267171041217   T   T   T
  0.4625951421883201  0.5516617238622956  0.4875128022361963   F   F   F
  0.6059544616012421  0.3745031908419155  0.5089312953289598   T   T   T
  0.4924133610343576  0.4389500339666103  0.6577596889440417   T   T   T
  0.5870973534207989  0.4689861586395461  0.3058479954897783   T   T   T
  0.4900497958562298  0.4037080615820798  0.4151644571778519   F   F   F
  0.4352763596397668  0.6750208898142502  0.4133106947927817   T   T   T
  0.4685654568104527  0.5369144504911291  0.6600853541169076   T   T   T
  0.5397532608265934  0.5319899791087650  0.3771480104995177   F   F   F
  0.6685922720867975  0.6003932970338713  0.4840148431755545   T   T   T
  0.6659856553468029  0.5192061060042877  0.5504817980128304   T   T   T
  0.3743149238482778  0.3352131744869804  0.3843813242173882   T   T   T
  0.6781918420537364  0.4362051925527036  0.4864844361603210   T   T   T
  0.5401325526298522  0.3197069289972499  0.3938105136657575   T   T   T
  0.3024499416661350  0.5027533175588355  0.4371718400069936   T   T   T
  0.3135045622147845  0.3951364915907303  0.4491478538436149   T   T   T
  0.5124004363761274  0.6253091977266978  0.6167495874190733   T   T   T
  0.4489071779823869  0.3747413214656493  0.5857666116316853   T   T   T
  0.3903961545692802  0.5800908604846278  0.6133273272058232   T   T   T
  0.4043974509104725  0.3055615511675410  0.5001545717369771   T   T   T
  0.4037294919863087  0.3743504338835799  0.2868496395996217   T   T   T
  0.3834179887734918  0.5344561739819730  0.2925939416741252   T   T   T
  0.6929960996166175  0.4604960846834323  0.3874673232373266   T   T   T
  0.3377187363779989  0.5722672344261248  0.5129729867941631   T   T   T
  0.5995573577165247  0.5734626063861165  0.3084749700953531   T   T   T
  0.6127549121176596  0.6144302746353676  0.5754314291403181   T   T   T
  0.4391563164991529  0.6164528138118207  0.3242895211309439   T   T   T
  0.4778391529153474  0.2734991797353309  0.3038732487202745   T   T   T
  0.5307838580242383  0.3134854045577550  0.2609530017227928   T   T   T
  0.5096549249624996  0.2763115911515302  0.2730559679217482   T   T   T
  0.5195516869022327  0.2427403399408071  0.2559257028543236   T   T   T
 
  0.00000000E+00  0.00000000E+00  0.00000000E+00
  0.00000000E+00  0.00000000E+00  0.00000000E+00
  0.00000000E+00  0.00000000E+00  0.00000000E+00
  0.00000000E+00  0.00000000E+00  0.00000000E+00
  0.00000000E+00  0.00000000E+00  0.00000000E+00
  0.00000000E+00  0.00000000E+00  0.00000000E+00
  0.00000000E+00  0.00000000E+00  0.00000000E+00
  0.00000000E+00  0.00000000E+00  0.00000000E+00
  0.00000000E+00  0.00000000E+00  0.00000000E+00
  0.00000000E+00  0.00000000E+00  0.00000000E+00
  0.00000000E+00  0.00000000E+00  0.00000000E+00
  0.00000000E+00  0.00000000E+00  0.00000000E+00
  0.00000000E+00  0.00000000E+00  0.00000000E+00
  0.00000000E+00  0.00000000E+00  0.00000000E+00
  0.00000000E+00  0.00000000E+00  0.00000000E+00
  0.00000000E+00  0.00000000E+00  0.00000000E+00
  0.00000000E+00  0.00000000E+00  0.00000000E+00
  0.00000000E+00  0.00000000E+00  0.00000000E+00
  0.00000000E+00  0.00000000E+00  0.00000000E+00
  0.00000000E+00  0.00000000E+00  0.00000000E+00
  0.00000000E+00  0.00000000E+00  0.00000000E+00
  0.00000000E+00  0.00000000E+00  0.00000000E+00
  0.00000000E+00  0.00000000E+00  0.00000000E+00
  0.00000000E+00  0.00000000E+00  0.00000000E+00
  0.00000000E+00  0.00000000E+00  0.00000000E+00
  0.00000000E+00  0.00000000E+00  0.00000000E+00
  0.00000000E+00  0.00000000E+00  0.00000000E+00
  0.00000000E+00  0.00000000E+00  0.00000000E+00
  0.00000000E+00  0.00000000E+00  0.00000000E+00
  0.00000000E+00  0.00000000E+00  0.00000000E+00
  0.00000000E+00  0.00000000E+00  0.00000000E+00
  0.00000000E+00  0.00000000E+00  0.00000000E+00
  0.00000000E+00  0.00000000E+00  0.00000000E+00
  0.00000000E+00  0.00000000E+00  0.00000000E+00
  0.00000000E+00  0.00000000E+00  0.00000000E+00
  0.00000000E+00  0.00000000E+00  0.00000000E+00
  0.00000000E+00  0.00000000E+00  0.00000000E+00
  0.00000000E+00  0.00000000E+00  0.00000000E+00
  0.00000000E+00  0.00000000E+00  0.00000000E+00
  0.00000000E+00  0.00000000E+00  0.00000000E+00
  0.00000000E+00  0.00000000E+00  0.00000000E+00
  0.00000000E+00  0.00000000E+00  0.00000000E+00
  0.00000000E+00  0.00000000E+00  0.00000000E+00
  0.00000000E+00  0.00000000E+00  0.00000000E+00
  0.00000000E+00  0.00000000E+00  0.00000000E+00
  0.00000000E+00  0.00000000E+00  0.00000000E+00
  0.00000000E+00  0.00000000E+00  0.00000000E+00
  0.00000000E+00  0.00000000E+00  0.00000000E+00
  0.00000000E+00  0.00000000E+00  0.00000000E+00
  0.00000000E+00  0.00000000E+00  0.00000000E+00
  0.00000000E+00  0.00000000E+00  0.00000000E+00
  0.00000000E+00  0.00000000E+00  0.00000000E+00
  0.00000000E+00  0.00000000E+00  0.00000000E+00
  0.00000000E+00  0.00000000E+00  0.00000000E+00
  0.00000000E+00  0.00000000E+00  0.00000000E+00
  0.00000000E+00  0.00000000E+00  0.00000000E+00
  0.00000000E+00  0.00000000E+00  0.00000000E+00
  0.00000000E+00  0.00000000E+00  0.00000000E+00
  0.00000000E+00  0.00000000E+00  0.00000000E+00
  0.00000000E+00  0.00000000E+00  0.00000000E+00
  0.00000000E+00  0.00000000E+00  0.00000000E+00
  0.00000000E+00  0.00000000E+00  0.00000000E+00
  0.00000000E+00  0.00000000E+00  0.00000000E+00
  0.00000000E+00  0.00000000E+00  0.00000000E+00
  0.00000000E+00  0.00000000E+00  0.00000000E+00
  0.00000000E+00  0.00000000E+00  0.00000000E+00
  0.00000000E+00  0.00000000E+00  0.00000000E+00
  0.00000000E+00  0.00000000E+00  0.00000000E+00
  0.00000000E+00  0.00000000E+00  0.00000000E+00
  0.00000000E+00  0.00000000E+00  0.00000000E+00
  0.00000000E+00  0.00000000E+00  0.00000000E+00
  0.00000000E+00  0.00000000E+00  0.00000000E+00
