La Co Ni Sn Bi O  C  H                  
   1.00000000000000     
    29.1044006348000011    0.0000000000000000    0.0000000000000000
     0.4451680315000000   28.3694074727000007    0.0000000000000000
     0.0682082826000000    0.3036559964000000   28.5240018092999996
   La   Co   Ni   Sn   Bi   O    C    H 
    14    13    13    14    14     2     1     1
Selective dynamics
Direct
  0.5924663307682000  0.4206640953751508  0.4076289909993389   T   T   T
  0.6849507045863392  0.5714763857670961  0.3806024336902218   T   T   T
  0.4953183127126917  0.5274130512807338  0.2822884951698544   T   T   T
  0.5625665474131460  0.5216888192267300  0.6024649822589019   T   T   T
  0.5086551668781011  0.3866376704739347  0.3057930617480190   T   T   T
  0.5750539298604243  0.6554471445318208  0.4836530577236424   T   T   T
  0.5085573905578196  0.3388784999123977  0.5002957042028636   T   T   T
  0.5351769427304440  0.6376295581490655  0.3750971326976015   T   T   T
  0.4370926010910241  0.6439232952504619  0.5358666137088862   T   T   T
  0.4373551010143757  0.5015757590148624  0.3842817269995109   F   F   F
  0.4437846394494898  0.4460183835780285  0.5005161578087822   F   F   F
  0.3866910053064219  0.4673652849687816  0.6097624896676113   T   T   T
  0.3446655273366788  0.4442876931140501  0.3466158227271018   T   T   T
  0.3621408176170413  0.5854923945800502  0.3941591984854582   T   T   T
  0.4217425606853311  0.4061295180575186  0.3699802678458894   F   F   F
  0.5011311695957161  0.4887203336762909  0.4395023580252015   F   F   F
  0.4044148221271726  0.6101724300038001  0.4624736492929173   F   F   F
  0.4722931245665194  0.5596737886932672  0.5729988711091565   F   F   F
  0.6552684236953183  0.5165424048424470  0.4543399438695133   F   F   F
  0.5967309916701211  0.5535378348504167  0.5056109707055541   F   F   F
  0.5314074673932367  0.5941153005651714  0.5336729985293047   F   F   F
  0.5796732686089143  0.4997731718447866  0.4507473928409595   F   F   F
  0.4614665338240195  0.3311693175197517  0.3447158098102590   T   T   T
  0.3905180950192175  0.5252419063175111  0.4552418453041511   F   F   F
  0.4541232213630397  0.3246458794684963  0.4244558634718650   T   T   T
  0.5074804872141527  0.4592780196109629  0.3501259710292359   F   F   F
  0.6012877811302459  0.4669891268301640  0.5212355700313438   F   F   F
  0.5384608035519776  0.4312182275275163  0.4821288228790692   F   F   F
  0.4713083414346286  0.4805797151798927  0.5807598339419258   F   F   F
  0.3771163837573610  0.4514853175274567  0.4282230665427278   F   F   F
  0.4059018739390154  0.3822235888080883  0.4561785915149272   F   F   F
  0.5357818896390683  0.5680835373033233  0.4543473312664048   F   F   F
  0.4924712632432886  0.6367287407321953  0.4646113344718685   F   F   F
  0.4677327221812249  0.5829886973614862  0.4038343643763724   F   F   F
  0.5280944416629296  0.5063826634733033  0.5194466411805863   F   F   F
  0.6212454441397384  0.5105019604624417  0.3755946010283822   F   F   F
  0.6054499763524817  0.5821019035045651  0.4188664505762958   F   F   F
  0.4050790883739026  0.5245211222763402  0.5434909784116542   F   F   F
  0.3505609388652723  0.4706087722591599  0.5087490837996727   T   T   T
  0.4337822637644933  0.4571380069912719  0.3020692721207833   T   T   T
  0.5379159813575344  0.4220224034895568  0.5690107611210702   T   T   T
  0.3566525876271657  0.3876535935039230  0.5395435764118774   T   T   T
  0.4625951421883201  0.5516617238622956  0.4875128022361963   F   F   F
  0.6066344611518634  0.3751175609366634  0.5098807104058243   T   T   T
  0.4916235462367521  0.4377314538729998  0.6589379835273346   T   T   T
  0.5871715761595043  0.4674765558246941  0.3062182772879277   T   T   T
  0.4900497958562298  0.4037080615820798  0.4151644571778519   F   F   F
  0.4354976056386840  0.6746832024668106  0.4128547889704362   T   T   T
  0.4671993207347081  0.5342988955333527  0.6583403282737802   T   T   T
  0.5397532608265934  0.5319899791087650  0.3771480104995177   F   F   F
  0.6685288876862244  0.6006523103496141  0.4832742619773279   T   T   T
  0.6659432514683591  0.5192292840832787  0.5502744858307992   T   T   T
  0.3750865756611620  0.3346792023121392  0.3847345796717986   T   T   T
  0.6785485839645361  0.4364004898476529  0.4865651063595061   T   T   T
  0.5397575744522852  0.3185551861248451  0.3927014914853516   T   T   T
  0.3023896482592345  0.5027577832346707  0.4367262886942029   T   T   T
  0.3133294964852766  0.3955232911134938  0.4485914793725439   T   T   T
  0.5132735160885392  0.6247096303937224  0.6171806839063845   T   T   T
  0.4474747759728065  0.3749301629300659  0.5861298199977260   T   T   T
  0.3903043859369675  0.5810657594799199  0.6124160194699499   T   T   T
  0.4053410849968931  0.3064099896854784  0.5027295935247283   T   T   T
  0.4022819565998434  0.3711622114271723  0.2872916938256690   T   T   T
  0.3837284463426671  0.5336998041162674  0.2922964970428323   T   T   T
  0.6929347469373909  0.4607213894072005  0.3872519535564919   T   T   T
  0.3377135375795154  0.5721808113424679  0.5130487991602476   T   T   T
  0.5990182471846411  0.5723886896873490  0.3075158458147347   T   T   T
  0.6128303947758369  0.6140003619308860  0.5755622597582911   T   T   T
  0.4401138526917175  0.6150423229599926  0.3237614813428371   T   T   T
  0.4647793799807499  0.5559853058253039  0.7343741529941580   T   T   T
  0.4380814455630566  0.6232344125404907  0.6994545920548375   T   T   T
  0.4487049945832286  0.5988460541483969  0.7347419362571141   T   T   T
  0.4444329371391993  0.6137328780977446  0.7704982853502602   T   T   T
 
  0.00000000E+00  0.00000000E+00  0.00000000E+00
  0.00000000E+00  0.00000000E+00  0.00000000E+00
  0.00000000E+00  0.00000000E+00  0.00000000E+00
  0.00000000E+00  0.00000000E+00  0.00000000E+00
  0.00000000E+00  0.00000000E+00  0.00000000E+00
  0.00000000E+00  0.00000000E+00  0.00000000E+00
  0.00000000E+00  0.00000000E+00  0.00000000E+00
  0.00000000E+00  0.00000000E+00  0.00000000E+00
  0.00000000E+00  0.00000000E+00  0.00000000E+00
  0.00000000E+00  0.00000000E+00  0.00000000E+00
  0.00000000E+00  0.00000000E+00  0.00000000E+00
  0.00000000E+00  0.00000000E+00  0.00000000E+00
  0.00000000E+00  0.00000000E+00  0.00000000E+00
  0.00000000E+00  0.00000000E+00  0.00000000E+00
  0.00000000E+00  0.00000000E+00  0.00000000E+00
  0.00000000E+00  0.00000000E+00  0.00000000E+00
  0.00000000E+00  0.00000000E+00  0.00000000E+00
  0.00000000E+00  0.00000000E+00  0.00000000E+00
  0.00000000E+00  0.00000000E+00  0.00000000E+00
  0.00000000E+00  0.00000000E+00  0.00000000E+00
  0.00000000E+00  0.00000000E+00  0.00000000E+00
  0.00000000E+00  0.00000000E+00  0.00000000E+00
  0.00000000E+00  0.00000000E+00  0.00000000E+00
  0.00000000E+00  0.00000000E+00  0.00000000E+00
  0.00000000E+00  0.00000000E+00  0.00000000E+00
  0.00000000E+00  0.00000000E+00  0.00000000E+00
  0.00000000E+00  0.00000000E+00  0.00000000E+00
  0.00000000E+00  0.00000000E+00  0.00000000E+00
  0.00000000E+00  0.00000000E+00  0.00000000E+00
  0.00000000E+00  0.00000000E+00  0.00000000E+00
  0.00000000E+00  0.00000000E+00  0.00000000E+00
  0.00000000E+00  0.00000000E+00  0.00000000E+00
  0.00000000E+00  0.00000000E+00  0.00000000E+00
  0.00000000E+00  0.00000000E+00  0.00000000E+00
  0.00000000E+00  0.00000000E+00  0.00000000E+00
  0.00000000E+00  0.00000000E+00  0.00000000E+00
  0.00000000E+00  0.00000000E+00  0.00000000E+00
  0.00000000E+00  0.00000000E+00  0.00000000E+00
  0.00000000E+00  0.00000000E+00  0.00000000E+00
  0.00000000E+00  0.00000000E+00  0.00000000E+00
  0.00000000E+00  0.00000000E+00  0.00000000E+00
  0.00000000E+00  0.00000000E+00  0.00000000E+00
  0.00000000E+00  0.00000000E+00  0.00000000E+00
  0.00000000E+00  0.00000000E+00  0.00000000E+00
  0.00000000E+00  0.00000000E+00  0.00000000E+00
  0.00000000E+00  0.00000000E+00  0.00000000E+00
  0.00000000E+00  0.00000000E+00  0.00000000E+00
  0.00000000E+00  0.00000000E+00  0.00000000E+00
  0.00000000E+00  0.00000000E+00  0.00000000E+00
  0.00000000E+00  0.00000000E+00  0.00000000E+00
  0.00000000E+00  0.00000000E+00  0.00000000E+00
  0.00000000E+00  0.00000000E+00  0.00000000E+00
  0.00000000E+00  0.00000000E+00  0.00000000E+00
  0.00000000E+00  0.00000000E+00  0.00000000E+00
  0.00000000E+00  0.00000000E+00  0.00000000E+00
  0.00000000E+00  0.00000000E+00  0.00000000E+00
  0.00000000E+00  0.00000000E+00  0.00000000E+00
  0.00000000E+00  0.00000000E+00  0.00000000E+00
  0.00000000E+00  0.00000000E+00  0.00000000E+00
  0.00000000E+00  0.00000000E+00  0.00000000E+00
  0.00000000E+00  0.00000000E+00  0.00000000E+00
  0.00000000E+00  0.00000000E+00  0.00000000E+00
  0.00000000E+00  0.00000000E+00  0.00000000E+00
  0.00000000E+00  0.00000000E+00  0.00000000E+00
  0.00000000E+00  0.00000000E+00  0.00000000E+00
  0.00000000E+00  0.00000000E+00  0.00000000E+00
  0.00000000E+00  0.00000000E+00  0.00000000E+00
  0.00000000E+00  0.00000000E+00  0.00000000E+00
  0.00000000E+00  0.00000000E+00  0.00000000E+00
  0.00000000E+00  0.00000000E+00  0.00000000E+00
  0.00000000E+00  0.00000000E+00  0.00000000E+00
  0.00000000E+00  0.00000000E+00  0.00000000E+00
