La Co Ni Sn Bi O  C  H                  
   1.00000000000000     
    29.1044006348000011    0.0000000000000000    0.0000000000000000
     0.4451680315000000   28.3694074727000007    0.0000000000000000
     0.0682082826000000    0.3036559964000000   28.5240018092999996
   La   Co   Ni   Sn   Bi   O    C    H 
    14    13    13    14    14     2     1     1
Selective dynamics
Direct
  0.5922198129446766  0.4206348648945299  0.4078459017804617   T   T   T
  0.6881512697344316  0.5716465574521477  0.3773441151354171   T   T   T
  0.4956155293364743  0.5275744894537243  0.2821002857241455   T   T   T
  0.5630326733773094  0.5219748658199730  0.6016701820306315   T   T   T
  0.5090352037904025  0.3873534994610748  0.3053796207815214   T   T   T
  0.5753262112554667  0.6558366790988979  0.4833757399477557   T   T   T
  0.5090350725876148  0.3380373236313738  0.4994280243512586   T   T   T
  0.5353787348612190  0.6376775135563445  0.3752211452070606   T   T   T
  0.4358308551290161  0.6431040882077089  0.5358378779866673   T   T   T
  0.4373551010143757  0.5015757590148624  0.3842817269995109   F   F   F
  0.4437846394494898  0.4460183835780285  0.5005161578087822   F   F   F
  0.3875845934086533  0.4666436210191698  0.6095893259082474   T   T   T
  0.3446325505578648  0.4443926489889268  0.3468169142830683   T   T   T
  0.3619934544497463  0.5855952111992450  0.3936958541174745   T   T   T
  0.4217425606853311  0.4061295180575186  0.3699802678458894   F   F   F
  0.5011311695957161  0.4887203336762909  0.4395023580252015   F   F   F
  0.4044148221271726  0.6101724300038001  0.4624736492929173   F   F   F
  0.4722931245665194  0.5596737886932672  0.5729988711091565   F   F   F
  0.6552684236953183  0.5165424048424470  0.4543399438695133   F   F   F
  0.5967309916701211  0.5535378348504167  0.5056109707055541   F   F   F
  0.5314074673932367  0.5941153005651714  0.5336729985293047   F   F   F
  0.5796732686089143  0.4997731718447866  0.4507473928409595   F   F   F
  0.4607150522781457  0.3308120051621104  0.3445488269862301   T   T   T
  0.3905180950192175  0.5252419063175111  0.4552418453041511   F   F   F
  0.4543281052556265  0.3245556115300790  0.4239047695148965   T   T   T
  0.5074804872141527  0.4592780196109629  0.3501259710292359   F   F   F
  0.6012877811302459  0.4669891268301640  0.5212355700313438   F   F   F
  0.5384608035519776  0.4312182275275163  0.4821288228790692   F   F   F
  0.4713083414346286  0.4805797151798927  0.5807598339419258   F   F   F
  0.3771163837573610  0.4514853175274567  0.4282230665427278   F   F   F
  0.4059018739390154  0.3822235888080883  0.4561785915149272   F   F   F
  0.5357818896390683  0.5680835373033233  0.4543473312664048   F   F   F
  0.4924712632432886  0.6367287407321953  0.4646113344718685   F   F   F
  0.4677327221812249  0.5829886973614862  0.4038343643763724   F   F   F
  0.5280944416629296  0.5063826634733033  0.5194466411805863   F   F   F
  0.6212454441397384  0.5105019604624417  0.3755946010283822   F   F   F
  0.6054499763524817  0.5821019035045651  0.4188664505762958   F   F   F
  0.4050790883739026  0.5245211222763402  0.5434909784116542   F   F   F
  0.3507382950393347  0.4701960886309027  0.5087956402960362   T   T   T
  0.4340805629321682  0.4573736969248258  0.3022507003250042   T   T   T
  0.5380976933558665  0.4218805082777680  0.5689966712682767   T   T   T
  0.3578151765176534  0.3869246210669155  0.5394555335094364   T   T   T
  0.4625951421883201  0.5516617238622956  0.4875128022361963   F   F   F
  0.6067007885467106  0.3756474824972145  0.5105569299114632   T   T   T
  0.4919822247686669  0.4390230130730313  0.6579225777150366   T   T   T
  0.5877947357002075  0.4677229336855896  0.3064034024405469   T   T   T
  0.4900497958562298  0.4037080615820798  0.4151644571778519   F   F   F
  0.4354861429729389  0.6746582561946955  0.4127911966090884   T   T   T
  0.4687736100093926  0.5371533041746887  0.6600717559681569   T   T   T
  0.5397532608265934  0.5319899791087650  0.3771480104995177   F   F   F
  0.6679140605816061  0.6008373053071299  0.4818418672976000   T   T   T
  0.6665324615315049  0.5197203718987914  0.5496970390354827   T   T   T
  0.3747683010904417  0.3347793128278977  0.3847356919894663   T   T   T
  0.6793598089566116  0.4365245862911618  0.4866977597758479   T   T   T
  0.5395376287474755  0.3185749886318753  0.3916350327403214   T   T   T
  0.3024590947592222  0.5031737501561039  0.4366438295203715   T   T   T
  0.3134410685453779  0.3957891942930433  0.4492759902527790   T   T   T
  0.5129622422369048  0.6253437760040107  0.6165866761206285   T   T   T
  0.4491512727036820  0.3743685069396647  0.5854318648322880   T   T   T
  0.3903536764043554  0.5799118865169978  0.6132951886250194   T   T   T
  0.4056171497400287  0.3054638482294217  0.5011081778208437   T   T   T
  0.4026663695158140  0.3718226172739555  0.2869046012530100   T   T   T
  0.3840059730938929  0.5336795835762165  0.2920479029677870   T   T   T
  0.6924850431722390  0.4599516476392948  0.3873716846547406   T   T   T
  0.3376154718538220  0.5722040586089905  0.5127394052047894   T   T   T
  0.5987396107676841  0.5725353485660318  0.3073432129385632   T   T   T
  0.6130921017691151  0.6146415136607521  0.5750747593680523   T   T   T
  0.4403419552828464  0.6150023493534682  0.3236934128119417   T   T   T
  0.7467695276829055  0.6232743096861082  0.3957945085690765   T   T   T
  0.7568113226450827  0.6347135197999401  0.4740845910552705   T   T   T
  0.7682843403892736  0.6394036065969388  0.4322780845449455   T   T   T
  0.7999220595220508  0.6592395230240012  0.4233850342893635   T   T   T
 
  0.00000000E+00  0.00000000E+00  0.00000000E+00
  0.00000000E+00  0.00000000E+00  0.00000000E+00
  0.00000000E+00  0.00000000E+00  0.00000000E+00
  0.00000000E+00  0.00000000E+00  0.00000000E+00
  0.00000000E+00  0.00000000E+00  0.00000000E+00
  0.00000000E+00  0.00000000E+00  0.00000000E+00
  0.00000000E+00  0.00000000E+00  0.00000000E+00
  0.00000000E+00  0.00000000E+00  0.00000000E+00
  0.00000000E+00  0.00000000E+00  0.00000000E+00
  0.00000000E+00  0.00000000E+00  0.00000000E+00
  0.00000000E+00  0.00000000E+00  0.00000000E+00
  0.00000000E+00  0.00000000E+00  0.00000000E+00
  0.00000000E+00  0.00000000E+00  0.00000000E+00
  0.00000000E+00  0.00000000E+00  0.00000000E+00
  0.00000000E+00  0.00000000E+00  0.00000000E+00
  0.00000000E+00  0.00000000E+00  0.00000000E+00
  0.00000000E+00  0.00000000E+00  0.00000000E+00
  0.00000000E+00  0.00000000E+00  0.00000000E+00
  0.00000000E+00  0.00000000E+00  0.00000000E+00
  0.00000000E+00  0.00000000E+00  0.00000000E+00
  0.00000000E+00  0.00000000E+00  0.00000000E+00
  0.00000000E+00  0.00000000E+00  0.00000000E+00
  0.00000000E+00  0.00000000E+00  0.00000000E+00
  0.00000000E+00  0.00000000E+00  0.00000000E+00
  0.00000000E+00  0.00000000E+00  0.00000000E+00
  0.00000000E+00  0.00000000E+00  0.00000000E+00
  0.00000000E+00  0.00000000E+00  0.00000000E+00
  0.00000000E+00  0.00000000E+00  0.00000000E+00
  0.00000000E+00  0.00000000E+00  0.00000000E+00
  0.00000000E+00  0.00000000E+00  0.00000000E+00
  0.00000000E+00  0.00000000E+00  0.00000000E+00
  0.00000000E+00  0.00000000E+00  0.00000000E+00
  0.00000000E+00  0.00000000E+00  0.00000000E+00
  0.00000000E+00  0.00000000E+00  0.00000000E+00
  0.00000000E+00  0.00000000E+00  0.00000000E+00
  0.00000000E+00  0.00000000E+00  0.00000000E+00
  0.00000000E+00  0.00000000E+00  0.00000000E+00
  0.00000000E+00  0.00000000E+00  0.00000000E+00
  0.00000000E+00  0.00000000E+00  0.00000000E+00
  0.00000000E+00  0.00000000E+00  0.00000000E+00
  0.00000000E+00  0.00000000E+00  0.00000000E+00
  0.00000000E+00  0.00000000E+00  0.00000000E+00
  0.00000000E+00  0.00000000E+00  0.00000000E+00
  0.00000000E+00  0.00000000E+00  0.00000000E+00
  0.00000000E+00  0.00000000E+00  0.00000000E+00
  0.00000000E+00  0.00000000E+00  0.00000000E+00
  0.00000000E+00  0.00000000E+00  0.00000000E+00
  0.00000000E+00  0.00000000E+00  0.00000000E+00
  0.00000000E+00  0.00000000E+00  0.00000000E+00
  0.00000000E+00  0.00000000E+00  0.00000000E+00
  0.00000000E+00  0.00000000E+00  0.00000000E+00
  0.00000000E+00  0.00000000E+00  0.00000000E+00
  0.00000000E+00  0.00000000E+00  0.00000000E+00
  0.00000000E+00  0.00000000E+00  0.00000000E+00
  0.00000000E+00  0.00000000E+00  0.00000000E+00
  0.00000000E+00  0.00000000E+00  0.00000000E+00
  0.00000000E+00  0.00000000E+00  0.00000000E+00
  0.00000000E+00  0.00000000E+00  0.00000000E+00
  0.00000000E+00  0.00000000E+00  0.00000000E+00
  0.00000000E+00  0.00000000E+00  0.00000000E+00
  0.00000000E+00  0.00000000E+00  0.00000000E+00
  0.00000000E+00  0.00000000E+00  0.00000000E+00
  0.00000000E+00  0.00000000E+00  0.00000000E+00
  0.00000000E+00  0.00000000E+00  0.00000000E+00
  0.00000000E+00  0.00000000E+00  0.00000000E+00
  0.00000000E+00  0.00000000E+00  0.00000000E+00
  0.00000000E+00  0.00000000E+00  0.00000000E+00
  0.00000000E+00  0.00000000E+00  0.00000000E+00
  0.00000000E+00  0.00000000E+00  0.00000000E+00
  0.00000000E+00  0.00000000E+00  0.00000000E+00
  0.00000000E+00  0.00000000E+00  0.00000000E+00
  0.00000000E+00  0.00000000E+00  0.00000000E+00
