La Co Ni Sn Bi O  C  H                  
   1.00000000000000     
    29.1044006348000011    0.0000000000000000    0.0000000000000000
     0.4451680315000000   28.3694074727000007    0.0000000000000000
     0.0682082826000000    0.3036559964000000   28.5240018092999996
   La   Co   Ni   Sn   Bi   O    C    H 
    14    13    13    14    14     2     1     1
Selective dynamics
Direct
  0.5919491695416182  0.4207301217140659  0.4069982764572407   T   T   T
  0.6855699273386269  0.5710046623290325  0.3813847946235984   T   T   T
  0.4949253423421607  0.5307553825306797  0.2828429904937907   T   T   T
  0.5626433846147129  0.5214534874664463  0.6020799844192632   T   T   T
  0.5089806471736661  0.3871682878699506  0.3041052692322854   T   T   T
  0.5752758954055852  0.6555401389823265  0.4837156708190443   T   T   T
  0.5082066215204957  0.3378978844512983  0.4985922455008132   T   T   T
  0.5347108952798830  0.6379047578007492  0.3756554664114609   T   T   T
  0.4357928206057687  0.6431041337869767  0.5360849893207897   T   T   T
  0.4373551010143757  0.5015757590148624  0.3842817269995109   F   F   F
  0.4437846394494898  0.4460183835780285  0.5005161578087822   F   F   F
  0.3877822930473465  0.4662367906628120  0.6094589216392808   T   T   T
  0.3431366751314768  0.4472828260390959  0.3478544374008725   T   T   T
  0.3616053374630017  0.5858008500912039  0.3946262941016845   T   T   T
  0.4217425606853311  0.4061295180575186  0.3699802678458894   F   F   F
  0.5011311695957161  0.4887203336762909  0.4395023580252015   F   F   F
  0.4044148221271726  0.6101724300038001  0.4624736492929173   F   F   F
  0.4722931245665194  0.5596737886932672  0.5729988711091565   F   F   F
  0.6552684236953183  0.5165424048424470  0.4543399438695133   F   F   F
  0.5967309916701211  0.5535378348504167  0.5056109707055541   F   F   F
  0.5314074673932367  0.5941153005651714  0.5336729985293047   F   F   F
  0.5796732686089143  0.4997731718447866  0.4507473928409595   F   F   F
  0.4572665317241340  0.3279380559108340  0.3399413070375261   T   T   T
  0.3905180950192175  0.5252419063175111  0.4552418453041511   F   F   F
  0.4522634409729281  0.3256094551037613  0.4195591878410750   T   T   T
  0.5074804872141527  0.4592780196109629  0.3501259710292359   F   F   F
  0.6012877811302459  0.4669891268301640  0.5212355700313438   F   F   F
  0.5384608035519776  0.4312182275275163  0.4821288228790692   F   F   F
  0.4713083414346286  0.4805797151798927  0.5807598339419258   F   F   F
  0.3771163837573610  0.4514853175274567  0.4282230665427278   F   F   F
  0.4059018739390154  0.3822235888080883  0.4561785915149272   F   F   F
  0.5357818896390683  0.5680835373033233  0.4543473312664048   F   F   F
  0.4924712632432886  0.6367287407321953  0.4646113344718685   F   F   F
  0.4677327221812249  0.5829886973614862  0.4038343643763724   F   F   F
  0.5280944416629296  0.5063826634733033  0.5194466411805863   F   F   F
  0.6212454441397384  0.5105019604624417  0.3755946010283822   F   F   F
  0.6054499763524817  0.5821019035045651  0.4188664505762958   F   F   F
  0.4050790883739026  0.5245211222763402  0.5434909784116542   F   F   F
  0.3513663993057412  0.4701076975857930  0.5091806458147828   T   T   T
  0.4338983851384866  0.4602974524814433  0.3031664237726914   T   T   T
  0.5382497948738161  0.4214940173017490  0.5685735117588174   T   T   T
  0.3577445163882336  0.3864332245453651  0.5395289312515081   T   T   T
  0.4625951421883201  0.5516617238622956  0.4875128022361963   F   F   F
  0.6060246906254202  0.3746556912594246  0.5091523713118408   T   T   T
  0.4919900461514144  0.4381353697367443  0.6574715519035156   T   T   T
  0.5866937446380783  0.4692394138500458  0.3057293621549628   T   T   T
  0.4900497958562298  0.4037080615820798  0.4151644571778519   F   F   F
  0.4352543322655251  0.6754448045277240  0.4137481063290924   T   T   T
  0.4686492110294961  0.5365264170846581  0.6602176032739816   T   T   T
  0.5397532608265934  0.5319899791087650  0.3771480104995177   F   F   F
  0.6685156696767551  0.6003386160091176  0.4841891093578555   T   T   T
  0.6660194105402417  0.5190662984093732  0.5504868161796299   T   T   T
  0.3724684343106935  0.3367963779475631  0.3837282207219609   T   T   T
  0.6782023424675201  0.4362003423285539  0.4864119877420179   T   T   T
  0.5382063947273558  0.3191653635492227  0.3910136273988823   T   T   T
  0.3021616427769757  0.5033673215711695  0.4384545487094596   T   T   T
  0.3129753670343014  0.3961001233447261  0.4498106656656509   T   T   T
  0.5124250381475050  0.6251360100674499  0.6169484579087607   T   T   T
  0.4491094033004799  0.3738731812109003  0.5850173905035607   T   T   T
  0.3904300440054775  0.5797325005607894  0.6136561976929330   T   T   T
  0.4048991339388011  0.3053870428029125  0.4992829824166364   T   T   T
  0.4012616052747839  0.3774665666163885  0.2864142785910193   T   T   T
  0.3833251314230250  0.5356024980425377  0.2925428702140384   T   T   T
  0.6927705962155664  0.4602614703440688  0.3873775339252289   T   T   T
  0.3380130121556755  0.5727265737901678  0.5132979276743714   T   T   T
  0.5997177265064947  0.5736848844666743  0.3086349755947848   T   T   T
  0.6125810984185452  0.6142478762947271  0.5756924657908630   T   T   T
  0.4389132310621580  0.6174356559223639  0.3246325026591219   T   T   T
  0.4691302887602371  0.2797637713035129  0.2931211580054923   T   T   T
  0.5134556880710629  0.3243407331870211  0.2445969212899501   T   T   T
  0.4929310145561218  0.2865292875849715  0.2560434900274827   T   T   T
  0.4955614239630448  0.2562578638747268  0.2318141325753615   T   T   T
 
  0.00000000E+00  0.00000000E+00  0.00000000E+00
  0.00000000E+00  0.00000000E+00  0.00000000E+00
  0.00000000E+00  0.00000000E+00  0.00000000E+00
  0.00000000E+00  0.00000000E+00  0.00000000E+00
  0.00000000E+00  0.00000000E+00  0.00000000E+00
  0.00000000E+00  0.00000000E+00  0.00000000E+00
  0.00000000E+00  0.00000000E+00  0.00000000E+00
  0.00000000E+00  0.00000000E+00  0.00000000E+00
  0.00000000E+00  0.00000000E+00  0.00000000E+00
  0.00000000E+00  0.00000000E+00  0.00000000E+00
  0.00000000E+00  0.00000000E+00  0.00000000E+00
  0.00000000E+00  0.00000000E+00  0.00000000E+00
  0.00000000E+00  0.00000000E+00  0.00000000E+00
  0.00000000E+00  0.00000000E+00  0.00000000E+00
  0.00000000E+00  0.00000000E+00  0.00000000E+00
  0.00000000E+00  0.00000000E+00  0.00000000E+00
  0.00000000E+00  0.00000000E+00  0.00000000E+00
  0.00000000E+00  0.00000000E+00  0.00000000E+00
  0.00000000E+00  0.00000000E+00  0.00000000E+00
  0.00000000E+00  0.00000000E+00  0.00000000E+00
  0.00000000E+00  0.00000000E+00  0.00000000E+00
  0.00000000E+00  0.00000000E+00  0.00000000E+00
  0.00000000E+00  0.00000000E+00  0.00000000E+00
  0.00000000E+00  0.00000000E+00  0.00000000E+00
  0.00000000E+00  0.00000000E+00  0.00000000E+00
  0.00000000E+00  0.00000000E+00  0.00000000E+00
  0.00000000E+00  0.00000000E+00  0.00000000E+00
  0.00000000E+00  0.00000000E+00  0.00000000E+00
  0.00000000E+00  0.00000000E+00  0.00000000E+00
  0.00000000E+00  0.00000000E+00  0.00000000E+00
  0.00000000E+00  0.00000000E+00  0.00000000E+00
  0.00000000E+00  0.00000000E+00  0.00000000E+00
  0.00000000E+00  0.00000000E+00  0.00000000E+00
  0.00000000E+00  0.00000000E+00  0.00000000E+00
  0.00000000E+00  0.00000000E+00  0.00000000E+00
  0.00000000E+00  0.00000000E+00  0.00000000E+00
  0.00000000E+00  0.00000000E+00  0.00000000E+00
  0.00000000E+00  0.00000000E+00  0.00000000E+00
  0.00000000E+00  0.00000000E+00  0.00000000E+00
  0.00000000E+00  0.00000000E+00  0.00000000E+00
  0.00000000E+00  0.00000000E+00  0.00000000E+00
  0.00000000E+00  0.00000000E+00  0.00000000E+00
  0.00000000E+00  0.00000000E+00  0.00000000E+00
  0.00000000E+00  0.00000000E+00  0.00000000E+00
  0.00000000E+00  0.00000000E+00  0.00000000E+00
  0.00000000E+00  0.00000000E+00  0.00000000E+00
  0.00000000E+00  0.00000000E+00  0.00000000E+00
  0.00000000E+00  0.00000000E+00  0.00000000E+00
  0.00000000E+00  0.00000000E+00  0.00000000E+00
  0.00000000E+00  0.00000000E+00  0.00000000E+00
  0.00000000E+00  0.00000000E+00  0.00000000E+00
  0.00000000E+00  0.00000000E+00  0.00000000E+00
  0.00000000E+00  0.00000000E+00  0.00000000E+00
  0.00000000E+00  0.00000000E+00  0.00000000E+00
  0.00000000E+00  0.00000000E+00  0.00000000E+00
  0.00000000E+00  0.00000000E+00  0.00000000E+00
  0.00000000E+00  0.00000000E+00  0.00000000E+00
  0.00000000E+00  0.00000000E+00  0.00000000E+00
  0.00000000E+00  0.00000000E+00  0.00000000E+00
  0.00000000E+00  0.00000000E+00  0.00000000E+00
  0.00000000E+00  0.00000000E+00  0.00000000E+00
  0.00000000E+00  0.00000000E+00  0.00000000E+00
  0.00000000E+00  0.00000000E+00  0.00000000E+00
  0.00000000E+00  0.00000000E+00  0.00000000E+00
  0.00000000E+00  0.00000000E+00  0.00000000E+00
  0.00000000E+00  0.00000000E+00  0.00000000E+00
  0.00000000E+00  0.00000000E+00  0.00000000E+00
  0.00000000E+00  0.00000000E+00  0.00000000E+00
  0.00000000E+00  0.00000000E+00  0.00000000E+00
  0.00000000E+00  0.00000000E+00  0.00000000E+00
  0.00000000E+00  0.00000000E+00  0.00000000E+00
  0.00000000E+00  0.00000000E+00  0.00000000E+00
