La Co Ni Sn Bi O  C  H                  
   1.00000000000000     
    29.1044006348000011    0.0000000000000000    0.0000000000000000
     0.4451680315000000   28.3694074727000007    0.0000000000000000
     0.0682082826000000    0.3036559964000000   28.5240018092999996
   La   Co   Ni   Sn   Bi   O    C    H 
    14    13    13    14    14     2     1     1
Selective dynamics
Direct
  0.5923147662786223  0.4200026667406008  0.4077420574648122   T   T   T
  0.6853894515540917  0.5710474378175759  0.3809390618209019   T   T   T
  0.4956870826869125  0.5276886372706305  0.2823510066053324   T   T   T
  0.5623014547356473  0.5221654943733808  0.6021218302718825   T   T   T
  0.5082702436081612  0.3873096732619701  0.3053191831649552   T   T   T
  0.5749723240529349  0.6555295597419665  0.4835627974298518   T   T   T
  0.5113039034109205  0.3387907179416465  0.4996365849709721   T   T   T
  0.5352951700094534  0.6376023192175216  0.3752685443376082   T   T   T
  0.4361488238778536  0.6432770799951708  0.5358799236853368   T   T   T
  0.4373551010143757  0.5015757590148624  0.3842817269995109   F   F   F
  0.4437846394494898  0.4460183835780285  0.5005161578087822   F   F   F
  0.3881004064677284  0.4674819805624985  0.6105242259288317   T   T   T
  0.3442996136204874  0.4452376961802795  0.3465145523023229   T   T   T
  0.3622277982293059  0.5862185145222890  0.3934867425404822   T   T   T
  0.4217425606853311  0.4061295180575186  0.3699802678458894   F   F   F
  0.5011311695957161  0.4887203336762909  0.4395023580252015   F   F   F
  0.4044148221271726  0.6101724300038001  0.4624736492929173   F   F   F
  0.4722931245665194  0.5596737886932672  0.5729988711091565   F   F   F
  0.6552684236953183  0.5165424048424470  0.4543399438695133   F   F   F
  0.5967309916701211  0.5535378348504167  0.5056109707055541   F   F   F
  0.5314074673932367  0.5941153005651714  0.5336729985293047   F   F   F
  0.5796732686089143  0.4997731718447866  0.4507473928409595   F   F   F
  0.4592942319095600  0.3297831664188410  0.3460379301671124   T   T   T
  0.3905180950192175  0.5252419063175111  0.4552418453041511   F   F   F
  0.4537010900512887  0.3240482644764059  0.4248177075662297   T   T   T
  0.5074804872141527  0.4592780196109629  0.3501259710292359   F   F   F
  0.6012877811302459  0.4669891268301640  0.5212355700313438   F   F   F
  0.5384608035519776  0.4312182275275163  0.4821288228790692   F   F   F
  0.4713083414346286  0.4805797151798927  0.5807598339419258   F   F   F
  0.3771163837573610  0.4514853175274567  0.4282230665427278   F   F   F
  0.4059018739390154  0.3822235888080883  0.4561785915149272   F   F   F
  0.5357818896390683  0.5680835373033233  0.4543473312664048   F   F   F
  0.4924712632432886  0.6367287407321953  0.4646113344718685   F   F   F
  0.4677327221812249  0.5829886973614862  0.4038343643763724   F   F   F
  0.5280944416629296  0.5063826634733033  0.5194466411805863   F   F   F
  0.6212454441397384  0.5105019604624417  0.3755946010283822   F   F   F
  0.6054499763524817  0.5821019035045651  0.4188664505762958   F   F   F
  0.4050790883739026  0.5245211222763402  0.5434909784116542   F   F   F
  0.3495640786111251  0.4710854843663454  0.5088379324196913   T   T   T
  0.4337924590149352  0.4572200870877353  0.3020516925248622   T   T   T
  0.5386949620170327  0.4220420718954498  0.5692643417114333   T   T   T
  0.3585152084982737  0.3886230285065030  0.5386860372658939   T   T   T
  0.4625951421883201  0.5516617238622956  0.4875128022361963   F   F   F
  0.6083978234823377  0.3763294967457499  0.5115710251508988   T   T   T
  0.4929560315096193  0.4404741810056877  0.6586035052713500   T   T   T
  0.5873179318332992  0.4673130859336966  0.3065571706183464   T   T   T
  0.4900497958562298  0.4037080615820798  0.4151644571778519   F   F   F
  0.4356069096347960  0.6748159823199245  0.4128484844049536   T   T   T
  0.4678761242718562  0.5378674853640305  0.6602853334297272   T   T   T
  0.5397532608265934  0.5319899791087650  0.3771480104995177   F   F   F
  0.6683958063694077  0.6004551438327834  0.4834858707208927   T   T   T
  0.6654498636005495  0.5192044523251619  0.5509564848586183   T   T   T
  0.3734691847748937  0.3360206853580704  0.3855419193104975   T   T   T
  0.6796499511808325  0.4372073940786590  0.4868230638767134   T   T   T
  0.5390036736659568  0.3182394062863290  0.3915437509319077   T   T   T
  0.3028094370720860  0.5038468210020222  0.4361451797230710   T   T   T
  0.3119745376436771  0.3973432379229431  0.4492660491786535   T   T   T
  0.5125234805433433  0.6254083132817851  0.6169211747102830   T   T   T
  0.4503599356878052  0.3751633742889105  0.5864346420214418   T   T   T
  0.3900241221432338  0.5807835314394201  0.6127992480353769   T   T   T
  0.4087508981270266  0.3075106331134606  0.5054798540710277   T   T   T
  0.4019592583022946  0.3718478231987241  0.2871729833858574   T   T   T
  0.3842646506566740  0.5337812673283963  0.2920288054676544   T   T   T
  0.6925057832992572  0.4602235222736503  0.3872604903313334   T   T   T
  0.3378386912042887  0.5726757606119520  0.5128067218495557   T   T   T
  0.5995927421287565  0.5723060621810759  0.3078729565527935   T   T   T
  0.6128185775437609  0.6145121101439216  0.5754086552191040   T   T   T
  0.4403123895951888  0.6154413320709116  0.3235856745022607   T   T   T
  0.3008682843341424  0.3650714015709687  0.5850433260750265   T   T   T
  0.2846202505771251  0.3208361624678179  0.5214689532773881   T   T   T
  0.2768908372962853  0.3343878563381572  0.5621322223252557   T   T   T
  0.2471979823284370  0.3203640627312634  0.5823523193068998   T   T   T
 
  0.00000000E+00  0.00000000E+00  0.00000000E+00
  0.00000000E+00  0.00000000E+00  0.00000000E+00
  0.00000000E+00  0.00000000E+00  0.00000000E+00
  0.00000000E+00  0.00000000E+00  0.00000000E+00
  0.00000000E+00  0.00000000E+00  0.00000000E+00
  0.00000000E+00  0.00000000E+00  0.00000000E+00
  0.00000000E+00  0.00000000E+00  0.00000000E+00
  0.00000000E+00  0.00000000E+00  0.00000000E+00
  0.00000000E+00  0.00000000E+00  0.00000000E+00
  0.00000000E+00  0.00000000E+00  0.00000000E+00
  0.00000000E+00  0.00000000E+00  0.00000000E+00
  0.00000000E+00  0.00000000E+00  0.00000000E+00
  0.00000000E+00  0.00000000E+00  0.00000000E+00
  0.00000000E+00  0.00000000E+00  0.00000000E+00
  0.00000000E+00  0.00000000E+00  0.00000000E+00
  0.00000000E+00  0.00000000E+00  0.00000000E+00
  0.00000000E+00  0.00000000E+00  0.00000000E+00
  0.00000000E+00  0.00000000E+00  0.00000000E+00
  0.00000000E+00  0.00000000E+00  0.00000000E+00
  0.00000000E+00  0.00000000E+00  0.00000000E+00
  0.00000000E+00  0.00000000E+00  0.00000000E+00
  0.00000000E+00  0.00000000E+00  0.00000000E+00
  0.00000000E+00  0.00000000E+00  0.00000000E+00
  0.00000000E+00  0.00000000E+00  0.00000000E+00
  0.00000000E+00  0.00000000E+00  0.00000000E+00
  0.00000000E+00  0.00000000E+00  0.00000000E+00
  0.00000000E+00  0.00000000E+00  0.00000000E+00
  0.00000000E+00  0.00000000E+00  0.00000000E+00
  0.00000000E+00  0.00000000E+00  0.00000000E+00
  0.00000000E+00  0.00000000E+00  0.00000000E+00
  0.00000000E+00  0.00000000E+00  0.00000000E+00
  0.00000000E+00  0.00000000E+00  0.00000000E+00
  0.00000000E+00  0.00000000E+00  0.00000000E+00
  0.00000000E+00  0.00000000E+00  0.00000000E+00
  0.00000000E+00  0.00000000E+00  0.00000000E+00
  0.00000000E+00  0.00000000E+00  0.00000000E+00
  0.00000000E+00  0.00000000E+00  0.00000000E+00
  0.00000000E+00  0.00000000E+00  0.00000000E+00
  0.00000000E+00  0.00000000E+00  0.00000000E+00
  0.00000000E+00  0.00000000E+00  0.00000000E+00
  0.00000000E+00  0.00000000E+00  0.00000000E+00
  0.00000000E+00  0.00000000E+00  0.00000000E+00
  0.00000000E+00  0.00000000E+00  0.00000000E+00
  0.00000000E+00  0.00000000E+00  0.00000000E+00
  0.00000000E+00  0.00000000E+00  0.00000000E+00
  0.00000000E+00  0.00000000E+00  0.00000000E+00
  0.00000000E+00  0.00000000E+00  0.00000000E+00
  0.00000000E+00  0.00000000E+00  0.00000000E+00
  0.00000000E+00  0.00000000E+00  0.00000000E+00
  0.00000000E+00  0.00000000E+00  0.00000000E+00
  0.00000000E+00  0.00000000E+00  0.00000000E+00
  0.00000000E+00  0.00000000E+00  0.00000000E+00
  0.00000000E+00  0.00000000E+00  0.00000000E+00
  0.00000000E+00  0.00000000E+00  0.00000000E+00
  0.00000000E+00  0.00000000E+00  0.00000000E+00
  0.00000000E+00  0.00000000E+00  0.00000000E+00
  0.00000000E+00  0.00000000E+00  0.00000000E+00
  0.00000000E+00  0.00000000E+00  0.00000000E+00
  0.00000000E+00  0.00000000E+00  0.00000000E+00
  0.00000000E+00  0.00000000E+00  0.00000000E+00
  0.00000000E+00  0.00000000E+00  0.00000000E+00
  0.00000000E+00  0.00000000E+00  0.00000000E+00
  0.00000000E+00  0.00000000E+00  0.00000000E+00
  0.00000000E+00  0.00000000E+00  0.00000000E+00
  0.00000000E+00  0.00000000E+00  0.00000000E+00
  0.00000000E+00  0.00000000E+00  0.00000000E+00
  0.00000000E+00  0.00000000E+00  0.00000000E+00
  0.00000000E+00  0.00000000E+00  0.00000000E+00
  0.00000000E+00  0.00000000E+00  0.00000000E+00
  0.00000000E+00  0.00000000E+00  0.00000000E+00
  0.00000000E+00  0.00000000E+00  0.00000000E+00
  0.00000000E+00  0.00000000E+00  0.00000000E+00
