La Co Ni Sn Bi O  C  H                  
   1.00000000000000     
    29.1044006348000011    0.0000000000000000    0.0000000000000000
     0.4451680315000000   28.3694074727000007    0.0000000000000000
     0.0682082826000000    0.3036559964000000   28.5240018092999996
   La   Co   Ni   Sn   Bi   O    C    H 
    14    13    13    14    14     2     1     1
Selective dynamics
Direct
  0.5920956551521345  0.4204885085547430  0.4075789430098914   T   T   T
  0.6854785810226309  0.5709311442970350  0.3810666877053859   T   T   T
  0.4953460595425204  0.5275998610913257  0.2824335525119486   T   T   T
  0.5625147306630187  0.5219776021020758  0.6020918140659042   T   T   T
  0.5090894425080725  0.3866573563680833  0.3058065245393166   T   T   T
  0.5750796677827544  0.6554948698999277  0.4834489662413832   T   T   T
  0.5075019411975583  0.3386681465633077  0.5006554468181503   T   T   T
  0.5346425063245005  0.6376242623625205  0.3749759421805967   T   T   T
  0.4360959013527076  0.6437100640928135  0.5352706754784353   T   T   T
  0.4373551010143757  0.5015757590148624  0.3842817269995109   F   F   F
  0.4437846394494898  0.4460183835780285  0.5005161578087822   F   F   F
  0.3859337532498127  0.4682507605076348  0.6136745806933429   T   T   T
  0.3443878899564073  0.4437891571348086  0.3474027209266617   T   T   T
  0.3613679403524577  0.5853519030243525  0.3939344972960528   T   T   T
  0.4217425606853311  0.4061295180575186  0.3699802678458894   F   F   F
  0.5011311695957161  0.4887203336762909  0.4395023580252015   F   F   F
  0.4044148221271726  0.6101724300038001  0.4624736492929173   F   F   F
  0.4722931245665194  0.5596737886932672  0.5729988711091565   F   F   F
  0.6552684236953183  0.5165424048424470  0.4543399438695133   F   F   F
  0.5967309916701211  0.5535378348504167  0.5056109707055541   F   F   F
  0.5314074673932367  0.5941153005651714  0.5336729985293047   F   F   F
  0.5796732686089143  0.4997731718447866  0.4507473928409595   F   F   F
  0.4606229744189861  0.3307972271704828  0.3455704244239134   T   T   T
  0.3905180950192175  0.5252419063175111  0.4552418453041511   F   F   F
  0.4539422811315934  0.3243019528013761  0.4249985333214658   T   T   T
  0.5074804872141527  0.4592780196109629  0.3501259710292359   F   F   F
  0.6012877811302459  0.4669891268301640  0.5212355700313438   F   F   F
  0.5384608035519776  0.4312182275275163  0.4821288228790692   F   F   F
  0.4713083414346286  0.4805797151798927  0.5807598339419258   F   F   F
  0.3771163837573610  0.4514853175274567  0.4282230665427278   F   F   F
  0.4059018739390154  0.3822235888080883  0.4561785915149272   F   F   F
  0.5357818896390683  0.5680835373033233  0.4543473312664048   F   F   F
  0.4924712632432886  0.6367287407321953  0.4646113344718685   F   F   F
  0.4677327221812249  0.5829886973614862  0.4038343643763724   F   F   F
  0.5280944416629296  0.5063826634733033  0.5194466411805863   F   F   F
  0.6212454441397384  0.5105019604624417  0.3755946010283822   F   F   F
  0.6054499763524817  0.5821019035045651  0.4188664505762958   F   F   F
  0.4050790883739026  0.5245211222763402  0.5434909784116542   F   F   F
  0.3509847281627824  0.4707134785721698  0.5084991889728881   T   T   T
  0.4341094228592999  0.4571030582117880  0.3020144790729066   T   T   T
  0.5387540846424056  0.4218933995193780  0.5691989340232327   T   T   T
  0.3568449477577707  0.3894752735315776  0.5426515698801408   T   T   T
  0.4625951421883201  0.5516617238622956  0.4875128022361963   F   F   F
  0.6061152849710966  0.3748610781501186  0.5097943625826692   T   T   T
  0.4947187166530622  0.4408792260423444  0.6587077174165039   T   T   T
  0.5872797477090953  0.4676145033012030  0.3063161072959129   T   T   T
  0.4900497958562298  0.4037080615820798  0.4151644571778519   F   F   F
  0.4351798978352779  0.6744505523801222  0.4126648503647188   T   T   T
  0.4685045014977962  0.5380426102977942  0.6603926907391768   T   T   T
  0.5397532608265934  0.5319899791087650  0.3771480104995177   F   F   F
  0.6683253594906141  0.6005658296079998  0.4836264933942681   T   T   T
  0.6658097793691635  0.5193369072010104  0.5505134627939835   T   T   T
  0.3743675095534815  0.3349994577180029  0.3855229562830990   T   T   T
  0.6785388060838967  0.4362292561343715  0.4866781177874095   T   T   T
  0.5394533511671202  0.3184564723134344  0.3927722117571675   T   T   T
  0.3022603688758391  0.5027456825214975  0.4370328829224258   T   T   T
  0.3137651826397677  0.3957922377302993  0.4516521205210204   T   T   T
  0.5123322448590010  0.6255864881021423  0.6166400366564712   T   T   T
  0.4494768989039398  0.3771381573783910  0.5875834223262049   T   T   T
  0.3908996892442655  0.5813959612777133  0.6125050934437153   T   T   T
  0.4036062695434710  0.3078153698074622  0.5036427627939718   T   T   T
  0.4027951728195965  0.3715075301773147  0.2870714526855760   T   T   T
  0.3836218339718312  0.5330548399091232  0.2924959339323168   T   T   T
  0.6925667701173990  0.4601166966617797  0.3875253441239828   T   T   T
  0.3376438570531725  0.5723468087014841  0.5128055981702502   T   T   T
  0.5995423898316736  0.5725351890952819  0.3079756654553258   T   T   T
  0.6127137208975529  0.6144885498584286  0.5754842775318534   T   T   T
  0.4394224713096985  0.6148397480770260  0.3236910388545602   T   T   T
  0.3093892281257400  0.4478388107543109  0.6304006008995789   T   T   T
  0.2731004668874417  0.4027449314126221  0.5766684154547267   T   T   T
  0.2735135703780237  0.4314123060370466  0.6097421375300267   T   T   T
  0.2399132682512286  0.4447940625589887  0.6235563635194273   T   T   T
 
  0.00000000E+00  0.00000000E+00  0.00000000E+00
  0.00000000E+00  0.00000000E+00  0.00000000E+00
  0.00000000E+00  0.00000000E+00  0.00000000E+00
  0.00000000E+00  0.00000000E+00  0.00000000E+00
  0.00000000E+00  0.00000000E+00  0.00000000E+00
  0.00000000E+00  0.00000000E+00  0.00000000E+00
  0.00000000E+00  0.00000000E+00  0.00000000E+00
  0.00000000E+00  0.00000000E+00  0.00000000E+00
  0.00000000E+00  0.00000000E+00  0.00000000E+00
  0.00000000E+00  0.00000000E+00  0.00000000E+00
  0.00000000E+00  0.00000000E+00  0.00000000E+00
  0.00000000E+00  0.00000000E+00  0.00000000E+00
  0.00000000E+00  0.00000000E+00  0.00000000E+00
  0.00000000E+00  0.00000000E+00  0.00000000E+00
  0.00000000E+00  0.00000000E+00  0.00000000E+00
  0.00000000E+00  0.00000000E+00  0.00000000E+00
  0.00000000E+00  0.00000000E+00  0.00000000E+00
  0.00000000E+00  0.00000000E+00  0.00000000E+00
  0.00000000E+00  0.00000000E+00  0.00000000E+00
  0.00000000E+00  0.00000000E+00  0.00000000E+00
  0.00000000E+00  0.00000000E+00  0.00000000E+00
  0.00000000E+00  0.00000000E+00  0.00000000E+00
  0.00000000E+00  0.00000000E+00  0.00000000E+00
  0.00000000E+00  0.00000000E+00  0.00000000E+00
  0.00000000E+00  0.00000000E+00  0.00000000E+00
  0.00000000E+00  0.00000000E+00  0.00000000E+00
  0.00000000E+00  0.00000000E+00  0.00000000E+00
  0.00000000E+00  0.00000000E+00  0.00000000E+00
  0.00000000E+00  0.00000000E+00  0.00000000E+00
  0.00000000E+00  0.00000000E+00  0.00000000E+00
  0.00000000E+00  0.00000000E+00  0.00000000E+00
  0.00000000E+00  0.00000000E+00  0.00000000E+00
  0.00000000E+00  0.00000000E+00  0.00000000E+00
  0.00000000E+00  0.00000000E+00  0.00000000E+00
  0.00000000E+00  0.00000000E+00  0.00000000E+00
  0.00000000E+00  0.00000000E+00  0.00000000E+00
  0.00000000E+00  0.00000000E+00  0.00000000E+00
  0.00000000E+00  0.00000000E+00  0.00000000E+00
  0.00000000E+00  0.00000000E+00  0.00000000E+00
  0.00000000E+00  0.00000000E+00  0.00000000E+00
  0.00000000E+00  0.00000000E+00  0.00000000E+00
  0.00000000E+00  0.00000000E+00  0.00000000E+00
  0.00000000E+00  0.00000000E+00  0.00000000E+00
  0.00000000E+00  0.00000000E+00  0.00000000E+00
  0.00000000E+00  0.00000000E+00  0.00000000E+00
  0.00000000E+00  0.00000000E+00  0.00000000E+00
  0.00000000E+00  0.00000000E+00  0.00000000E+00
  0.00000000E+00  0.00000000E+00  0.00000000E+00
  0.00000000E+00  0.00000000E+00  0.00000000E+00
  0.00000000E+00  0.00000000E+00  0.00000000E+00
  0.00000000E+00  0.00000000E+00  0.00000000E+00
  0.00000000E+00  0.00000000E+00  0.00000000E+00
  0.00000000E+00  0.00000000E+00  0.00000000E+00
  0.00000000E+00  0.00000000E+00  0.00000000E+00
  0.00000000E+00  0.00000000E+00  0.00000000E+00
  0.00000000E+00  0.00000000E+00  0.00000000E+00
  0.00000000E+00  0.00000000E+00  0.00000000E+00
  0.00000000E+00  0.00000000E+00  0.00000000E+00
  0.00000000E+00  0.00000000E+00  0.00000000E+00
  0.00000000E+00  0.00000000E+00  0.00000000E+00
  0.00000000E+00  0.00000000E+00  0.00000000E+00
  0.00000000E+00  0.00000000E+00  0.00000000E+00
  0.00000000E+00  0.00000000E+00  0.00000000E+00
  0.00000000E+00  0.00000000E+00  0.00000000E+00
  0.00000000E+00  0.00000000E+00  0.00000000E+00
  0.00000000E+00  0.00000000E+00  0.00000000E+00
  0.00000000E+00  0.00000000E+00  0.00000000E+00
  0.00000000E+00  0.00000000E+00  0.00000000E+00
  0.00000000E+00  0.00000000E+00  0.00000000E+00
  0.00000000E+00  0.00000000E+00  0.00000000E+00
  0.00000000E+00  0.00000000E+00  0.00000000E+00
  0.00000000E+00  0.00000000E+00  0.00000000E+00
