La Co Ni Sn Bi O  C  H                  
   1.00000000000000     
    29.1044006348000011    0.0000000000000000    0.0000000000000000
     0.4451680315000000   28.3694074727000007    0.0000000000000000
     0.0682082826000000    0.3036559964000000   28.5240018092999996
   La   Co   Ni   Sn   Bi   O    C    H 
    14    13    13    14    14     2     1     1
Selective dynamics
Direct
  0.5921868450924076  0.4201701414770024  0.4081577752189006   T   T   T
  0.6849480504001055  0.5709872757494195  0.3803751135512579   T   T   T
  0.4967694116060844  0.5239348387640224  0.2786825636380800   T   T   T
  0.5623267630115486  0.5216466040950288  0.6020483008388748   T   T   T
  0.5096383255412487  0.3889068851269882  0.3020373930961551   T   T   T
  0.5752422383398631  0.6554585050581399  0.4834340601029445   T   T   T
  0.5098370581265160  0.3376934054261201  0.4986200961591066   T   T   T
  0.5355824639919857  0.6375808828753994  0.3749335337977157   T   T   T
  0.4355910449916757  0.6430426744436234  0.5357714161834962   T   T   T
  0.4373551010143757  0.5015757590148624  0.3842817269995109   F   F   F
  0.4437846394494898  0.4460183835780285  0.5005161578087822   F   F   F
  0.3875511101703878  0.4663466066587107  0.6093680307578262   T   T   T
  0.3443761811741238  0.4440740766779699  0.3467384952549794   T   T   T
  0.3625503090851608  0.5856447513606502  0.3931963701281280   T   T   T
  0.4217425606853311  0.4061295180575186  0.3699802678458894   F   F   F
  0.5011311695957161  0.4887203336762909  0.4395023580252015   F   F   F
  0.4044148221271726  0.6101724300038001  0.4624736492929173   F   F   F
  0.4722931245665194  0.5596737886932672  0.5729988711091565   F   F   F
  0.6552684236953183  0.5165424048424470  0.4543399438695133   F   F   F
  0.5967309916701211  0.5535378348504167  0.5056109707055541   F   F   F
  0.5314074673932367  0.5941153005651714  0.5336729985293047   F   F   F
  0.5796732686089143  0.4997731718447866  0.4507473928409595   F   F   F
  0.4587451815520902  0.3287416749814720  0.3458938217435286   T   T   T
  0.3905180950192175  0.5252419063175111  0.4552418453041511   F   F   F
  0.4544226732744781  0.3246710012255043  0.4246063109028490   T   T   T
  0.5074804872141527  0.4592780196109629  0.3501259710292359   F   F   F
  0.6012877811302459  0.4669891268301640  0.5212355700313438   F   F   F
  0.5384608035519776  0.4312182275275163  0.4821288228790692   F   F   F
  0.4713083414346286  0.4805797151798927  0.5807598339419258   F   F   F
  0.3771163837573610  0.4514853175274567  0.4282230665427278   F   F   F
  0.4059018739390154  0.3822235888080883  0.4561785915149272   F   F   F
  0.5357818896390683  0.5680835373033233  0.4543473312664048   F   F   F
  0.4924712632432886  0.6367287407321953  0.4646113344718685   F   F   F
  0.4677327221812249  0.5829886973614862  0.4038343643763724   F   F   F
  0.5280944416629296  0.5063826634733033  0.5194466411805863   F   F   F
  0.6212454441397384  0.5105019604624417  0.3755946010283822   F   F   F
  0.6054499763524817  0.5821019035045651  0.4188664505762958   F   F   F
  0.4050790883739026  0.5245211222763402  0.5434909784116542   F   F   F
  0.3508869961993480  0.4702327588406082  0.5088462049553287   T   T   T
  0.4326251249715630  0.4569908158951129  0.3032244760374521   T   T   T
  0.5379023086424342  0.4215898261166711  0.5689142480288935   T   T   T
  0.3573549414407133  0.3868593052674048  0.5391656037949323   T   T   T
  0.4625951421883201  0.5516617238622956  0.4875128022361963   F   F   F
  0.6071516045388319  0.3756922391733021  0.5112149234882943   T   T   T
  0.4914863482243482  0.4383380657680822  0.6576959148276498   T   T   T
  0.5894545381384472  0.4670575285760874  0.3074504781065429   T   T   T
  0.4900497958562298  0.4037080615820798  0.4151644571778519   F   F   F
  0.4356808220477565  0.6740520781012415  0.4119540211018446   T   T   T
  0.4684270910636854  0.5367004769161300  0.6602420012170774   T   T   T
  0.5397532608265934  0.5319899791087650  0.3771480104995177   F   F   F
  0.6685182046556978  0.6002467145164373  0.4833516797279906   T   T   T
  0.6656523492330675  0.5192170850942442  0.5507552008965024   T   T   T
  0.3741058773013040  0.3348973914755652  0.3852775011584208   T   T   T
  0.6792603360864982  0.4368515759205634  0.4864908153707131   T   T   T
  0.5391378693051345  0.3190644716600645  0.3901552774166772   T   T   T
  0.3027282689149643  0.5033582149306457  0.4365574338575168   T   T   T
  0.3133011748390380  0.3956770042966552  0.4489174565701894   T   T   T
  0.5123194360886009  0.6252593075880766  0.6168368554788198   T   T   T
  0.4490412404383176  0.3737533805473026  0.5847496149668509   T   T   T
  0.3904144608299202  0.5798865108171626  0.6134423020703084   T   T   T
  0.4059236239513173  0.3055312534089064  0.5011130528528944   T   T   T
  0.4025762907955625  0.3708890943313423  0.2874866285829787   T   T   T
  0.3842147677805778  0.5334471709521316  0.2919062787110301   T   T   T
  0.6923051176676879  0.4600390045958803  0.3867770059032178   T   T   T
  0.3377555066158426  0.5725642845113917  0.5127404848122403   T   T   T
  0.5990264581904138  0.5718312799715743  0.3071819741322017   T   T   T
  0.6126268478709245  0.6141432351617351  0.5754778886609262   T   T   T
  0.4416619107872133  0.6133236735356594  0.3229911215546238   T   T   T
  0.5088756380614974  0.4691735618413110  0.2169233986137948   T   T   T
  0.5295508413210350  0.3920225334764872  0.2155827937151925   T   T   T
  0.5248967938302640  0.4321770117536993  0.1966033350818139   T   T   T
  0.5355831976333761  0.4364455905511480  0.1593995836344626   T   T   T
 
  0.00000000E+00  0.00000000E+00  0.00000000E+00
  0.00000000E+00  0.00000000E+00  0.00000000E+00
  0.00000000E+00  0.00000000E+00  0.00000000E+00
  0.00000000E+00  0.00000000E+00  0.00000000E+00
  0.00000000E+00  0.00000000E+00  0.00000000E+00
  0.00000000E+00  0.00000000E+00  0.00000000E+00
  0.00000000E+00  0.00000000E+00  0.00000000E+00
  0.00000000E+00  0.00000000E+00  0.00000000E+00
  0.00000000E+00  0.00000000E+00  0.00000000E+00
  0.00000000E+00  0.00000000E+00  0.00000000E+00
  0.00000000E+00  0.00000000E+00  0.00000000E+00
  0.00000000E+00  0.00000000E+00  0.00000000E+00
  0.00000000E+00  0.00000000E+00  0.00000000E+00
  0.00000000E+00  0.00000000E+00  0.00000000E+00
  0.00000000E+00  0.00000000E+00  0.00000000E+00
  0.00000000E+00  0.00000000E+00  0.00000000E+00
  0.00000000E+00  0.00000000E+00  0.00000000E+00
  0.00000000E+00  0.00000000E+00  0.00000000E+00
  0.00000000E+00  0.00000000E+00  0.00000000E+00
  0.00000000E+00  0.00000000E+00  0.00000000E+00
  0.00000000E+00  0.00000000E+00  0.00000000E+00
  0.00000000E+00  0.00000000E+00  0.00000000E+00
  0.00000000E+00  0.00000000E+00  0.00000000E+00
  0.00000000E+00  0.00000000E+00  0.00000000E+00
  0.00000000E+00  0.00000000E+00  0.00000000E+00
  0.00000000E+00  0.00000000E+00  0.00000000E+00
  0.00000000E+00  0.00000000E+00  0.00000000E+00
  0.00000000E+00  0.00000000E+00  0.00000000E+00
  0.00000000E+00  0.00000000E+00  0.00000000E+00
  0.00000000E+00  0.00000000E+00  0.00000000E+00
  0.00000000E+00  0.00000000E+00  0.00000000E+00
  0.00000000E+00  0.00000000E+00  0.00000000E+00
  0.00000000E+00  0.00000000E+00  0.00000000E+00
  0.00000000E+00  0.00000000E+00  0.00000000E+00
  0.00000000E+00  0.00000000E+00  0.00000000E+00
  0.00000000E+00  0.00000000E+00  0.00000000E+00
  0.00000000E+00  0.00000000E+00  0.00000000E+00
  0.00000000E+00  0.00000000E+00  0.00000000E+00
  0.00000000E+00  0.00000000E+00  0.00000000E+00
  0.00000000E+00  0.00000000E+00  0.00000000E+00
  0.00000000E+00  0.00000000E+00  0.00000000E+00
  0.00000000E+00  0.00000000E+00  0.00000000E+00
  0.00000000E+00  0.00000000E+00  0.00000000E+00
  0.00000000E+00  0.00000000E+00  0.00000000E+00
  0.00000000E+00  0.00000000E+00  0.00000000E+00
  0.00000000E+00  0.00000000E+00  0.00000000E+00
  0.00000000E+00  0.00000000E+00  0.00000000E+00
  0.00000000E+00  0.00000000E+00  0.00000000E+00
  0.00000000E+00  0.00000000E+00  0.00000000E+00
  0.00000000E+00  0.00000000E+00  0.00000000E+00
  0.00000000E+00  0.00000000E+00  0.00000000E+00
  0.00000000E+00  0.00000000E+00  0.00000000E+00
  0.00000000E+00  0.00000000E+00  0.00000000E+00
  0.00000000E+00  0.00000000E+00  0.00000000E+00
  0.00000000E+00  0.00000000E+00  0.00000000E+00
  0.00000000E+00  0.00000000E+00  0.00000000E+00
  0.00000000E+00  0.00000000E+00  0.00000000E+00
  0.00000000E+00  0.00000000E+00  0.00000000E+00
  0.00000000E+00  0.00000000E+00  0.00000000E+00
  0.00000000E+00  0.00000000E+00  0.00000000E+00
  0.00000000E+00  0.00000000E+00  0.00000000E+00
  0.00000000E+00  0.00000000E+00  0.00000000E+00
  0.00000000E+00  0.00000000E+00  0.00000000E+00
  0.00000000E+00  0.00000000E+00  0.00000000E+00
  0.00000000E+00  0.00000000E+00  0.00000000E+00
  0.00000000E+00  0.00000000E+00  0.00000000E+00
  0.00000000E+00  0.00000000E+00  0.00000000E+00
  0.00000000E+00  0.00000000E+00  0.00000000E+00
  0.00000000E+00  0.00000000E+00  0.00000000E+00
  0.00000000E+00  0.00000000E+00  0.00000000E+00
  0.00000000E+00  0.00000000E+00  0.00000000E+00
  0.00000000E+00  0.00000000E+00  0.00000000E+00
