La Co Ni Sn Bi O  C  H                  
   1.00000000000000     
    29.1044006348000011    0.0000000000000000    0.0000000000000000
     0.4451680315000000   28.3694074727000007    0.0000000000000000
     0.0682082826000000    0.3036559964000000   28.5240018092999996
   La   Co   Ni   Sn   Bi   O    C    H 
    14    13    13    14    14     2     1     1
Selective dynamics
Direct
  0.5925004839643998  0.4206197131280018  0.4080102964820380   T   T   T
  0.6848609344033728  0.5716281545397627  0.3807547853235292   T   T   T
  0.4955889273960183  0.5266609950419822  0.2818260972538290   T   T   T
  0.5621286566606950  0.5213722109716445  0.6027057444686195   T   T   T
  0.5086979417485790  0.3869576165540583  0.3052784951391716   T   T   T
  0.5748180487072245  0.6557553122240866  0.4847169513924309   T   T   T
  0.5087686040364641  0.3379499961078942  0.4995195068347824   T   T   T
  0.5354503760353482  0.6377767863999082  0.3755606640101067   T   T   T
  0.4366893488890057  0.6435338468972355  0.5357934510456899   T   T   T
  0.4373551010143757  0.5015757590148624  0.3842817269995109   F   F   F
  0.4437846394494898  0.4460183835780285  0.5005161578087822   F   F   F
  0.3872336385774304  0.4668837893990123  0.6093363520098148   T   T   T
  0.3446319345264495  0.4440924574328505  0.3467914176012415   T   T   T
  0.3622466032969872  0.5854557157155684  0.3936748539017497   T   T   T
  0.4217425606853311  0.4061295180575186  0.3699802678458894   F   F   F
  0.5011311695957161  0.4887203336762909  0.4395023580252015   F   F   F
  0.4044148221271726  0.6101724300038001  0.4624736492929173   F   F   F
  0.4722931245665194  0.5596737886932672  0.5729988711091565   F   F   F
  0.6552684236953183  0.5165424048424470  0.4543399438695133   F   F   F
  0.5967309916701211  0.5535378348504167  0.5056109707055541   F   F   F
  0.5314074673932367  0.5941153005651714  0.5336729985293047   F   F   F
  0.5796732686089143  0.4997731718447866  0.4507473928409595   F   F   F
  0.4608978564804548  0.3308371206351504  0.3448639078369634   T   T   T
  0.3905180950192175  0.5252419063175111  0.4552418453041511   F   F   F
  0.4544700234465207  0.3246153422840795  0.4242153954619485   T   T   T
  0.5074804872141527  0.4592780196109629  0.3501259710292359   F   F   F
  0.6012877811302459  0.4669891268301640  0.5212355700313438   F   F   F
  0.5384608035519776  0.4312182275275163  0.4821288228790692   F   F   F
  0.4713083414346286  0.4805797151798927  0.5807598339419258   F   F   F
  0.3771163837573610  0.4514853175274567  0.4282230665427278   F   F   F
  0.4059018739390154  0.3822235888080883  0.4561785915149272   F   F   F
  0.5357818896390683  0.5680835373033233  0.4543473312664048   F   F   F
  0.4924712632432886  0.6367287407321953  0.4646113344718685   F   F   F
  0.4677327221812249  0.5829886973614862  0.4038343643763724   F   F   F
  0.5280944416629296  0.5063826634733033  0.5194466411805863   F   F   F
  0.6212454441397384  0.5105019604624417  0.3755946010283822   F   F   F
  0.6054499763524817  0.5821019035045651  0.4188664505762958   F   F   F
  0.4050790883739026  0.5245211222763402  0.5434909784116542   F   F   F
  0.3507067763316237  0.4703149427093542  0.5087370165874079   T   T   T
  0.4338841729360916  0.4569535609128358  0.3020590953872884   T   T   T
  0.5379301681725326  0.4218282366636462  0.5687545662130812   T   T   T
  0.3574936814140260  0.3870955015590160  0.5394382780985781   T   T   T
  0.4625951421883201  0.5516617238622956  0.4875128022361963   F   F   F
  0.6065730884163001  0.3752377154759998  0.5103051121849265   T   T   T
  0.4914740326282629  0.4379814369144438  0.6576935352120262   T   T   T
  0.5874403094638322  0.4672865443945030  0.3065668539541434   T   T   T
  0.4900497958562298  0.4037080615820798  0.4151644571778519   F   F   F
  0.4353874088067224  0.6746026119153802  0.4125564712971100   T   T   T
  0.4682340583994265  0.5360933748420310  0.6601545531187764   T   T   T
  0.5397532608265934  0.5319899791087650  0.3771480104995177   F   F   F
  0.6674236339670907  0.6008770124185439  0.4829908909908201   T   T   T
  0.6614853380319474  0.5175765705297605  0.5533594665775049   T   T   T
  0.3748854840588270  0.3345632892082358  0.3847596156859185   T   T   T
  0.6791459760748355  0.4363942323754737  0.4863959105111481   T   T   T
  0.5399102686848120  0.3188563815589865  0.3917628622114862   T   T   T
  0.3024709014876991  0.5030931554203636  0.4365310200939177   T   T   T
  0.3134903311503916  0.3956835764476356  0.4490712842849335   T   T   T
  0.5126720719979583  0.6249288187948979  0.6173908031025859   T   T   T
  0.4486093318071564  0.3740842313994732  0.5851658450505626   T   T   T
  0.3911150542978956  0.5805312524639020  0.6132228860693016   T   T   T
  0.4048069296479174  0.3055135274447742  0.5008779646173918   T   T   T
  0.4024051723645268  0.3714138490558147  0.2869143403041191   T   T   T
  0.3839118179590512  0.5333566745659625  0.2920213323196536   T   T   T
  0.6929945383504361  0.4609422419244935  0.3872827701236359   T   T   T
  0.3377393880855348  0.5722754819160062  0.5127935217441679   T   T   T
  0.5987187211025958  0.5724847358303805  0.3075995685967964   T   T   T
  0.6122762351050420  0.6143409052853630  0.5763516192570092   T   T   T
  0.4407885865477344  0.6142925071378155  0.3235532521142502   T   T   T
  0.7375071158652713  0.5206523884373130  0.5642970916481760   T   T   T
  0.7202126649182805  0.5988782108136883  0.5667578583024370   T   T   T
  0.7473241008418897  0.5643309472235338  0.5714936552184628   T   T   T
  0.7832840861604230  0.5703447988722924  0.5827842804150035   T   T   T
 
  0.00000000E+00  0.00000000E+00  0.00000000E+00
  0.00000000E+00  0.00000000E+00  0.00000000E+00
  0.00000000E+00  0.00000000E+00  0.00000000E+00
  0.00000000E+00  0.00000000E+00  0.00000000E+00
  0.00000000E+00  0.00000000E+00  0.00000000E+00
  0.00000000E+00  0.00000000E+00  0.00000000E+00
  0.00000000E+00  0.00000000E+00  0.00000000E+00
  0.00000000E+00  0.00000000E+00  0.00000000E+00
  0.00000000E+00  0.00000000E+00  0.00000000E+00
  0.00000000E+00  0.00000000E+00  0.00000000E+00
  0.00000000E+00  0.00000000E+00  0.00000000E+00
  0.00000000E+00  0.00000000E+00  0.00000000E+00
  0.00000000E+00  0.00000000E+00  0.00000000E+00
  0.00000000E+00  0.00000000E+00  0.00000000E+00
  0.00000000E+00  0.00000000E+00  0.00000000E+00
  0.00000000E+00  0.00000000E+00  0.00000000E+00
  0.00000000E+00  0.00000000E+00  0.00000000E+00
  0.00000000E+00  0.00000000E+00  0.00000000E+00
  0.00000000E+00  0.00000000E+00  0.00000000E+00
  0.00000000E+00  0.00000000E+00  0.00000000E+00
  0.00000000E+00  0.00000000E+00  0.00000000E+00
  0.00000000E+00  0.00000000E+00  0.00000000E+00
  0.00000000E+00  0.00000000E+00  0.00000000E+00
  0.00000000E+00  0.00000000E+00  0.00000000E+00
  0.00000000E+00  0.00000000E+00  0.00000000E+00
  0.00000000E+00  0.00000000E+00  0.00000000E+00
  0.00000000E+00  0.00000000E+00  0.00000000E+00
  0.00000000E+00  0.00000000E+00  0.00000000E+00
  0.00000000E+00  0.00000000E+00  0.00000000E+00
  0.00000000E+00  0.00000000E+00  0.00000000E+00
  0.00000000E+00  0.00000000E+00  0.00000000E+00
  0.00000000E+00  0.00000000E+00  0.00000000E+00
  0.00000000E+00  0.00000000E+00  0.00000000E+00
  0.00000000E+00  0.00000000E+00  0.00000000E+00
  0.00000000E+00  0.00000000E+00  0.00000000E+00
  0.00000000E+00  0.00000000E+00  0.00000000E+00
  0.00000000E+00  0.00000000E+00  0.00000000E+00
  0.00000000E+00  0.00000000E+00  0.00000000E+00
  0.00000000E+00  0.00000000E+00  0.00000000E+00
  0.00000000E+00  0.00000000E+00  0.00000000E+00
  0.00000000E+00  0.00000000E+00  0.00000000E+00
  0.00000000E+00  0.00000000E+00  0.00000000E+00
  0.00000000E+00  0.00000000E+00  0.00000000E+00
  0.00000000E+00  0.00000000E+00  0.00000000E+00
  0.00000000E+00  0.00000000E+00  0.00000000E+00
  0.00000000E+00  0.00000000E+00  0.00000000E+00
  0.00000000E+00  0.00000000E+00  0.00000000E+00
  0.00000000E+00  0.00000000E+00  0.00000000E+00
  0.00000000E+00  0.00000000E+00  0.00000000E+00
  0.00000000E+00  0.00000000E+00  0.00000000E+00
  0.00000000E+00  0.00000000E+00  0.00000000E+00
  0.00000000E+00  0.00000000E+00  0.00000000E+00
  0.00000000E+00  0.00000000E+00  0.00000000E+00
  0.00000000E+00  0.00000000E+00  0.00000000E+00
  0.00000000E+00  0.00000000E+00  0.00000000E+00
  0.00000000E+00  0.00000000E+00  0.00000000E+00
  0.00000000E+00  0.00000000E+00  0.00000000E+00
  0.00000000E+00  0.00000000E+00  0.00000000E+00
  0.00000000E+00  0.00000000E+00  0.00000000E+00
  0.00000000E+00  0.00000000E+00  0.00000000E+00
  0.00000000E+00  0.00000000E+00  0.00000000E+00
  0.00000000E+00  0.00000000E+00  0.00000000E+00
  0.00000000E+00  0.00000000E+00  0.00000000E+00
  0.00000000E+00  0.00000000E+00  0.00000000E+00
  0.00000000E+00  0.00000000E+00  0.00000000E+00
  0.00000000E+00  0.00000000E+00  0.00000000E+00
  0.00000000E+00  0.00000000E+00  0.00000000E+00
  0.00000000E+00  0.00000000E+00  0.00000000E+00
  0.00000000E+00  0.00000000E+00  0.00000000E+00
  0.00000000E+00  0.00000000E+00  0.00000000E+00
  0.00000000E+00  0.00000000E+00  0.00000000E+00
  0.00000000E+00  0.00000000E+00  0.00000000E+00
