La Co Ni Sn Bi O  C  H                  
   1.00000000000000     
    29.1044006348000011    0.0000000000000000    0.0000000000000000
     0.4451680315000000   28.3694074727000007    0.0000000000000000
     0.0682082826000000    0.3036559964000000   28.5240018092999996
   La   Co   Ni   Sn   Bi   O    C    H 
    14    13    13    14    14     2     1     1
Selective dynamics
Direct
  0.5922855053839452  0.4204878929630823  0.4076314802615400   T   T   T
  0.6848803411791249  0.5712815332415145  0.3805363428892187   T   T   T
  0.4953610275193920  0.5261569710036639  0.2804513406614108   T   T   T
  0.5622667655260198  0.5213571280258450  0.6021033796640008   T   T   T
  0.5072503246506279  0.3905725118470148  0.3005316839103251   T   T   T
  0.5753103063782117  0.6554124862692228  0.4836385842702248   T   T   T
  0.5104706900560325  0.3374807679610967  0.4978497434097481   T   T   T
  0.5351177492338267  0.6377637653117516  0.3753541208934568   T   T   T
  0.4357440823438889  0.6430353395333643  0.5360545407919772   T   T   T
  0.4373551010143757  0.5015757590148624  0.3842817269995109   F   F   F
  0.4437846394494898  0.4460183835780285  0.5005161578087822   F   F   F
  0.3877966818161626  0.4659725310622846  0.6092497473447730   T   T   T
  0.3435187126043771  0.4449555584802194  0.3471592465147949   T   T   T
  0.3617550009489215  0.5857506238684176  0.3939847606829210   T   T   T
  0.4217425606853311  0.4061295180575186  0.3699802678458894   F   F   F
  0.5011311695957161  0.4887203336762909  0.4395023580252015   F   F   F
  0.4044148221271726  0.6101724300038001  0.4624736492929173   F   F   F
  0.4722931245665194  0.5596737886932672  0.5729988711091565   F   F   F
  0.6552684236953183  0.5165424048424470  0.4543399438695133   F   F   F
  0.5967309916701211  0.5535378348504167  0.5056109707055541   F   F   F
  0.5314074673932367  0.5941153005651714  0.5336729985293047   F   F   F
  0.5796732686089143  0.4997731718447866  0.4507473928409595   F   F   F
  0.4585185610252606  0.3288118232923169  0.3450787308699333   T   T   T
  0.3905180950192175  0.5252419063175111  0.4552418453041511   F   F   F
  0.4542602902398682  0.3248223427217060  0.4238008097898404   T   T   T
  0.5074804872141527  0.4592780196109629  0.3501259710292359   F   F   F
  0.6012877811302459  0.4669891268301640  0.5212355700313438   F   F   F
  0.5384608035519776  0.4312182275275163  0.4821288228790692   F   F   F
  0.4713083414346286  0.4805797151798927  0.5807598339419258   F   F   F
  0.3771163837573610  0.4514853175274567  0.4282230665427278   F   F   F
  0.4059018739390154  0.3822235888080883  0.4561785915149272   F   F   F
  0.5357818896390683  0.5680835373033233  0.4543473312664048   F   F   F
  0.4924712632432886  0.6367287407321953  0.4646113344718685   F   F   F
  0.4677327221812249  0.5829886973614862  0.4038343643763724   F   F   F
  0.5280944416629296  0.5063826634733033  0.5194466411805863   F   F   F
  0.6212454441397384  0.5105019604624417  0.3755946010283822   F   F   F
  0.6054499763524817  0.5821019035045651  0.4188664505762958   F   F   F
  0.4050790883739026  0.5245211222763402  0.5434909784116542   F   F   F
  0.3510788488839522  0.4701328089057699  0.5089199367829320   T   T   T
  0.4312741130852102  0.4569641781102356  0.3028044425195133   T   T   T
  0.5379437585624892  0.4213995140445881  0.5686012105622692   T   T   T
  0.3573859770754707  0.3866286438541167  0.5391601842432707   T   T   T
  0.4625951421883201  0.5516617238622956  0.4875128022361963   F   F   F
  0.6074459073062363  0.3759324492355714  0.5103034277325714   T   T   T
  0.4916970075649608  0.4379022455608680  0.6574122730814952   T   T   T
  0.5880660159415475  0.4678177610967091  0.3067400501066637   T   T   T
  0.4900497958562298  0.4037080615820798  0.4151644571778519   F   F   F
  0.4353604550176287  0.6746362886949296  0.4127898750778007   T   T   T
  0.4684533012341365  0.5362854674400498  0.6602690794550703   T   T   T
  0.5397532608265934  0.5319899791087650  0.3771480104995177   F   F   F
  0.6685874928697441  0.6001193500522443  0.4836940835046489   T   T   T
  0.6655546727135128  0.5191031940721591  0.5510352264732404   T   T   T
  0.3736626472624699  0.3348303713453972  0.3856886967720032   T   T   T
  0.6795256326076887  0.4370851260432328  0.4867703421713799   T   T   T
  0.5389242849705935  0.3198510103423302  0.3882411962754592   T   T   T
  0.3024593607950296  0.5032139860944992  0.4373617575288377   T   T   T
  0.3133057129327426  0.3953537483184012  0.4488521392520239   T   T   T
  0.5124025467482477  0.6249108190551781  0.6170729157894148   T   T   T
  0.4494185868918477  0.3732060836633138  0.5842168279027992   T   T   T
  0.3904702789905029  0.5796019068572962  0.6135421776609924   T   T   T
  0.4066280695419117  0.3054706594581919  0.5011820363161349   T   T   T
  0.4000866901717216  0.3700219233181056  0.2889308462016214   T   T   T
  0.3831944528488586  0.5342575466370290  0.2928346962008951   T   T   T
  0.6926903316162121  0.4604310128159203  0.3871554928123728   T   T   T
  0.3377601363632565  0.5725394264386028  0.5128334005897683   T   T   T
  0.5987633930840540  0.5724944645597914  0.3074509312646241   T   T   T
  0.6126212147782254  0.6140298027302576  0.5757261273300778   T   T   T
  0.4403305044522466  0.6148534783877041  0.3237849987200307   T   T   T
  0.4864158531618437  0.4622054818460933  0.2277218895639688   T   T   T
  0.4947829744669397  0.3851954566867276  0.2107227065167619   T   T   T
  0.4843191584173139  0.4269366655916008  0.1994231560604734   T   T   T
  0.4716704203988882  0.4349631308086338  0.1635251221518264   T   T   T
 
  0.00000000E+00  0.00000000E+00  0.00000000E+00
  0.00000000E+00  0.00000000E+00  0.00000000E+00
  0.00000000E+00  0.00000000E+00  0.00000000E+00
  0.00000000E+00  0.00000000E+00  0.00000000E+00
  0.00000000E+00  0.00000000E+00  0.00000000E+00
  0.00000000E+00  0.00000000E+00  0.00000000E+00
  0.00000000E+00  0.00000000E+00  0.00000000E+00
  0.00000000E+00  0.00000000E+00  0.00000000E+00
  0.00000000E+00  0.00000000E+00  0.00000000E+00
  0.00000000E+00  0.00000000E+00  0.00000000E+00
  0.00000000E+00  0.00000000E+00  0.00000000E+00
  0.00000000E+00  0.00000000E+00  0.00000000E+00
  0.00000000E+00  0.00000000E+00  0.00000000E+00
  0.00000000E+00  0.00000000E+00  0.00000000E+00
  0.00000000E+00  0.00000000E+00  0.00000000E+00
  0.00000000E+00  0.00000000E+00  0.00000000E+00
  0.00000000E+00  0.00000000E+00  0.00000000E+00
  0.00000000E+00  0.00000000E+00  0.00000000E+00
  0.00000000E+00  0.00000000E+00  0.00000000E+00
  0.00000000E+00  0.00000000E+00  0.00000000E+00
  0.00000000E+00  0.00000000E+00  0.00000000E+00
  0.00000000E+00  0.00000000E+00  0.00000000E+00
  0.00000000E+00  0.00000000E+00  0.00000000E+00
  0.00000000E+00  0.00000000E+00  0.00000000E+00
  0.00000000E+00  0.00000000E+00  0.00000000E+00
  0.00000000E+00  0.00000000E+00  0.00000000E+00
  0.00000000E+00  0.00000000E+00  0.00000000E+00
  0.00000000E+00  0.00000000E+00  0.00000000E+00
  0.00000000E+00  0.00000000E+00  0.00000000E+00
  0.00000000E+00  0.00000000E+00  0.00000000E+00
  0.00000000E+00  0.00000000E+00  0.00000000E+00
  0.00000000E+00  0.00000000E+00  0.00000000E+00
  0.00000000E+00  0.00000000E+00  0.00000000E+00
  0.00000000E+00  0.00000000E+00  0.00000000E+00
  0.00000000E+00  0.00000000E+00  0.00000000E+00
  0.00000000E+00  0.00000000E+00  0.00000000E+00
  0.00000000E+00  0.00000000E+00  0.00000000E+00
  0.00000000E+00  0.00000000E+00  0.00000000E+00
  0.00000000E+00  0.00000000E+00  0.00000000E+00
  0.00000000E+00  0.00000000E+00  0.00000000E+00
  0.00000000E+00  0.00000000E+00  0.00000000E+00
  0.00000000E+00  0.00000000E+00  0.00000000E+00
  0.00000000E+00  0.00000000E+00  0.00000000E+00
  0.00000000E+00  0.00000000E+00  0.00000000E+00
  0.00000000E+00  0.00000000E+00  0.00000000E+00
  0.00000000E+00  0.00000000E+00  0.00000000E+00
  0.00000000E+00  0.00000000E+00  0.00000000E+00
  0.00000000E+00  0.00000000E+00  0.00000000E+00
  0.00000000E+00  0.00000000E+00  0.00000000E+00
  0.00000000E+00  0.00000000E+00  0.00000000E+00
  0.00000000E+00  0.00000000E+00  0.00000000E+00
  0.00000000E+00  0.00000000E+00  0.00000000E+00
  0.00000000E+00  0.00000000E+00  0.00000000E+00
  0.00000000E+00  0.00000000E+00  0.00000000E+00
  0.00000000E+00  0.00000000E+00  0.00000000E+00
  0.00000000E+00  0.00000000E+00  0.00000000E+00
  0.00000000E+00  0.00000000E+00  0.00000000E+00
  0.00000000E+00  0.00000000E+00  0.00000000E+00
  0.00000000E+00  0.00000000E+00  0.00000000E+00
  0.00000000E+00  0.00000000E+00  0.00000000E+00
  0.00000000E+00  0.00000000E+00  0.00000000E+00
  0.00000000E+00  0.00000000E+00  0.00000000E+00
  0.00000000E+00  0.00000000E+00  0.00000000E+00
  0.00000000E+00  0.00000000E+00  0.00000000E+00
  0.00000000E+00  0.00000000E+00  0.00000000E+00
  0.00000000E+00  0.00000000E+00  0.00000000E+00
  0.00000000E+00  0.00000000E+00  0.00000000E+00
  0.00000000E+00  0.00000000E+00  0.00000000E+00
  0.00000000E+00  0.00000000E+00  0.00000000E+00
  0.00000000E+00  0.00000000E+00  0.00000000E+00
  0.00000000E+00  0.00000000E+00  0.00000000E+00
  0.00000000E+00  0.00000000E+00  0.00000000E+00
