La Co Ni Sn Bi O  C  H                  
   1.00000000000000     
    29.1044006348000011    0.0000000000000000    0.0000000000000000
     0.4451680315000000   28.3694074727000007    0.0000000000000000
     0.0682082826000000    0.3036559964000000   28.5240018092999996
   La   Co   Ni   Sn   Bi   O    C    H 
    14    13    13    14    14     2     1     1
Selective dynamics
Direct
  0.5921002446554554  0.4205577061766793  0.4077026183589255   T   T   T
  0.6855505638957039  0.5709582251054357  0.3812894044512645   T   T   T
  0.4953407600605537  0.5281644259527001  0.2825572559937992   T   T   T
  0.5626437076027421  0.5217365350035380  0.6020144631192019   T   T   T
  0.5088333625231627  0.3871540050966026  0.3053922062690710   T   T   T
  0.5750229059372152  0.6555100446212416  0.4836622609587700   T   T   T
  0.5090820861987685  0.3379140382108367  0.4995543155736332   T   T   T
  0.5347790275733989  0.6377079714977508  0.3751818179807173   T   T   T
  0.4356663473503597  0.6432291977351413  0.5356469332329137   T   T   T
  0.4373551010143757  0.5015757590148624  0.3842817269995109   F   F   F
  0.4437846394494898  0.4460183835780285  0.5005161578087822   F   F   F
  0.3860071007472193  0.4655404862695651  0.6129410372623023   T   T   T
  0.3443532857626059  0.4445379218903855  0.3468413817601360   T   T   T
  0.3616823699110944  0.5858268994233082  0.3938859396249461   T   T   T
  0.4217425606853311  0.4061295180575186  0.3699802678458894   F   F   F
  0.5011311695957161  0.4887203336762909  0.4395023580252015   F   F   F
  0.4044148221271726  0.6101724300038001  0.4624736492929173   F   F   F
  0.4722931245665194  0.5596737886932672  0.5729988711091565   F   F   F
  0.6552684236953183  0.5165424048424470  0.4543399438695133   F   F   F
  0.5967309916701211  0.5535378348504167  0.5056109707055541   F   F   F
  0.5314074673932367  0.5941153005651714  0.5336729985293047   F   F   F
  0.5796732686089143  0.4997731718447866  0.4507473928409595   F   F   F
  0.4606058301719562  0.3308223198784003  0.3446955177492472   T   T   T
  0.3905180950192175  0.5252419063175111  0.4552418453041511   F   F   F
  0.4540502015297185  0.3243801109287838  0.4241151302317570   T   T   T
  0.5074804872141527  0.4592780196109629  0.3501259710292359   F   F   F
  0.6012877811302459  0.4669891268301640  0.5212355700313438   F   F   F
  0.5384608035519776  0.4312182275275163  0.4821288228790692   F   F   F
  0.4713083414346286  0.4805797151798927  0.5807598339419258   F   F   F
  0.3771163837573610  0.4514853175274567  0.4282230665427278   F   F   F
  0.4059018739390154  0.3822235888080883  0.4561785915149272   F   F   F
  0.5357818896390683  0.5680835373033233  0.4543473312664048   F   F   F
  0.4924712632432886  0.6367287407321953  0.4646113344718685   F   F   F
  0.4677327221812249  0.5829886973614862  0.4038343643763724   F   F   F
  0.5280944416629296  0.5063826634733033  0.5194466411805863   F   F   F
  0.6212454441397384  0.5105019604624417  0.3755946010283822   F   F   F
  0.6054499763524817  0.5821019035045651  0.4188664505762958   F   F   F
  0.4050790883739026  0.5245211222763402  0.5434909784116542   F   F   F
  0.3504588571742270  0.4703548347944258  0.5086284761596510   T   T   T
  0.4339550010631874  0.4575301463350970  0.3022365691648438   T   T   T
  0.5382740072907702  0.4218390913543988  0.5685180555951749   T   T   T
  0.3584370242587061  0.3873060427551877  0.5399143743580356   T   T   T
  0.4625951421883201  0.5516617238622956  0.4875128022361963   F   F   F
  0.6066460980703823  0.3751045984254431  0.5102373822116428   T   T   T
  0.4937362416616127  0.4384085002090929  0.6578260046739245   T   T   T
  0.5872283610977820  0.4678523622372371  0.3062806252044468   T   T   T
  0.4900497958562298  0.4037080615820798  0.4151644571778519   F   F   F
  0.4353564785538553  0.6748965882175652  0.4130649818888012   T   T   T
  0.4684197504353375  0.5364443235249960  0.6600604913412524   T   T   T
  0.5397532608265934  0.5319899791087650  0.3771480104995177   F   F   F
  0.6683753755836335  0.6005388683789774  0.4837114868262136   T   T   T
  0.6658040436317610  0.5193368103486085  0.5506053648516036   T   T   T
  0.3745508418776602  0.3349344611729868  0.3847744453953622   T   T   T
  0.6788198362353876  0.4365047820506461  0.4868364760995348   T   T   T
  0.5394742043884670  0.3185320876861914  0.3917040583422956   T   T   T
  0.3024372763520100  0.5032169833777415  0.4365270607649997   T   T   T
  0.3136513526817998  0.3958498628844966  0.4496883018919129   T   T   T
  0.5122992306802848  0.6251666567757396  0.6167960839275120   T   T   T
  0.4500271040490294  0.3753708100297152  0.5868019236904644   T   T   T
  0.3907533891964338  0.5800270957103448  0.6130979755239890   T   T   T
  0.4057014107444633  0.3061775905522149  0.5022755615861725   T   T   T
  0.4024613832848659  0.3719621865706417  0.2869886387865241   T   T   T
  0.3836671034927069  0.5338461046490224  0.2923812802445557   T   T   T
  0.6925393849022566  0.4600859013628962  0.3875035724238187   T   T   T
  0.3376442103482399  0.5722720632210856  0.5127581772792879   T   T   T
  0.5997554088511656  0.5727811406344806  0.3082861168745566   T   T   T
  0.6127351552559108  0.6142733364587941  0.5756394543875605   T   T   T
  0.4396929625509388  0.6154680731774456  0.3238413701335756   T   T   T
  0.3593666837839843  0.4088540336949914  0.6661037040646359   T   T   T
  0.3764771069706189  0.3340315409757275  0.6429543055712912   T   T   T
  0.3614316262392851  0.3632185288657291  0.6717494605426253   T   T   T
  0.3482467782365193  0.3505312777655056  0.7063700429091876   T   T   T
 
  0.00000000E+00  0.00000000E+00  0.00000000E+00
  0.00000000E+00  0.00000000E+00  0.00000000E+00
  0.00000000E+00  0.00000000E+00  0.00000000E+00
  0.00000000E+00  0.00000000E+00  0.00000000E+00
  0.00000000E+00  0.00000000E+00  0.00000000E+00
  0.00000000E+00  0.00000000E+00  0.00000000E+00
  0.00000000E+00  0.00000000E+00  0.00000000E+00
  0.00000000E+00  0.00000000E+00  0.00000000E+00
  0.00000000E+00  0.00000000E+00  0.00000000E+00
  0.00000000E+00  0.00000000E+00  0.00000000E+00
  0.00000000E+00  0.00000000E+00  0.00000000E+00
  0.00000000E+00  0.00000000E+00  0.00000000E+00
  0.00000000E+00  0.00000000E+00  0.00000000E+00
  0.00000000E+00  0.00000000E+00  0.00000000E+00
  0.00000000E+00  0.00000000E+00  0.00000000E+00
  0.00000000E+00  0.00000000E+00  0.00000000E+00
  0.00000000E+00  0.00000000E+00  0.00000000E+00
  0.00000000E+00  0.00000000E+00  0.00000000E+00
  0.00000000E+00  0.00000000E+00  0.00000000E+00
  0.00000000E+00  0.00000000E+00  0.00000000E+00
  0.00000000E+00  0.00000000E+00  0.00000000E+00
  0.00000000E+00  0.00000000E+00  0.00000000E+00
  0.00000000E+00  0.00000000E+00  0.00000000E+00
  0.00000000E+00  0.00000000E+00  0.00000000E+00
  0.00000000E+00  0.00000000E+00  0.00000000E+00
  0.00000000E+00  0.00000000E+00  0.00000000E+00
  0.00000000E+00  0.00000000E+00  0.00000000E+00
  0.00000000E+00  0.00000000E+00  0.00000000E+00
  0.00000000E+00  0.00000000E+00  0.00000000E+00
  0.00000000E+00  0.00000000E+00  0.00000000E+00
  0.00000000E+00  0.00000000E+00  0.00000000E+00
  0.00000000E+00  0.00000000E+00  0.00000000E+00
  0.00000000E+00  0.00000000E+00  0.00000000E+00
  0.00000000E+00  0.00000000E+00  0.00000000E+00
  0.00000000E+00  0.00000000E+00  0.00000000E+00
  0.00000000E+00  0.00000000E+00  0.00000000E+00
  0.00000000E+00  0.00000000E+00  0.00000000E+00
  0.00000000E+00  0.00000000E+00  0.00000000E+00
  0.00000000E+00  0.00000000E+00  0.00000000E+00
  0.00000000E+00  0.00000000E+00  0.00000000E+00
  0.00000000E+00  0.00000000E+00  0.00000000E+00
  0.00000000E+00  0.00000000E+00  0.00000000E+00
  0.00000000E+00  0.00000000E+00  0.00000000E+00
  0.00000000E+00  0.00000000E+00  0.00000000E+00
  0.00000000E+00  0.00000000E+00  0.00000000E+00
  0.00000000E+00  0.00000000E+00  0.00000000E+00
  0.00000000E+00  0.00000000E+00  0.00000000E+00
  0.00000000E+00  0.00000000E+00  0.00000000E+00
  0.00000000E+00  0.00000000E+00  0.00000000E+00
  0.00000000E+00  0.00000000E+00  0.00000000E+00
  0.00000000E+00  0.00000000E+00  0.00000000E+00
  0.00000000E+00  0.00000000E+00  0.00000000E+00
  0.00000000E+00  0.00000000E+00  0.00000000E+00
  0.00000000E+00  0.00000000E+00  0.00000000E+00
  0.00000000E+00  0.00000000E+00  0.00000000E+00
  0.00000000E+00  0.00000000E+00  0.00000000E+00
  0.00000000E+00  0.00000000E+00  0.00000000E+00
  0.00000000E+00  0.00000000E+00  0.00000000E+00
  0.00000000E+00  0.00000000E+00  0.00000000E+00
  0.00000000E+00  0.00000000E+00  0.00000000E+00
  0.00000000E+00  0.00000000E+00  0.00000000E+00
  0.00000000E+00  0.00000000E+00  0.00000000E+00
  0.00000000E+00  0.00000000E+00  0.00000000E+00
  0.00000000E+00  0.00000000E+00  0.00000000E+00
  0.00000000E+00  0.00000000E+00  0.00000000E+00
  0.00000000E+00  0.00000000E+00  0.00000000E+00
  0.00000000E+00  0.00000000E+00  0.00000000E+00
  0.00000000E+00  0.00000000E+00  0.00000000E+00
  0.00000000E+00  0.00000000E+00  0.00000000E+00
  0.00000000E+00  0.00000000E+00  0.00000000E+00
  0.00000000E+00  0.00000000E+00  0.00000000E+00
  0.00000000E+00  0.00000000E+00  0.00000000E+00
