La Co Ni Sn Bi O  C  H                  
   1.00000000000000     
    29.1044006348000011    0.0000000000000000    0.0000000000000000
     0.4451680315000000   28.3694074727000007    0.0000000000000000
     0.0682082826000000    0.3036559964000000   28.5240018092999996
   La   Co   Ni   Sn   Bi   O    C    H 
    14    13    13    14    14     2     1     1
Selective dynamics
Direct
  0.5923580577015187  0.4203912829695310  0.4079323147337746   T   T   T
  0.6854808120000578  0.5710685961688593  0.3811988383099555   T   T   T
  0.4964455361075447  0.5266637548807104  0.2815597845425059   T   T   T
  0.5624748662223452  0.5219457104898887  0.6021011062213063   T   T   T
  0.5092031731024470  0.3870121172327511  0.3055357624462725   T   T   T
  0.5750462966339346  0.6556167972359275  0.4832090352215467   T   T   T
  0.5088546656566741  0.3381033344218709  0.4997337818810234   T   T   T
  0.5352639168879149  0.6374526535870773  0.3748432167809417   T   T   T
  0.4342242879339121  0.6433262252938837  0.5342980734588484   T   T   T
  0.4373551010143757  0.5015757590148624  0.3842817269995109   F   F   F
  0.4437846394494898  0.4460183835780285  0.5005161578087822   F   F   F
  0.3874557523348426  0.4667950687181971  0.6096725352651154   T   T   T
  0.3447302495590535  0.4446533892205131  0.3463325413465741   T   T   T
  0.3578645798573404  0.5884413731563425  0.3900925546298409   T   T   T
  0.4217425606853311  0.4061295180575186  0.3699802678458894   F   F   F
  0.5011311695957161  0.4887203336762909  0.4395023580252015   F   F   F
  0.4044148221271726  0.6101724300038001  0.4624736492929173   F   F   F
  0.4722931245665194  0.5596737886932672  0.5729988711091565   F   F   F
  0.6552684236953183  0.5165424048424470  0.4543399438695133   F   F   F
  0.5967309916701211  0.5535378348504167  0.5056109707055541   F   F   F
  0.5314074673932367  0.5941153005651714  0.5336729985293047   F   F   F
  0.5796732686089143  0.4997731718447866  0.4507473928409595   F   F   F
  0.4610728906795885  0.3309899803501530  0.3451181619733792   T   T   T
  0.3905180950192175  0.5252419063175111  0.4552418453041511   F   F   F
  0.4547081729576625  0.3244842056773184  0.4246618439990752   T   T   T
  0.5074804872141527  0.4592780196109629  0.3501259710292359   F   F   F
  0.6012877811302459  0.4669891268301640  0.5212355700313438   F   F   F
  0.5384608035519776  0.4312182275275163  0.4821288228790692   F   F   F
  0.4713083414346286  0.4805797151798927  0.5807598339419258   F   F   F
  0.3771163837573610  0.4514853175274567  0.4282230665427278   F   F   F
  0.4059018739390154  0.3822235888080883  0.4561785915149272   F   F   F
  0.5357818896390683  0.5680835373033233  0.4543473312664048   F   F   F
  0.4924712632432886  0.6367287407321953  0.4646113344718685   F   F   F
  0.4677327221812249  0.5829886973614862  0.4038343643763724   F   F   F
  0.5280944416629296  0.5063826634733033  0.5194466411805863   F   F   F
  0.6212454441397384  0.5105019604624417  0.3755946010283822   F   F   F
  0.6054499763524817  0.5821019035045651  0.4188664505762958   F   F   F
  0.4050790883739026  0.5245211222763402  0.5434909784116542   F   F   F
  0.3506853324198675  0.4702297964501911  0.5087179057715957   T   T   T
  0.4345760393877408  0.4566609938109314  0.3021551367336435   T   T   T
  0.5380125336476921  0.4219620813803596  0.5690189499899728   T   T   T
  0.3576412149389993  0.3870914804641400  0.5394869560210429   T   T   T
  0.4625951421883201  0.5516617238622956  0.4875128022361963   F   F   F
  0.6065565281325855  0.3753469602238493  0.5106587186879751   T   T   T
  0.4918415206137166  0.4390161394509731  0.6581426265798148   T   T   T
  0.5880178625285001  0.4672152858880347  0.3064847909307898   T   T   T
  0.4900497958562298  0.4037080615820798  0.4151644571778519   F   F   F
  0.4353765463611750  0.6737295421586934  0.4117025442175688   T   T   T
  0.4684305762047923  0.5371614065817742  0.6601058763133583   T   T   T
  0.5397532608265934  0.5319899791087650  0.3771480104995177   F   F   F
  0.6682789842914910  0.6004907850235095  0.4837583497879586   T   T   T
  0.6657286186790774  0.5192894920653106  0.5506346521403082   T   T   T
  0.3749974527170924  0.3346738687986155  0.3849069771892041   T   T   T
  0.6789053693693191  0.4365506707000240  0.4867533996141941   T   T   T
  0.5398049274977869  0.3184763952619376  0.3921040990534829   T   T   T
  0.3030179517755940  0.5034128648492122  0.4361516547666525   T   T   T
  0.3133597147034792  0.3961212035311740  0.4490428851472162   T   T   T
  0.5116192672375814  0.6260257723809485  0.6158196408680101   T   T   T
  0.4488891463223459  0.3746149737522074  0.5856438751008025   T   T   T
  0.3903444255153029  0.5801319300850692  0.6128068131215594   T   T   T
  0.4051630374515841  0.3055269096811620  0.5013689636079790   T   T   T
  0.4027417729644581  0.3713383184279876  0.2871114007797187   T   T   T
  0.3851513008311285  0.5327934348359397  0.2907652358085759   T   T   T
  0.6925739583945345  0.4601749600632606  0.3872885337628810   T   T   T
  0.3375851312571695  0.5721068840550644  0.5119662374310440   T   T   T
  0.5999521846123517  0.5722606830925097  0.3079295635273167   T   T   T
  0.6123935825597737  0.6146271362093956  0.5754729722803608   T   T   T
  0.4411968575259747  0.6137807843366762  0.3229945316418956   T   T   T
  0.2881709651855924  0.6352749942306205  0.4128293228510360   T   T   T
  0.2933819219283473  0.6158063503363261  0.3365230575499842   T   T   T
  0.2746008317305214  0.6384253602542276  0.3701751081105358   T   T   T
  0.2451876210480967  0.6627474504501124  0.3620808162837052   T   T   T
 
  0.00000000E+00  0.00000000E+00  0.00000000E+00
  0.00000000E+00  0.00000000E+00  0.00000000E+00
  0.00000000E+00  0.00000000E+00  0.00000000E+00
  0.00000000E+00  0.00000000E+00  0.00000000E+00
  0.00000000E+00  0.00000000E+00  0.00000000E+00
  0.00000000E+00  0.00000000E+00  0.00000000E+00
  0.00000000E+00  0.00000000E+00  0.00000000E+00
  0.00000000E+00  0.00000000E+00  0.00000000E+00
  0.00000000E+00  0.00000000E+00  0.00000000E+00
  0.00000000E+00  0.00000000E+00  0.00000000E+00
  0.00000000E+00  0.00000000E+00  0.00000000E+00
  0.00000000E+00  0.00000000E+00  0.00000000E+00
  0.00000000E+00  0.00000000E+00  0.00000000E+00
  0.00000000E+00  0.00000000E+00  0.00000000E+00
  0.00000000E+00  0.00000000E+00  0.00000000E+00
  0.00000000E+00  0.00000000E+00  0.00000000E+00
  0.00000000E+00  0.00000000E+00  0.00000000E+00
  0.00000000E+00  0.00000000E+00  0.00000000E+00
  0.00000000E+00  0.00000000E+00  0.00000000E+00
  0.00000000E+00  0.00000000E+00  0.00000000E+00
  0.00000000E+00  0.00000000E+00  0.00000000E+00
  0.00000000E+00  0.00000000E+00  0.00000000E+00
  0.00000000E+00  0.00000000E+00  0.00000000E+00
  0.00000000E+00  0.00000000E+00  0.00000000E+00
  0.00000000E+00  0.00000000E+00  0.00000000E+00
  0.00000000E+00  0.00000000E+00  0.00000000E+00
  0.00000000E+00  0.00000000E+00  0.00000000E+00
  0.00000000E+00  0.00000000E+00  0.00000000E+00
  0.00000000E+00  0.00000000E+00  0.00000000E+00
  0.00000000E+00  0.00000000E+00  0.00000000E+00
  0.00000000E+00  0.00000000E+00  0.00000000E+00
  0.00000000E+00  0.00000000E+00  0.00000000E+00
  0.00000000E+00  0.00000000E+00  0.00000000E+00
  0.00000000E+00  0.00000000E+00  0.00000000E+00
  0.00000000E+00  0.00000000E+00  0.00000000E+00
  0.00000000E+00  0.00000000E+00  0.00000000E+00
  0.00000000E+00  0.00000000E+00  0.00000000E+00
  0.00000000E+00  0.00000000E+00  0.00000000E+00
  0.00000000E+00  0.00000000E+00  0.00000000E+00
  0.00000000E+00  0.00000000E+00  0.00000000E+00
  0.00000000E+00  0.00000000E+00  0.00000000E+00
  0.00000000E+00  0.00000000E+00  0.00000000E+00
  0.00000000E+00  0.00000000E+00  0.00000000E+00
  0.00000000E+00  0.00000000E+00  0.00000000E+00
  0.00000000E+00  0.00000000E+00  0.00000000E+00
  0.00000000E+00  0.00000000E+00  0.00000000E+00
  0.00000000E+00  0.00000000E+00  0.00000000E+00
  0.00000000E+00  0.00000000E+00  0.00000000E+00
  0.00000000E+00  0.00000000E+00  0.00000000E+00
  0.00000000E+00  0.00000000E+00  0.00000000E+00
  0.00000000E+00  0.00000000E+00  0.00000000E+00
  0.00000000E+00  0.00000000E+00  0.00000000E+00
  0.00000000E+00  0.00000000E+00  0.00000000E+00
  0.00000000E+00  0.00000000E+00  0.00000000E+00
  0.00000000E+00  0.00000000E+00  0.00000000E+00
  0.00000000E+00  0.00000000E+00  0.00000000E+00
  0.00000000E+00  0.00000000E+00  0.00000000E+00
  0.00000000E+00  0.00000000E+00  0.00000000E+00
  0.00000000E+00  0.00000000E+00  0.00000000E+00
  0.00000000E+00  0.00000000E+00  0.00000000E+00
  0.00000000E+00  0.00000000E+00  0.00000000E+00
  0.00000000E+00  0.00000000E+00  0.00000000E+00
  0.00000000E+00  0.00000000E+00  0.00000000E+00
  0.00000000E+00  0.00000000E+00  0.00000000E+00
  0.00000000E+00  0.00000000E+00  0.00000000E+00
  0.00000000E+00  0.00000000E+00  0.00000000E+00
  0.00000000E+00  0.00000000E+00  0.00000000E+00
  0.00000000E+00  0.00000000E+00  0.00000000E+00
  0.00000000E+00  0.00000000E+00  0.00000000E+00
  0.00000000E+00  0.00000000E+00  0.00000000E+00
  0.00000000E+00  0.00000000E+00  0.00000000E+00
  0.00000000E+00  0.00000000E+00  0.00000000E+00
