La Co Ni Sn Bi O  C  H                  
   1.00000000000000     
    29.1044006348000011    0.0000000000000000    0.0000000000000000
     0.4451680315000000   28.3694074727000007    0.0000000000000000
     0.0682082826000000    0.3036559964000000   28.5240018092999996
   La   Co   Ni   Sn   Bi   O    C    H 
    14    13    13    14    14     2     1     1
Selective dynamics
Direct
  0.5922480598944706  0.4206505980554018  0.4076165280145891   T   T   T
  0.6856429847527221  0.5711188866179234  0.3814002475570845   T   T   T
  0.4960581706276503  0.5283437585132493  0.2822141428218434   T   T   T
  0.5625151999142258  0.5217404206127322  0.6021187255251854   T   T   T
  0.5093105910929675  0.3875432350946900  0.3053917032280600   T   T   T
  0.5751009489255227  0.6556019546126366  0.4836095121016141   T   T   T
  0.5085026477091648  0.3380874526305718  0.4996339692757866   T   T   T
  0.5349840124893428  0.6378286742151941  0.3753383657772147   T   T   T
  0.4357369361743815  0.6432733562327199  0.5356998515073234   T   T   T
  0.4373551010143757  0.5015757590148624  0.3842817269995109   F   F   F
  0.4437846394494898  0.4460183835780285  0.5005161578087822   F   F   F
  0.3875512951143434  0.4669834565153167  0.6098250465169021   T   T   T
  0.3399852225033015  0.4464175975953554  0.3446678850354512   T   T   T
  0.3620838855157876  0.5854240595515529  0.3935358231635593   T   T   T
  0.4217425606853311  0.4061295180575186  0.3699802678458894   F   F   F
  0.5011311695957161  0.4887203336762909  0.4395023580252015   F   F   F
  0.4044148221271726  0.6101724300038001  0.4624736492929173   F   F   F
  0.4722931245665194  0.5596737886932672  0.5729988711091565   F   F   F
  0.6552684236953183  0.5165424048424470  0.4543399438695133   F   F   F
  0.5967309916701211  0.5535378348504167  0.5056109707055541   F   F   F
  0.5314074673932367  0.5941153005651714  0.5336729985293047   F   F   F
  0.5796732686089143  0.4997731718447866  0.4507473928409595   F   F   F
  0.4608320346185124  0.3310226677086183  0.3452318450338321   T   T   T
  0.3905180950192175  0.5252419063175111  0.4552418453041511   F   F   F
  0.4550468861557017  0.3246766307331818  0.4249293667433119   T   T   T
  0.5074804872141527  0.4592780196109629  0.3501259710292359   F   F   F
  0.6012877811302459  0.4669891268301640  0.5212355700313438   F   F   F
  0.5384608035519776  0.4312182275275163  0.4821288228790692   F   F   F
  0.4713083414346286  0.4805797151798927  0.5807598339419258   F   F   F
  0.3771163837573610  0.4514853175274567  0.4282230665427278   F   F   F
  0.4059018739390154  0.3822235888080883  0.4561785915149272   F   F   F
  0.5357818896390683  0.5680835373033233  0.4543473312664048   F   F   F
  0.4924712632432886  0.6367287407321953  0.4646113344718685   F   F   F
  0.4677327221812249  0.5829886973614862  0.4038343643763724   F   F   F
  0.5280944416629296  0.5063826634733033  0.5194466411805863   F   F   F
  0.6212454441397384  0.5105019604624417  0.3755946010283822   F   F   F
  0.6054499763524817  0.5821019035045651  0.4188664505762958   F   F   F
  0.4050790883739026  0.5245211222763402  0.5434909784116542   F   F   F
  0.3506004014822718  0.4702384235857605  0.5091600804981520   T   T   T
  0.4340184395617214  0.4577631964976391  0.3025431862957920   T   T   T
  0.5382921194789826  0.4216856207364622  0.5689757131935744   T   T   T
  0.3575458439693342  0.3871140772967805  0.5397558797482018   T   T   T
  0.4625951421883201  0.5516617238622956  0.4875128022361963   F   F   F
  0.6063222555242189  0.3750017870216504  0.5096944759244144   T   T   T
  0.4923207200680073  0.4390627254833233  0.6578943598527204   T   T   T
  0.5875887416062506  0.4679605151623740  0.3062426900354099   T   T   T
  0.4900497958562298  0.4037080615820798  0.4151644571778519   F   F   F
  0.4353446068766827  0.6748651454716722  0.4129795241846499   T   T   T
  0.4685958031927199  0.5370111552963674  0.6602743082532111   T   T   T
  0.5397532608265934  0.5319899791087650  0.3771480104995177   F   F   F
  0.6683018526094489  0.6005022801549049  0.4838790769473321   T   T   T
  0.6658494105910885  0.5192415262415184  0.5506032872425249   T   T   T
  0.3752180727638534  0.3344836106109723  0.3854068521664530   T   T   T
  0.6787920287449813  0.4364118028800437  0.4867274298907405   T   T   T
  0.5399588773485535  0.3187246353535415  0.3918128618446645   T   T   T
  0.3025234561524138  0.5032598644728100  0.4372736585337941   T   T   T
  0.3137264983472492  0.3961270394310268  0.4492617715881774   T   T   T
  0.5122139633363852  0.6253143740713147  0.6168690473377657   T   T   T
  0.4488137247139587  0.3746893464994964  0.5854722509825850   T   T   T
  0.3905763159281353  0.5802574314831577  0.6131805140657781   T   T   T
  0.4046207422401487  0.3055273482630336  0.5010623505554770   T   T   T
  0.4026487512455224  0.3726050968110904  0.2877784863183378   T   T   T
  0.3850838795695125  0.5347289678858180  0.2914116780438420   T   T   T
  0.6927147900544114  0.4602706618791257  0.3874336776246131   T   T   T
  0.3376663932807962  0.5723232628581342  0.5128292340233513   T   T   T
  0.5999707252680507  0.5729916331141152  0.3085027771317810   T   T   T
  0.6125256804025366  0.6142737129009636  0.5756621684953696   T   T   T
  0.4404966002080647  0.6156946226014071  0.3236180948357162   T   T   T
  0.2581774983575307  0.4631044415986363  0.3194201718752608   T   T   T
  0.2788791082824029  0.3868694274333139  0.3304220987698146   T   T   T
  0.2495557208202418  0.4190285086392366  0.3189445543003456   T   T   T
  0.2147762398012706  0.4079500818040118  0.3079180435684538   T   T   T
 
  0.00000000E+00  0.00000000E+00  0.00000000E+00
  0.00000000E+00  0.00000000E+00  0.00000000E+00
  0.00000000E+00  0.00000000E+00  0.00000000E+00
  0.00000000E+00  0.00000000E+00  0.00000000E+00
  0.00000000E+00  0.00000000E+00  0.00000000E+00
  0.00000000E+00  0.00000000E+00  0.00000000E+00
  0.00000000E+00  0.00000000E+00  0.00000000E+00
  0.00000000E+00  0.00000000E+00  0.00000000E+00
  0.00000000E+00  0.00000000E+00  0.00000000E+00
  0.00000000E+00  0.00000000E+00  0.00000000E+00
  0.00000000E+00  0.00000000E+00  0.00000000E+00
  0.00000000E+00  0.00000000E+00  0.00000000E+00
  0.00000000E+00  0.00000000E+00  0.00000000E+00
  0.00000000E+00  0.00000000E+00  0.00000000E+00
  0.00000000E+00  0.00000000E+00  0.00000000E+00
  0.00000000E+00  0.00000000E+00  0.00000000E+00
  0.00000000E+00  0.00000000E+00  0.00000000E+00
  0.00000000E+00  0.00000000E+00  0.00000000E+00
  0.00000000E+00  0.00000000E+00  0.00000000E+00
  0.00000000E+00  0.00000000E+00  0.00000000E+00
  0.00000000E+00  0.00000000E+00  0.00000000E+00
  0.00000000E+00  0.00000000E+00  0.00000000E+00
  0.00000000E+00  0.00000000E+00  0.00000000E+00
  0.00000000E+00  0.00000000E+00  0.00000000E+00
  0.00000000E+00  0.00000000E+00  0.00000000E+00
  0.00000000E+00  0.00000000E+00  0.00000000E+00
  0.00000000E+00  0.00000000E+00  0.00000000E+00
  0.00000000E+00  0.00000000E+00  0.00000000E+00
  0.00000000E+00  0.00000000E+00  0.00000000E+00
  0.00000000E+00  0.00000000E+00  0.00000000E+00
  0.00000000E+00  0.00000000E+00  0.00000000E+00
  0.00000000E+00  0.00000000E+00  0.00000000E+00
  0.00000000E+00  0.00000000E+00  0.00000000E+00
  0.00000000E+00  0.00000000E+00  0.00000000E+00
  0.00000000E+00  0.00000000E+00  0.00000000E+00
  0.00000000E+00  0.00000000E+00  0.00000000E+00
  0.00000000E+00  0.00000000E+00  0.00000000E+00
  0.00000000E+00  0.00000000E+00  0.00000000E+00
  0.00000000E+00  0.00000000E+00  0.00000000E+00
  0.00000000E+00  0.00000000E+00  0.00000000E+00
  0.00000000E+00  0.00000000E+00  0.00000000E+00
  0.00000000E+00  0.00000000E+00  0.00000000E+00
  0.00000000E+00  0.00000000E+00  0.00000000E+00
  0.00000000E+00  0.00000000E+00  0.00000000E+00
  0.00000000E+00  0.00000000E+00  0.00000000E+00
  0.00000000E+00  0.00000000E+00  0.00000000E+00
  0.00000000E+00  0.00000000E+00  0.00000000E+00
  0.00000000E+00  0.00000000E+00  0.00000000E+00
  0.00000000E+00  0.00000000E+00  0.00000000E+00
  0.00000000E+00  0.00000000E+00  0.00000000E+00
  0.00000000E+00  0.00000000E+00  0.00000000E+00
  0.00000000E+00  0.00000000E+00  0.00000000E+00
  0.00000000E+00  0.00000000E+00  0.00000000E+00
  0.00000000E+00  0.00000000E+00  0.00000000E+00
  0.00000000E+00  0.00000000E+00  0.00000000E+00
  0.00000000E+00  0.00000000E+00  0.00000000E+00
  0.00000000E+00  0.00000000E+00  0.00000000E+00
  0.00000000E+00  0.00000000E+00  0.00000000E+00
  0.00000000E+00  0.00000000E+00  0.00000000E+00
  0.00000000E+00  0.00000000E+00  0.00000000E+00
  0.00000000E+00  0.00000000E+00  0.00000000E+00
  0.00000000E+00  0.00000000E+00  0.00000000E+00
  0.00000000E+00  0.00000000E+00  0.00000000E+00
  0.00000000E+00  0.00000000E+00  0.00000000E+00
  0.00000000E+00  0.00000000E+00  0.00000000E+00
  0.00000000E+00  0.00000000E+00  0.00000000E+00
  0.00000000E+00  0.00000000E+00  0.00000000E+00
  0.00000000E+00  0.00000000E+00  0.00000000E+00
  0.00000000E+00  0.00000000E+00  0.00000000E+00
  0.00000000E+00  0.00000000E+00  0.00000000E+00
  0.00000000E+00  0.00000000E+00  0.00000000E+00
  0.00000000E+00  0.00000000E+00  0.00000000E+00
