La Co Ni Sn Bi O  C  H                  
   1.00000000000000     
    29.1044006348000011    0.0000000000000000    0.0000000000000000
     0.4451680315000000   28.3694074727000007    0.0000000000000000
     0.0682082826000000    0.3036559964000000   28.5240018092999996
   La   Co   Ni   Sn   Bi   O    C    H 
    14    13    13    14    14     2     1     1
Selective dynamics
Direct
  0.5922451327050028  0.4200968963867938  0.4074503303206812   T   T   T
  0.6854808772244497  0.5711551001105012  0.3812248876086020   T   T   T
  0.4960390573381822  0.5283010559928790  0.2823556445976471   T   T   T
  0.5627047296697036  0.5218604142460943  0.6020068472916972   T   T   T
  0.5065241923291430  0.3877699126451067  0.3045601245213315   T   T   T
  0.5750620799797493  0.6556142220998047  0.4832892200298902   T   T   T
  0.5090890272939240  0.3379650040708179  0.4987700492028760   T   T   T
  0.5348299805864188  0.6377512172994649  0.3752396288924619   T   T   T
  0.4346024990630208  0.6430369262325033  0.5350300554809753   T   T   T
  0.4373551010143757  0.5015757590148624  0.3842817269995109   F   F   F
  0.4437846394494898  0.4460183835780285  0.5005161578087822   F   F   F
  0.3883565877596195  0.4661418029989599  0.6103010969242789   T   T   T
  0.3396691775647097  0.4491193290212254  0.3471279049109964   T   T   T
  0.3586729287510410  0.5852274011307050  0.3915054566474279   T   T   T
  0.4217425606853311  0.4061295180575186  0.3699802678458894   F   F   F
  0.5011311695957161  0.4887203336762909  0.4395023580252015   F   F   F
  0.4044148221271726  0.6101724300038001  0.4624736492929173   F   F   F
  0.4722931245665194  0.5596737886932672  0.5729988711091565   F   F   F
  0.6552684236953183  0.5165424048424470  0.4543399438695133   F   F   F
  0.5967309916701211  0.5535378348504167  0.5056109707055541   F   F   F
  0.5314074673932367  0.5941153005651714  0.5336729985293047   F   F   F
  0.5796732686089143  0.4997731718447866  0.4507473928409595   F   F   F
  0.4585222450842895  0.3308031110674679  0.3430787923514218   T   T   T
  0.3905180950192175  0.5252419063175111  0.4552418453041511   F   F   F
  0.4534948836989413  0.3250104664799521  0.4228009466240277   T   T   T
  0.5074804872141527  0.4592780196109629  0.3501259710292359   F   F   F
  0.6012877811302459  0.4669891268301640  0.5212355700313438   F   F   F
  0.5384608035519776  0.4312182275275163  0.4821288228790692   F   F   F
  0.4713083414346286  0.4805797151798927  0.5807598339419258   F   F   F
  0.3771163837573610  0.4514853175274567  0.4282230665427278   F   F   F
  0.4059018739390154  0.3822235888080883  0.4561785915149272   F   F   F
  0.5357818896390683  0.5680835373033233  0.4543473312664048   F   F   F
  0.4924712632432886  0.6367287407321953  0.4646113344718685   F   F   F
  0.4677327221812249  0.5829886973614862  0.4038343643763724   F   F   F
  0.5280944416629296  0.5063826634733033  0.5194466411805863   F   F   F
  0.6212454441397384  0.5105019604624417  0.3755946010283822   F   F   F
  0.6054499763524817  0.5821019035045651  0.4188664505762958   F   F   F
  0.4050790883739026  0.5245211222763402  0.5434909784116542   F   F   F
  0.3516133303509069  0.4689033099926566  0.5105726443169154   T   T   T
  0.4330422316538020  0.4578510830162366  0.3031606862127315   T   T   T
  0.5383111237029125  0.4218881538699299  0.5687223657834517   T   T   T
  0.3585202381463375  0.3858111375447242  0.5404230553946948   T   T   T
  0.4625951421883201  0.5516617238622956  0.4875128022361963   F   F   F
  0.6066503661710827  0.3753262959555902  0.5102220363596797   T   T   T
  0.4928630321183399  0.4390067890531422  0.6579304406267213   T   T   T
  0.5871343958796489  0.4674798697896536  0.3062792564671112   T   T   T
  0.4900497958562298  0.4037080615820798  0.4151644571778519   F   F   F
  0.4349014600376629  0.6743890375979710  0.4126561912081333   T   T   T
  0.4691881328210096  0.5369535975269010  0.6603175580043732   T   T   T
  0.5397532608265934  0.5319899791087650  0.3771480104995177   F   F   F
  0.6683200437985940  0.6005726864401142  0.4837372868846759   T   T   T
  0.6658260231545893  0.5193708577121512  0.5505144148531805   T   T   T
  0.3732700129852293  0.3360321530207694  0.3846802605636763   T   T   T
  0.6788707132250822  0.4365683006326218  0.4866458208668349   T   T   T
  0.5382215094832291  0.3186855177292215  0.3900628329815294   T   T   T
  0.3025266906589822  0.5027610025278403  0.4416596396771667   T   T   T
  0.3134606776145915  0.3958636009931334  0.4502853393788943   T   T   T
  0.5120979233656305  0.6257227621602028  0.6161465803040724   T   T   T
  0.4498720945763837  0.3739167727612154  0.5855622612747841   T   T   T
  0.3906377436497779  0.5796069592262081  0.6134821629638252   T   T   T
  0.4059395973402006  0.3051360328888799  0.5007273378370459   T   T   T
  0.3987585515268249  0.3743132551902023  0.2877910663576204   T   T   T
  0.3851471229335628  0.5344415937511784  0.2910165503857682   T   T   T
  0.6926221951652131  0.4602840852091364  0.3873226886301558   T   T   T
  0.3381501431549145  0.5731348961204510  0.5131428304454628   T   T   T
  0.5998579309912399  0.5726522667803995  0.3082176180659670   T   T   T
  0.6126291024193347  0.6145857706572941  0.5754301581579668   T   T   T
  0.4400738258499431  0.6153504184734558  0.3240122831727705   T   T   T
  0.2750544510739011  0.5037066411425974  0.3276430677300646   T   T   T
  0.2829308768146568  0.5783156287795920  0.3542695819433342   T   T   T
  0.2607719719387842  0.5456981241331158  0.3345740387601050   T   T   T
  0.2253294334742263  0.5547204944003444  0.3227246415409190   T   T   T
 
  0.00000000E+00  0.00000000E+00  0.00000000E+00
  0.00000000E+00  0.00000000E+00  0.00000000E+00
  0.00000000E+00  0.00000000E+00  0.00000000E+00
  0.00000000E+00  0.00000000E+00  0.00000000E+00
  0.00000000E+00  0.00000000E+00  0.00000000E+00
  0.00000000E+00  0.00000000E+00  0.00000000E+00
  0.00000000E+00  0.00000000E+00  0.00000000E+00
  0.00000000E+00  0.00000000E+00  0.00000000E+00
  0.00000000E+00  0.00000000E+00  0.00000000E+00
  0.00000000E+00  0.00000000E+00  0.00000000E+00
  0.00000000E+00  0.00000000E+00  0.00000000E+00
  0.00000000E+00  0.00000000E+00  0.00000000E+00
  0.00000000E+00  0.00000000E+00  0.00000000E+00
  0.00000000E+00  0.00000000E+00  0.00000000E+00
  0.00000000E+00  0.00000000E+00  0.00000000E+00
  0.00000000E+00  0.00000000E+00  0.00000000E+00
  0.00000000E+00  0.00000000E+00  0.00000000E+00
  0.00000000E+00  0.00000000E+00  0.00000000E+00
  0.00000000E+00  0.00000000E+00  0.00000000E+00
  0.00000000E+00  0.00000000E+00  0.00000000E+00
  0.00000000E+00  0.00000000E+00  0.00000000E+00
  0.00000000E+00  0.00000000E+00  0.00000000E+00
  0.00000000E+00  0.00000000E+00  0.00000000E+00
  0.00000000E+00  0.00000000E+00  0.00000000E+00
  0.00000000E+00  0.00000000E+00  0.00000000E+00
  0.00000000E+00  0.00000000E+00  0.00000000E+00
  0.00000000E+00  0.00000000E+00  0.00000000E+00
  0.00000000E+00  0.00000000E+00  0.00000000E+00
  0.00000000E+00  0.00000000E+00  0.00000000E+00
  0.00000000E+00  0.00000000E+00  0.00000000E+00
  0.00000000E+00  0.00000000E+00  0.00000000E+00
  0.00000000E+00  0.00000000E+00  0.00000000E+00
  0.00000000E+00  0.00000000E+00  0.00000000E+00
  0.00000000E+00  0.00000000E+00  0.00000000E+00
  0.00000000E+00  0.00000000E+00  0.00000000E+00
  0.00000000E+00  0.00000000E+00  0.00000000E+00
  0.00000000E+00  0.00000000E+00  0.00000000E+00
  0.00000000E+00  0.00000000E+00  0.00000000E+00
  0.00000000E+00  0.00000000E+00  0.00000000E+00
  0.00000000E+00  0.00000000E+00  0.00000000E+00
  0.00000000E+00  0.00000000E+00  0.00000000E+00
  0.00000000E+00  0.00000000E+00  0.00000000E+00
  0.00000000E+00  0.00000000E+00  0.00000000E+00
  0.00000000E+00  0.00000000E+00  0.00000000E+00
  0.00000000E+00  0.00000000E+00  0.00000000E+00
  0.00000000E+00  0.00000000E+00  0.00000000E+00
  0.00000000E+00  0.00000000E+00  0.00000000E+00
  0.00000000E+00  0.00000000E+00  0.00000000E+00
  0.00000000E+00  0.00000000E+00  0.00000000E+00
  0.00000000E+00  0.00000000E+00  0.00000000E+00
  0.00000000E+00  0.00000000E+00  0.00000000E+00
  0.00000000E+00  0.00000000E+00  0.00000000E+00
  0.00000000E+00  0.00000000E+00  0.00000000E+00
  0.00000000E+00  0.00000000E+00  0.00000000E+00
  0.00000000E+00  0.00000000E+00  0.00000000E+00
  0.00000000E+00  0.00000000E+00  0.00000000E+00
  0.00000000E+00  0.00000000E+00  0.00000000E+00
  0.00000000E+00  0.00000000E+00  0.00000000E+00
  0.00000000E+00  0.00000000E+00  0.00000000E+00
  0.00000000E+00  0.00000000E+00  0.00000000E+00
  0.00000000E+00  0.00000000E+00  0.00000000E+00
  0.00000000E+00  0.00000000E+00  0.00000000E+00
  0.00000000E+00  0.00000000E+00  0.00000000E+00
  0.00000000E+00  0.00000000E+00  0.00000000E+00
  0.00000000E+00  0.00000000E+00  0.00000000E+00
  0.00000000E+00  0.00000000E+00  0.00000000E+00
  0.00000000E+00  0.00000000E+00  0.00000000E+00
  0.00000000E+00  0.00000000E+00  0.00000000E+00
  0.00000000E+00  0.00000000E+00  0.00000000E+00
  0.00000000E+00  0.00000000E+00  0.00000000E+00
  0.00000000E+00  0.00000000E+00  0.00000000E+00
  0.00000000E+00  0.00000000E+00  0.00000000E+00
