La Co Ni Sn Bi O  C  H                  
   1.00000000000000     
    29.1044006348000011    0.0000000000000000    0.0000000000000000
     0.4451680315000000   28.3694074727000007    0.0000000000000000
     0.0682082826000000    0.3036559964000000   28.5240018092999996
   La   Co   Ni   Sn   Bi   O    C    H 
    14    13    13    14    14     2     1     1
Selective dynamics
Direct
  0.5922941679515000  0.4205328675737934  0.4077100759498563   T   T   T
  0.6853701466977100  0.5711036406714267  0.3811407410520322   T   T   T
  0.4961647955601606  0.5269952338347539  0.2818144620163062   T   T   T
  0.5624711994099987  0.5216854733050429  0.6020587567932638   T   T   T
  0.5088429019876946  0.3875413273843313  0.3052017184868771   T   T   T
  0.5751601728483379  0.6555724770689809  0.4835508236855972   T   T   T
  0.5086722207431205  0.3380345708751043  0.4994151218035960   T   T   T
  0.5350952858626153  0.6377758068272243  0.3751357578288321   T   T   T
  0.4357274253828734  0.6432930726394450  0.5355941013587411   T   T   T
  0.4373551010143757  0.5015757590148624  0.3842817269995109   F   F   F
  0.4437846394494898  0.4460183835780285  0.5005161578087822   F   F   F
  0.3874152444997949  0.4669329564987649  0.6096237458959225   T   T   T
  0.3397195848569116  0.4458107711827283  0.3443755209542126   T   T   T
  0.3623081763728105  0.5855842464629737  0.3933079890720750   T   T   T
  0.4217425606853311  0.4061295180575186  0.3699802678458894   F   F   F
  0.5011311695957161  0.4887203336762909  0.4395023580252015   F   F   F
  0.4044148221271726  0.6101724300038001  0.4624736492929173   F   F   F
  0.4722931245665194  0.5596737886932672  0.5729988711091565   F   F   F
  0.6552684236953183  0.5165424048424470  0.4543399438695133   F   F   F
  0.5967309916701211  0.5535378348504167  0.5056109707055541   F   F   F
  0.5314074673932367  0.5941153005651714  0.5336729985293047   F   F   F
  0.5796732686089143  0.4997731718447866  0.4507473928409595   F   F   F
  0.4606901529344729  0.3310616451830224  0.3449636803285205   T   T   T
  0.3905180950192175  0.5252419063175111  0.4552418453041511   F   F   F
  0.4543571554781984  0.3248283543507951  0.4243406943878497   T   T   T
  0.5074804872141527  0.4592780196109629  0.3501259710292359   F   F   F
  0.6012877811302459  0.4669891268301640  0.5212355700313438   F   F   F
  0.5384608035519776  0.4312182275275163  0.4821288228790692   F   F   F
  0.4713083414346286  0.4805797151798927  0.5807598339419258   F   F   F
  0.3771163837573610  0.4514853175274567  0.4282230665427278   F   F   F
  0.4059018739390154  0.3822235888080883  0.4561785915149272   F   F   F
  0.5357818896390683  0.5680835373033233  0.4543473312664048   F   F   F
  0.4924712632432886  0.6367287407321953  0.4646113344718685   F   F   F
  0.4677327221812249  0.5829886973614862  0.4038343643763724   F   F   F
  0.5280944416629296  0.5063826634733033  0.5194466411805863   F   F   F
  0.6212454441397384  0.5105019604624417  0.3755946010283822   F   F   F
  0.6054499763524817  0.5821019035045651  0.4188664505762958   F   F   F
  0.4050790883739026  0.5245211222763402  0.5434909784116542   F   F   F
  0.3507656459194594  0.4704625973184040  0.5090240106649386   T   T   T
  0.4337077796983427  0.4576332296272109  0.3027020805333088   T   T   T
  0.5381756509577938  0.4217153957993970  0.5689098169294439   T   T   T
  0.3573264141745446  0.3872143184408098  0.5396694887080749   T   T   T
  0.4625951421883201  0.5516617238622956  0.4875128022361963   F   F   F
  0.6064917479927349  0.3750493860452706  0.5100632652607038   T   T   T
  0.4919341714251189  0.4387016299529144  0.6578598814331241   T   T   T
  0.5877524151002358  0.4675502991965701  0.3063476963444042   T   T   T
  0.4900497958562298  0.4037080615820798  0.4151644571778519   F   F   F
  0.4352870982691587  0.6746737965943748  0.4125712413755401   T   T   T
  0.4684774188772566  0.5368081432954910  0.6602094189832449   T   T   T
  0.5397532608265934  0.5319899791087650  0.3771480104995177   F   F   F
  0.6683880911953498  0.6005014345031957  0.4837725206761277   T   T   T
  0.6658092838116004  0.5192866382582433  0.5505449967889445   T   T   T
  0.3744078263195612  0.3351061484858684  0.3849865959063349   T   T   T
  0.6788116176916789  0.4364304986128279  0.4867807401967407   T   T   T
  0.5396323494636344  0.3187039112095716  0.3917245492754365   T   T   T
  0.3026445163446872  0.5033712098520945  0.4367591566460869   T   T   T
  0.3134075262002144  0.3962004473413856  0.4493464580369016   T   T   T
  0.5122379019274524  0.6253084214498285  0.6168245586584116   T   T   T
  0.4488255727155360  0.3745888691522327  0.5852795821367337   T   T   T
  0.3906352725850755  0.5803167820244473  0.6132144367483681   T   T   T
  0.4048324100976472  0.3056702736729670  0.5012044279748518   T   T   T
  0.4020051148556930  0.3723161092150649  0.2876597507247796   T   T   T
  0.3844731068078700  0.5346065359036715  0.2916367730766992   T   T   T
  0.6926813487229987  0.4602518408584975  0.3874381911476379   T   T   T
  0.3376835733283262  0.5723161539284461  0.5126763856135981   T   T   T
  0.5996233686179251  0.5725442357116174  0.3079842302005044   T   T   T
  0.6125620416086184  0.6142991891080420  0.5756377761575243   T   T   T
  0.4413996012944922  0.6143216551503110  0.3233480146937138   T   T   T
  0.2582465110722628  0.4282244824039154  0.3260172408497109   T   T   T
  0.2948140353620837  0.4736122507939792  0.2726148426568104   T   T   T
  0.2591461106410773  0.4526596249051408  0.2879437768228513   T   T   T
  0.2269002473138554  0.4560018365628681  0.2671973202357121   T   T   T
 
  0.00000000E+00  0.00000000E+00  0.00000000E+00
  0.00000000E+00  0.00000000E+00  0.00000000E+00
  0.00000000E+00  0.00000000E+00  0.00000000E+00
  0.00000000E+00  0.00000000E+00  0.00000000E+00
  0.00000000E+00  0.00000000E+00  0.00000000E+00
  0.00000000E+00  0.00000000E+00  0.00000000E+00
  0.00000000E+00  0.00000000E+00  0.00000000E+00
  0.00000000E+00  0.00000000E+00  0.00000000E+00
  0.00000000E+00  0.00000000E+00  0.00000000E+00
  0.00000000E+00  0.00000000E+00  0.00000000E+00
  0.00000000E+00  0.00000000E+00  0.00000000E+00
  0.00000000E+00  0.00000000E+00  0.00000000E+00
  0.00000000E+00  0.00000000E+00  0.00000000E+00
  0.00000000E+00  0.00000000E+00  0.00000000E+00
  0.00000000E+00  0.00000000E+00  0.00000000E+00
  0.00000000E+00  0.00000000E+00  0.00000000E+00
  0.00000000E+00  0.00000000E+00  0.00000000E+00
  0.00000000E+00  0.00000000E+00  0.00000000E+00
  0.00000000E+00  0.00000000E+00  0.00000000E+00
  0.00000000E+00  0.00000000E+00  0.00000000E+00
  0.00000000E+00  0.00000000E+00  0.00000000E+00
  0.00000000E+00  0.00000000E+00  0.00000000E+00
  0.00000000E+00  0.00000000E+00  0.00000000E+00
  0.00000000E+00  0.00000000E+00  0.00000000E+00
  0.00000000E+00  0.00000000E+00  0.00000000E+00
  0.00000000E+00  0.00000000E+00  0.00000000E+00
  0.00000000E+00  0.00000000E+00  0.00000000E+00
  0.00000000E+00  0.00000000E+00  0.00000000E+00
  0.00000000E+00  0.00000000E+00  0.00000000E+00
  0.00000000E+00  0.00000000E+00  0.00000000E+00
  0.00000000E+00  0.00000000E+00  0.00000000E+00
  0.00000000E+00  0.00000000E+00  0.00000000E+00
  0.00000000E+00  0.00000000E+00  0.00000000E+00
  0.00000000E+00  0.00000000E+00  0.00000000E+00
  0.00000000E+00  0.00000000E+00  0.00000000E+00
  0.00000000E+00  0.00000000E+00  0.00000000E+00
  0.00000000E+00  0.00000000E+00  0.00000000E+00
  0.00000000E+00  0.00000000E+00  0.00000000E+00
  0.00000000E+00  0.00000000E+00  0.00000000E+00
  0.00000000E+00  0.00000000E+00  0.00000000E+00
  0.00000000E+00  0.00000000E+00  0.00000000E+00
  0.00000000E+00  0.00000000E+00  0.00000000E+00
  0.00000000E+00  0.00000000E+00  0.00000000E+00
  0.00000000E+00  0.00000000E+00  0.00000000E+00
  0.00000000E+00  0.00000000E+00  0.00000000E+00
  0.00000000E+00  0.00000000E+00  0.00000000E+00
  0.00000000E+00  0.00000000E+00  0.00000000E+00
  0.00000000E+00  0.00000000E+00  0.00000000E+00
  0.00000000E+00  0.00000000E+00  0.00000000E+00
  0.00000000E+00  0.00000000E+00  0.00000000E+00
  0.00000000E+00  0.00000000E+00  0.00000000E+00
  0.00000000E+00  0.00000000E+00  0.00000000E+00
  0.00000000E+00  0.00000000E+00  0.00000000E+00
  0.00000000E+00  0.00000000E+00  0.00000000E+00
  0.00000000E+00  0.00000000E+00  0.00000000E+00
  0.00000000E+00  0.00000000E+00  0.00000000E+00
  0.00000000E+00  0.00000000E+00  0.00000000E+00
  0.00000000E+00  0.00000000E+00  0.00000000E+00
  0.00000000E+00  0.00000000E+00  0.00000000E+00
  0.00000000E+00  0.00000000E+00  0.00000000E+00
  0.00000000E+00  0.00000000E+00  0.00000000E+00
  0.00000000E+00  0.00000000E+00  0.00000000E+00
  0.00000000E+00  0.00000000E+00  0.00000000E+00
  0.00000000E+00  0.00000000E+00  0.00000000E+00
  0.00000000E+00  0.00000000E+00  0.00000000E+00
  0.00000000E+00  0.00000000E+00  0.00000000E+00
  0.00000000E+00  0.00000000E+00  0.00000000E+00
  0.00000000E+00  0.00000000E+00  0.00000000E+00
  0.00000000E+00  0.00000000E+00  0.00000000E+00
  0.00000000E+00  0.00000000E+00  0.00000000E+00
  0.00000000E+00  0.00000000E+00  0.00000000E+00
  0.00000000E+00  0.00000000E+00  0.00000000E+00
