La Co Ni Sn Bi O  C  H                  
   1.00000000000000     
    29.1044006348000011    0.0000000000000000    0.0000000000000000
     0.4451680315000000   28.3694074727000007    0.0000000000000000
     0.0682082826000000    0.3036559964000000   28.5240018092999996
   La   Co   Ni   Sn   Bi   O    C    H 
    14    13    13    14    14     2     1     1
Selective dynamics
Direct
  0.5923542832371689  0.4208478740367520  0.4075549488922525   T   T   T
  0.6850663473000843  0.5713369202987226  0.3807350480418890   T   T   T
  0.4954875744892993  0.5278705997508685  0.2822111240102878   T   T   T
  0.5628942878436313  0.5220567214788134  0.6051283613800459   T   T   T
  0.5092605277024225  0.3872178587752568  0.3056146313726372   T   T   T
  0.5749230725750349  0.6555732664412894  0.4838177132903916   T   T   T
  0.5072567617087098  0.3384932773398217  0.4999638726535173   T   T   T
  0.5350536397897383  0.6377124292711285  0.3752090972337299   T   T   T
  0.4364577482222405  0.6443836938521910  0.5344896715841045   T   T   T
  0.4373551010143757  0.5015757590148624  0.3842817269995109   F   F   F
  0.4437846394494898  0.4460183835780285  0.5005161578087822   F   F   F
  0.3856365970224195  0.4675035706836152  0.6090040349991969   T   T   T
  0.3445788417879738  0.4443865828307081  0.3466734319956549   T   T   T
  0.3616548306309402  0.5849023366198508  0.3937517684318455   T   T   T
  0.4217425606853311  0.4061295180575186  0.3699802678458894   F   F   F
  0.5011311695957161  0.4887203336762909  0.4395023580252015   F   F   F
  0.4044148221271726  0.6101724300038001  0.4624736492929173   F   F   F
  0.4722931245665194  0.5596737886932672  0.5729988711091565   F   F   F
  0.6552684236953183  0.5165424048424470  0.4543399438695133   F   F   F
  0.5967309916701211  0.5535378348504167  0.5056109707055541   F   F   F
  0.5314074673932367  0.5941153005651714  0.5336729985293047   F   F   F
  0.5796732686089143  0.4997731718447866  0.4507473928409595   F   F   F
  0.4615580480938103  0.3314228541400652  0.3434115391122832   T   T   T
  0.3905180950192175  0.5252419063175111  0.4552418453041511   F   F   F
  0.4538739238453121  0.3249640849669422  0.4225749881251772   T   T   T
  0.5074804872141527  0.4592780196109629  0.3501259710292359   F   F   F
  0.6012877811302459  0.4669891268301640  0.5212355700313438   F   F   F
  0.5384608035519776  0.4312182275275163  0.4821288228790692   F   F   F
  0.4713083414346286  0.4805797151798927  0.5807598339419258   F   F   F
  0.3771163837573610  0.4514853175274567  0.4282230665427278   F   F   F
  0.4059018739390154  0.3822235888080883  0.4561785915149272   F   F   F
  0.5357818896390683  0.5680835373033233  0.4543473312664048   F   F   F
  0.4924712632432886  0.6367287407321953  0.4646113344718685   F   F   F
  0.4677327221812249  0.5829886973614862  0.4038343643763724   F   F   F
  0.5280944416629296  0.5063826634733033  0.5194466411805863   F   F   F
  0.6212454441397384  0.5105019604624417  0.3755946010283822   F   F   F
  0.6054499763524817  0.5821019035045651  0.4188664505762958   F   F   F
  0.4050790883739026  0.5245211222763402  0.5434909784116542   F   F   F
  0.3508401849927857  0.4704435514283104  0.5087281912089474   T   T   T
  0.4342126707772169  0.4574225378609184  0.3019808094634572   T   T   T
  0.5384103068439805  0.4221734857003184  0.5690767734166876   T   T   T
  0.3571738425247577  0.3871702428406561  0.5396236253104753   T   T   T
  0.4625951421883201  0.5516617238622956  0.4875128022361963   F   F   F
  0.6057647487801611  0.3746587882797190  0.5095284644906894   T   T   T
  0.4911311300088464  0.4369002747716365  0.6580164420409894   T   T   T
  0.5874678603633855  0.4678702891204992  0.3060792690563821   T   T   T
  0.4900497958562298  0.4037080615820798  0.4151644571778519   F   F   F
  0.4353182750235442  0.6744623700804588  0.4125062632674929   T   T   T
  0.4626780059364725  0.5346764171977467  0.6574951021827765   T   T   T
  0.5397532608265934  0.5319899791087650  0.3771480104995177   F   F   F
  0.6683732372231918  0.6006417745293391  0.4836126175911029   T   T   T
  0.6656836852076842  0.5193809204006780  0.5506090511947436   T   T   T
  0.3745708466212149  0.3347053561927072  0.3844870163854686   T   T   T
  0.6782617124671600  0.4362483155989589  0.4869795432198101   T   T   T
  0.5397131162032716  0.3188088662701569  0.3924150081128391   T   T   T
  0.3019197646228007  0.5020745278978009  0.4364844799061571   T   T   T
  0.3134215496732245  0.3952789043188753  0.4489730871311379   T   T   T
  0.5122774857267512  0.6259807712317477  0.6153383236628869   T   T   T
  0.4476346464451640  0.3756262972950479  0.5858252155305312   T   T   T
  0.3878999939795185  0.5828173187646823  0.6102134449729629   T   T   T
  0.4038120716144465  0.3055177998412714  0.5002550840274871   T   T   T
  0.4026869325701882  0.3719490670709519  0.2870018923746193   T   T   T
  0.3839338413116013  0.5335730138937025  0.2920525755008836   T   T   T
  0.6928658952752940  0.4605274900530474  0.3875575591031755   T   T   T
  0.3373269139129821  0.5722661771935080  0.5122479972504330   T   T   T
  0.5991932198249199  0.5726388438369141  0.3076927614658752   T   T   T
  0.6125685234415604  0.6142620100820403  0.5755366701348003   T   T   T
  0.4398968322753400  0.6151758731615279  0.3237596162686167   T   T   T
  0.5024242988048004  0.5684161599042898  0.7235777276837244   T   T   T
  0.5644543734192197  0.5328393180700951  0.6898106067456573   T   T   T
  0.5447780270467490  0.5576822528447758  0.7213233417006366   T   T   T
  0.5670706755078925  0.5713426020231462  0.7495820238993262   T   T   T
 
  0.00000000E+00  0.00000000E+00  0.00000000E+00
  0.00000000E+00  0.00000000E+00  0.00000000E+00
  0.00000000E+00  0.00000000E+00  0.00000000E+00
  0.00000000E+00  0.00000000E+00  0.00000000E+00
  0.00000000E+00  0.00000000E+00  0.00000000E+00
  0.00000000E+00  0.00000000E+00  0.00000000E+00
  0.00000000E+00  0.00000000E+00  0.00000000E+00
  0.00000000E+00  0.00000000E+00  0.00000000E+00
  0.00000000E+00  0.00000000E+00  0.00000000E+00
  0.00000000E+00  0.00000000E+00  0.00000000E+00
  0.00000000E+00  0.00000000E+00  0.00000000E+00
  0.00000000E+00  0.00000000E+00  0.00000000E+00
  0.00000000E+00  0.00000000E+00  0.00000000E+00
  0.00000000E+00  0.00000000E+00  0.00000000E+00
  0.00000000E+00  0.00000000E+00  0.00000000E+00
  0.00000000E+00  0.00000000E+00  0.00000000E+00
  0.00000000E+00  0.00000000E+00  0.00000000E+00
  0.00000000E+00  0.00000000E+00  0.00000000E+00
  0.00000000E+00  0.00000000E+00  0.00000000E+00
  0.00000000E+00  0.00000000E+00  0.00000000E+00
  0.00000000E+00  0.00000000E+00  0.00000000E+00
  0.00000000E+00  0.00000000E+00  0.00000000E+00
  0.00000000E+00  0.00000000E+00  0.00000000E+00
  0.00000000E+00  0.00000000E+00  0.00000000E+00
  0.00000000E+00  0.00000000E+00  0.00000000E+00
  0.00000000E+00  0.00000000E+00  0.00000000E+00
  0.00000000E+00  0.00000000E+00  0.00000000E+00
  0.00000000E+00  0.00000000E+00  0.00000000E+00
  0.00000000E+00  0.00000000E+00  0.00000000E+00
  0.00000000E+00  0.00000000E+00  0.00000000E+00
  0.00000000E+00  0.00000000E+00  0.00000000E+00
  0.00000000E+00  0.00000000E+00  0.00000000E+00
  0.00000000E+00  0.00000000E+00  0.00000000E+00
  0.00000000E+00  0.00000000E+00  0.00000000E+00
  0.00000000E+00  0.00000000E+00  0.00000000E+00
  0.00000000E+00  0.00000000E+00  0.00000000E+00
  0.00000000E+00  0.00000000E+00  0.00000000E+00
  0.00000000E+00  0.00000000E+00  0.00000000E+00
  0.00000000E+00  0.00000000E+00  0.00000000E+00
  0.00000000E+00  0.00000000E+00  0.00000000E+00
  0.00000000E+00  0.00000000E+00  0.00000000E+00
  0.00000000E+00  0.00000000E+00  0.00000000E+00
  0.00000000E+00  0.00000000E+00  0.00000000E+00
  0.00000000E+00  0.00000000E+00  0.00000000E+00
  0.00000000E+00  0.00000000E+00  0.00000000E+00
  0.00000000E+00  0.00000000E+00  0.00000000E+00
  0.00000000E+00  0.00000000E+00  0.00000000E+00
  0.00000000E+00  0.00000000E+00  0.00000000E+00
  0.00000000E+00  0.00000000E+00  0.00000000E+00
  0.00000000E+00  0.00000000E+00  0.00000000E+00
  0.00000000E+00  0.00000000E+00  0.00000000E+00
  0.00000000E+00  0.00000000E+00  0.00000000E+00
  0.00000000E+00  0.00000000E+00  0.00000000E+00
  0.00000000E+00  0.00000000E+00  0.00000000E+00
  0.00000000E+00  0.00000000E+00  0.00000000E+00
  0.00000000E+00  0.00000000E+00  0.00000000E+00
  0.00000000E+00  0.00000000E+00  0.00000000E+00
  0.00000000E+00  0.00000000E+00  0.00000000E+00
  0.00000000E+00  0.00000000E+00  0.00000000E+00
  0.00000000E+00  0.00000000E+00  0.00000000E+00
  0.00000000E+00  0.00000000E+00  0.00000000E+00
  0.00000000E+00  0.00000000E+00  0.00000000E+00
  0.00000000E+00  0.00000000E+00  0.00000000E+00
  0.00000000E+00  0.00000000E+00  0.00000000E+00
  0.00000000E+00  0.00000000E+00  0.00000000E+00
  0.00000000E+00  0.00000000E+00  0.00000000E+00
  0.00000000E+00  0.00000000E+00  0.00000000E+00
  0.00000000E+00  0.00000000E+00  0.00000000E+00
  0.00000000E+00  0.00000000E+00  0.00000000E+00
  0.00000000E+00  0.00000000E+00  0.00000000E+00
  0.00000000E+00  0.00000000E+00  0.00000000E+00
  0.00000000E+00  0.00000000E+00  0.00000000E+00
