La Co Ni Sn Bi O  C  H                  
   1.00000000000000     
    29.1044006348000011    0.0000000000000000    0.0000000000000000
     0.4451680315000000   28.3694074727000007    0.0000000000000000
     0.0682082826000000    0.3036559964000000   28.5240018092999996
   La   Co   Ni   Sn   Bi   O    C    H 
    14    13    13    14    14     2     1     1
Selective dynamics
Direct
  0.5916724986473346  0.4218027512284722  0.4057796423484185   T   T   T
  0.6849863957140024  0.5713760712574628  0.3802873261562421   T   T   T
  0.4972155727178875  0.5273457982807422  0.2820047249780042   T   T   T
  0.5625323270375604  0.5215646777925312  0.6020656650054517   T   T   T
  0.5115899553237182  0.3896146860956228  0.3056610632212540   T   T   T
  0.5754864071191769  0.6554688198378984  0.4833097383792833   T   T   T
  0.5089228991844831  0.3378692490664293  0.4993438884376173   T   T   T
  0.5348483397648757  0.6378289428625871  0.3753756484288818   T   T   T
  0.4358524268424629  0.6431553218383627  0.5355938109578975   T   T   T
  0.4373551010143757  0.5015757590148624  0.3842817269995109   F   F   F
  0.4437846394494898  0.4460183835780285  0.5005161578087822   F   F   F
  0.3875716159202457  0.4668762171050791  0.6096312081048567   T   T   T
  0.3451557526705156  0.4440981588588409  0.3464245779589284   T   T   T
  0.3624610651067943  0.5853456699697128  0.3934168684217915   T   T   T
  0.4217425606853311  0.4061295180575186  0.3699802678458894   F   F   F
  0.5011311695957161  0.4887203336762909  0.4395023580252015   F   F   F
  0.4044148221271726  0.6101724300038001  0.4624736492929173   F   F   F
  0.4722931245665194  0.5596737886932672  0.5729988711091565   F   F   F
  0.6552684236953183  0.5165424048424470  0.4543399438695133   F   F   F
  0.5967309916701211  0.5535378348504167  0.5056109707055541   F   F   F
  0.5314074673932367  0.5941153005651714  0.5336729985293047   F   F   F
  0.5796732686089143  0.4997731718447866  0.4507473928409595   F   F   F
  0.4620152119834599  0.3315925527500668  0.3444452188358464   T   T   T
  0.3905180950192175  0.5252419063175111  0.4552418453041511   F   F   F
  0.4547376252222359  0.3245721592982646  0.4237130113535489   T   T   T
  0.5074804872141527  0.4592780196109629  0.3501259710292359   F   F   F
  0.6012877811302459  0.4669891268301640  0.5212355700313438   F   F   F
  0.5384608035519776  0.4312182275275163  0.4821288228790692   F   F   F
  0.4713083414346286  0.4805797151798927  0.5807598339419258   F   F   F
  0.3771163837573610  0.4514853175274567  0.4282230665427278   F   F   F
  0.4059018739390154  0.3822235888080883  0.4561785915149272   F   F   F
  0.5357818896390683  0.5680835373033233  0.4543473312664048   F   F   F
  0.4924712632432886  0.6367287407321953  0.4646113344718685   F   F   F
  0.4677327221812249  0.5829886973614862  0.4038343643763724   F   F   F
  0.5280944416629296  0.5063826634733033  0.5194466411805863   F   F   F
  0.6212454441397384  0.5105019604624417  0.3755946010283822   F   F   F
  0.6054499763524817  0.5821019035045651  0.4188664505762958   F   F   F
  0.4050790883739026  0.5245211222763402  0.5434909784116542   F   F   F
  0.3507921085060539  0.4702219898564304  0.5088056611148337   T   T   T
  0.4350564118482177  0.4578592811449058  0.3018973936389980   T   T   T
  0.5386638843014055  0.4215393635843048  0.5686912716291860   T   T   T
  0.3575187383851267  0.3870415669747572  0.5394895436348515   T   T   T
  0.4625951421883201  0.5516617238622956  0.4875128022361963   F   F   F
  0.6065548141545628  0.3749420023858152  0.5079500041957188   T   T   T
  0.4921989055208716  0.4387816046182260  0.6576771414119608   T   T   T
  0.5929506259192628  0.4695066556010943  0.3033441350000584   T   T   T
  0.4900497958562298  0.4037080615820798  0.4151644571778519   F   F   F
  0.4352765576568288  0.6744041470326295  0.4125563112957898   T   T   T
  0.4684729520935119  0.5370218773349961  0.6602104452562457   T   T   T
  0.5397532608265934  0.5319899791087650  0.3771480104995177   F   F   F
  0.6686445117025411  0.6002462982186612  0.4834590754347114   T   T   T
  0.6658851996188027  0.5190332303514409  0.5504557959708839   T   T   T
  0.3754245685408797  0.3344806937463842  0.3845571196430734   T   T   T
  0.6784349482808529  0.4365107416606046  0.4853442908856594   T   T   T
  0.5403839377299483  0.3190903843495260  0.3917634814333789   T   T   T
  0.3025444998876113  0.5030080718571156  0.4363191734332982   T   T   T
  0.3135646706855828  0.3955342775285993  0.4490286465594696   T   T   T
  0.5124169524643489  0.6252236693187088  0.6167898621765313   T   T   T
  0.4492853192415343  0.3746789452794031  0.5852367689783724   T   T   T
  0.3904662587678780  0.5802854117997536  0.6131573699731655   T   T   T
  0.4053461882286772  0.3056697790002661  0.5010013867457311   T   T   T
  0.4048198877218021  0.3725672638247379  0.2863964860387871   T   T   T
  0.3846187623734096  0.5335915211974432  0.2915327424129107   T   T   T
  0.6924266664686459  0.4604828729982399  0.3860094224639637   T   T   T
  0.3376338399004441  0.5721517057189360  0.5126568238956620   T   T   T
  0.5995294203206749  0.5730849845921827  0.3082509134386441   T   T   T
  0.6127476699098108  0.6141413114117705  0.5753716008169850   T   T   T
  0.4408161453435502  0.6144554009661928  0.3233112389691617   T   T   T
  0.6542284186717042  0.4793530509425467  0.2494808452198636   T   T   T
  0.6419128125717187  0.5562664598936410  0.2261468225819711   T   T   T
  0.6591849372882647  0.5154029747838461  0.2223925336440467   T   T   T
  0.6822478390518292  0.5091675124599749  0.1915455189243237   T   T   T
 
  0.00000000E+00  0.00000000E+00  0.00000000E+00
  0.00000000E+00  0.00000000E+00  0.00000000E+00
  0.00000000E+00  0.00000000E+00  0.00000000E+00
  0.00000000E+00  0.00000000E+00  0.00000000E+00
  0.00000000E+00  0.00000000E+00  0.00000000E+00
  0.00000000E+00  0.00000000E+00  0.00000000E+00
  0.00000000E+00  0.00000000E+00  0.00000000E+00
  0.00000000E+00  0.00000000E+00  0.00000000E+00
  0.00000000E+00  0.00000000E+00  0.00000000E+00
  0.00000000E+00  0.00000000E+00  0.00000000E+00
  0.00000000E+00  0.00000000E+00  0.00000000E+00
  0.00000000E+00  0.00000000E+00  0.00000000E+00
  0.00000000E+00  0.00000000E+00  0.00000000E+00
  0.00000000E+00  0.00000000E+00  0.00000000E+00
  0.00000000E+00  0.00000000E+00  0.00000000E+00
  0.00000000E+00  0.00000000E+00  0.00000000E+00
  0.00000000E+00  0.00000000E+00  0.00000000E+00
  0.00000000E+00  0.00000000E+00  0.00000000E+00
  0.00000000E+00  0.00000000E+00  0.00000000E+00
  0.00000000E+00  0.00000000E+00  0.00000000E+00
  0.00000000E+00  0.00000000E+00  0.00000000E+00
  0.00000000E+00  0.00000000E+00  0.00000000E+00
  0.00000000E+00  0.00000000E+00  0.00000000E+00
  0.00000000E+00  0.00000000E+00  0.00000000E+00
  0.00000000E+00  0.00000000E+00  0.00000000E+00
  0.00000000E+00  0.00000000E+00  0.00000000E+00
  0.00000000E+00  0.00000000E+00  0.00000000E+00
  0.00000000E+00  0.00000000E+00  0.00000000E+00
  0.00000000E+00  0.00000000E+00  0.00000000E+00
  0.00000000E+00  0.00000000E+00  0.00000000E+00
  0.00000000E+00  0.00000000E+00  0.00000000E+00
  0.00000000E+00  0.00000000E+00  0.00000000E+00
  0.00000000E+00  0.00000000E+00  0.00000000E+00
  0.00000000E+00  0.00000000E+00  0.00000000E+00
  0.00000000E+00  0.00000000E+00  0.00000000E+00
  0.00000000E+00  0.00000000E+00  0.00000000E+00
  0.00000000E+00  0.00000000E+00  0.00000000E+00
  0.00000000E+00  0.00000000E+00  0.00000000E+00
  0.00000000E+00  0.00000000E+00  0.00000000E+00
  0.00000000E+00  0.00000000E+00  0.00000000E+00
  0.00000000E+00  0.00000000E+00  0.00000000E+00
  0.00000000E+00  0.00000000E+00  0.00000000E+00
  0.00000000E+00  0.00000000E+00  0.00000000E+00
  0.00000000E+00  0.00000000E+00  0.00000000E+00
  0.00000000E+00  0.00000000E+00  0.00000000E+00
  0.00000000E+00  0.00000000E+00  0.00000000E+00
  0.00000000E+00  0.00000000E+00  0.00000000E+00
  0.00000000E+00  0.00000000E+00  0.00000000E+00
  0.00000000E+00  0.00000000E+00  0.00000000E+00
  0.00000000E+00  0.00000000E+00  0.00000000E+00
  0.00000000E+00  0.00000000E+00  0.00000000E+00
  0.00000000E+00  0.00000000E+00  0.00000000E+00
  0.00000000E+00  0.00000000E+00  0.00000000E+00
  0.00000000E+00  0.00000000E+00  0.00000000E+00
  0.00000000E+00  0.00000000E+00  0.00000000E+00
  0.00000000E+00  0.00000000E+00  0.00000000E+00
  0.00000000E+00  0.00000000E+00  0.00000000E+00
  0.00000000E+00  0.00000000E+00  0.00000000E+00
  0.00000000E+00  0.00000000E+00  0.00000000E+00
  0.00000000E+00  0.00000000E+00  0.00000000E+00
  0.00000000E+00  0.00000000E+00  0.00000000E+00
  0.00000000E+00  0.00000000E+00  0.00000000E+00
  0.00000000E+00  0.00000000E+00  0.00000000E+00
  0.00000000E+00  0.00000000E+00  0.00000000E+00
  0.00000000E+00  0.00000000E+00  0.00000000E+00
  0.00000000E+00  0.00000000E+00  0.00000000E+00
  0.00000000E+00  0.00000000E+00  0.00000000E+00
  0.00000000E+00  0.00000000E+00  0.00000000E+00
  0.00000000E+00  0.00000000E+00  0.00000000E+00
  0.00000000E+00  0.00000000E+00  0.00000000E+00
  0.00000000E+00  0.00000000E+00  0.00000000E+00
  0.00000000E+00  0.00000000E+00  0.00000000E+00
