La Co Ni Sn Bi O  C  H                  
   1.00000000000000     
    29.1044006348000011    0.0000000000000000    0.0000000000000000
     0.4451680315000000   28.3694074727000007    0.0000000000000000
     0.0682082826000000    0.3036559964000000   28.5240018092999996
   La   Co   Ni   Sn   Bi   O    C    H 
    14    13    13    14    14     2     1     1
Selective dynamics
Direct
  0.5923085577248346  0.4201216919369313  0.4081812928982056   T   T   T
  0.6850404436027205  0.5710035473372271  0.3805318826964397   T   T   T
  0.4963279532845613  0.5243131893592298  0.2794945462519925   T   T   T
  0.5623842265580494  0.5213651727888744  0.6020029806914241   T   T   T
  0.5081618076049743  0.3895285843763072  0.3013520465538745   T   T   T
  0.5752763559919470  0.6554525726611383  0.4833843947473458   T   T   T
  0.5102467927453720  0.3375305594156086  0.4982028414048036   T   T   T
  0.5355137585560974  0.6375266641923959  0.3749835623093306   T   T   T
  0.4357118560798564  0.6430115513738821  0.5358663309187429   T   T   T
  0.4373551010143757  0.5015757590148624  0.3842817269995109   F   F   F
  0.4437846394494898  0.4460183835780285  0.5005161578087822   F   F   F
  0.3876809961290464  0.4661016978381949  0.6092428403264647   T   T   T
  0.3439184464655026  0.4446124597221609  0.3468407857494315   T   T   T
  0.3622731768685115  0.5852230095696065  0.3932758613637553   T   T   T
  0.4217425606853311  0.4061295180575186  0.3699802678458894   F   F   F
  0.5011311695957161  0.4887203336762909  0.4395023580252015   F   F   F
  0.4044148221271726  0.6101724300038001  0.4624736492929173   F   F   F
  0.4722931245665194  0.5596737886932672  0.5729988711091565   F   F   F
  0.6552684236953183  0.5165424048424470  0.4543399438695133   F   F   F
  0.5967309916701211  0.5535378348504167  0.5056109707055541   F   F   F
  0.5314074673932367  0.5941153005651714  0.5336729985293047   F   F   F
  0.5796732686089143  0.4997731718447866  0.4507473928409595   F   F   F
  0.4584743276369541  0.3283544820492004  0.3459088758478560   T   T   T
  0.3905180950192175  0.5252419063175111  0.4552418453041511   F   F   F
  0.4542349738676945  0.3247315329751623  0.4243343612767640   T   T   T
  0.5074804872141527  0.4592780196109629  0.3501259710292359   F   F   F
  0.6012877811302459  0.4669891268301640  0.5212355700313438   F   F   F
  0.5384608035519776  0.4312182275275163  0.4821288228790692   F   F   F
  0.4713083414346286  0.4805797151798927  0.5807598339419258   F   F   F
  0.3771163837573610  0.4514853175274567  0.4282230665427278   F   F   F
  0.4059018739390154  0.3822235888080883  0.4561785915149272   F   F   F
  0.5357818896390683  0.5680835373033233  0.4543473312664048   F   F   F
  0.4924712632432886  0.6367287407321953  0.4646113344718685   F   F   F
  0.4677327221812249  0.5829886973614862  0.4038343643763724   F   F   F
  0.5280944416629296  0.5063826634733033  0.5194466411805863   F   F   F
  0.6212454441397384  0.5105019604624417  0.3755946010283822   F   F   F
  0.6054499763524817  0.5821019035045651  0.4188664505762958   F   F   F
  0.4050790883739026  0.5245211222763402  0.5434909784116542   F   F   F
  0.3509407604979601  0.4703605749088128  0.5088192474238563   T   T   T
  0.4319505819937600  0.4565091950000736  0.3029509107054671   T   T   T
  0.5377305898901851  0.4214031027904008  0.5686318572621836   T   T   T
  0.3572522694880167  0.3868884390524682  0.5390260372091971   T   T   T
  0.4625951421883201  0.5516617238622956  0.4875128022361963   F   F   F
  0.6074190987951070  0.3758289038941107  0.5110859248047410   T   T   T
  0.4915608496004366  0.4379681659175183  0.6574694280381205   T   T   T
  0.5888141002168886  0.4667754887693089  0.3073435983172077   T   T   T
  0.4900497958562298  0.4037080615820798  0.4151644571778519   F   F   F
  0.4355023265447449  0.6739564399664786  0.4119872339772781   T   T   T
  0.4684175845577411  0.5363567130557338  0.6601658017822540   T   T   T
  0.5397532608265934  0.5319899791087650  0.3771480104995177   F   F   F
  0.6686013409683467  0.6002918755490001  0.4834501844627990   T   T   T
  0.6657965917901117  0.5193466204181941  0.5507215551557906   T   T   T
  0.3736204111717938  0.3348989910946001  0.3855929897950180   T   T   T
  0.6795546780696398  0.4369544447225706  0.4870165446877084   T   T   T
  0.5389975078491134  0.3193348673637417  0.3893518990227856   T   T   T
  0.3024747884289161  0.5032532816519903  0.4369295484430256   T   T   T
  0.3131523780897800  0.3956229708538599  0.4486792852397996   T   T   T
  0.5124837922284906  0.6248623603987099  0.6170333381888724   T   T   T
  0.4491204145892622  0.3732185604539804  0.5843800805897980   T   T   T
  0.3904112254724528  0.5797010854550438  0.6134112304375962   T   T   T
  0.4062408875848031  0.3055893826264512  0.5014002763057372   T   T   T
  0.4010545312203924  0.3699398187578229  0.2885167362020634   T   T   T
  0.3840695556706508  0.5334541776033515  0.2917815061857428   T   T   T
  0.6923865764025194  0.4600382487959375  0.3873010447197722   T   T   T
  0.3377313181105310  0.5725618933230309  0.5126693714562233   T   T   T
  0.5990680506784097  0.5716006048231538  0.3071977593717601   T   T   T
  0.6127144056495573  0.6141097107686494  0.5754617870728189   T   T   T
  0.4413252927111238  0.6135452441221952  0.3230668610168521   T   T   T
  0.4928776486807081  0.4612443252447512  0.2249423167658589   T   T   T
  0.5060617011622118  0.3838937957439223  0.2117455949712157   T   T   T
  0.4956266183228275  0.4249852443115231  0.1980033301407128   T   T   T
  0.4875552257730698  0.4312199433121902  0.1604267135405792   T   T   T
 
  0.00000000E+00  0.00000000E+00  0.00000000E+00
  0.00000000E+00  0.00000000E+00  0.00000000E+00
  0.00000000E+00  0.00000000E+00  0.00000000E+00
  0.00000000E+00  0.00000000E+00  0.00000000E+00
  0.00000000E+00  0.00000000E+00  0.00000000E+00
  0.00000000E+00  0.00000000E+00  0.00000000E+00
  0.00000000E+00  0.00000000E+00  0.00000000E+00
  0.00000000E+00  0.00000000E+00  0.00000000E+00
  0.00000000E+00  0.00000000E+00  0.00000000E+00
  0.00000000E+00  0.00000000E+00  0.00000000E+00
  0.00000000E+00  0.00000000E+00  0.00000000E+00
  0.00000000E+00  0.00000000E+00  0.00000000E+00
  0.00000000E+00  0.00000000E+00  0.00000000E+00
  0.00000000E+00  0.00000000E+00  0.00000000E+00
  0.00000000E+00  0.00000000E+00  0.00000000E+00
  0.00000000E+00  0.00000000E+00  0.00000000E+00
  0.00000000E+00  0.00000000E+00  0.00000000E+00
  0.00000000E+00  0.00000000E+00  0.00000000E+00
  0.00000000E+00  0.00000000E+00  0.00000000E+00
  0.00000000E+00  0.00000000E+00  0.00000000E+00
  0.00000000E+00  0.00000000E+00  0.00000000E+00
  0.00000000E+00  0.00000000E+00  0.00000000E+00
  0.00000000E+00  0.00000000E+00  0.00000000E+00
  0.00000000E+00  0.00000000E+00  0.00000000E+00
  0.00000000E+00  0.00000000E+00  0.00000000E+00
  0.00000000E+00  0.00000000E+00  0.00000000E+00
  0.00000000E+00  0.00000000E+00  0.00000000E+00
  0.00000000E+00  0.00000000E+00  0.00000000E+00
  0.00000000E+00  0.00000000E+00  0.00000000E+00
  0.00000000E+00  0.00000000E+00  0.00000000E+00
  0.00000000E+00  0.00000000E+00  0.00000000E+00
  0.00000000E+00  0.00000000E+00  0.00000000E+00
  0.00000000E+00  0.00000000E+00  0.00000000E+00
  0.00000000E+00  0.00000000E+00  0.00000000E+00
  0.00000000E+00  0.00000000E+00  0.00000000E+00
  0.00000000E+00  0.00000000E+00  0.00000000E+00
  0.00000000E+00  0.00000000E+00  0.00000000E+00
  0.00000000E+00  0.00000000E+00  0.00000000E+00
  0.00000000E+00  0.00000000E+00  0.00000000E+00
  0.00000000E+00  0.00000000E+00  0.00000000E+00
  0.00000000E+00  0.00000000E+00  0.00000000E+00
  0.00000000E+00  0.00000000E+00  0.00000000E+00
  0.00000000E+00  0.00000000E+00  0.00000000E+00
  0.00000000E+00  0.00000000E+00  0.00000000E+00
  0.00000000E+00  0.00000000E+00  0.00000000E+00
  0.00000000E+00  0.00000000E+00  0.00000000E+00
  0.00000000E+00  0.00000000E+00  0.00000000E+00
  0.00000000E+00  0.00000000E+00  0.00000000E+00
  0.00000000E+00  0.00000000E+00  0.00000000E+00
  0.00000000E+00  0.00000000E+00  0.00000000E+00
  0.00000000E+00  0.00000000E+00  0.00000000E+00
  0.00000000E+00  0.00000000E+00  0.00000000E+00
  0.00000000E+00  0.00000000E+00  0.00000000E+00
  0.00000000E+00  0.00000000E+00  0.00000000E+00
  0.00000000E+00  0.00000000E+00  0.00000000E+00
  0.00000000E+00  0.00000000E+00  0.00000000E+00
  0.00000000E+00  0.00000000E+00  0.00000000E+00
  0.00000000E+00  0.00000000E+00  0.00000000E+00
  0.00000000E+00  0.00000000E+00  0.00000000E+00
  0.00000000E+00  0.00000000E+00  0.00000000E+00
  0.00000000E+00  0.00000000E+00  0.00000000E+00
  0.00000000E+00  0.00000000E+00  0.00000000E+00
  0.00000000E+00  0.00000000E+00  0.00000000E+00
  0.00000000E+00  0.00000000E+00  0.00000000E+00
  0.00000000E+00  0.00000000E+00  0.00000000E+00
  0.00000000E+00  0.00000000E+00  0.00000000E+00
  0.00000000E+00  0.00000000E+00  0.00000000E+00
  0.00000000E+00  0.00000000E+00  0.00000000E+00
  0.00000000E+00  0.00000000E+00  0.00000000E+00
  0.00000000E+00  0.00000000E+00  0.00000000E+00
  0.00000000E+00  0.00000000E+00  0.00000000E+00
  0.00000000E+00  0.00000000E+00  0.00000000E+00
