La Co Ni Sn Bi O  C  H                  
   1.00000000000000     
    29.1044006348000011    0.0000000000000000    0.0000000000000000
     0.4451680315000000   28.3694074727000007    0.0000000000000000
     0.0682082826000000    0.3036559964000000   28.5240018092999996
   La   Co   Ni   Sn   Bi   O    C    H 
    14    13    13    14    14     2     1     1
Selective dynamics
Direct
  0.5921867993822565  0.4204207734388317  0.4077212064529658   T   T   T
  0.6854848984810326  0.5709732768649926  0.3811053055121073   T   T   T
  0.4959460451630097  0.5282909785365724  0.2795096430740582   T   T   T
  0.5623704055748691  0.5213853977928721  0.6020402193814212   T   T   T
  0.5069448637265608  0.3920953398374161  0.3015445874361396   T   T   T
  0.5751546886256618  0.6554833097963834  0.4835845198847078   T   T   T
  0.5105407938130084  0.3374656856216877  0.4976921053150111   T   T   T
  0.5350000725572820  0.6379177770770755  0.3754667691032003   T   T   T
  0.4357483834175099  0.6429509139549714  0.5360740027001657   T   T   T
  0.4373551010143757  0.5015757590148624  0.3842817269995109   F   F   F
  0.4437846394494898  0.4460183835780285  0.5005161578087822   F   F   F
  0.3877801699391561  0.4659233484291367  0.6091621889144346   T   T   T
  0.3437585616297407  0.4453707640776878  0.3470226711583652   T   T   T
  0.3617508542990651  0.5858196939400496  0.3940499098457636   T   T   T
  0.4217425606853311  0.4061295180575186  0.3699802678458894   F   F   F
  0.5011311695957161  0.4887203336762909  0.4395023580252015   F   F   F
  0.4044148221271726  0.6101724300038001  0.4624736492929173   F   F   F
  0.4722931245665194  0.5596737886932672  0.5729988711091565   F   F   F
  0.6552684236953183  0.5165424048424470  0.4543399438695133   F   F   F
  0.5967309916701211  0.5535378348504167  0.5056109707055541   F   F   F
  0.5314074673932367  0.5941153005651714  0.5336729985293047   F   F   F
  0.5796732686089143  0.4997731718447866  0.4507473928409595   F   F   F
  0.4584433042225797  0.3292365205479825  0.3449221432120085   T   T   T
  0.3905180950192175  0.5252419063175111  0.4552418453041511   F   F   F
  0.4543216635077632  0.3248385962909762  0.4236665112934583   T   T   T
  0.5074804872141527  0.4592780196109629  0.3501259710292359   F   F   F
  0.6012877811302459  0.4669891268301640  0.5212355700313438   F   F   F
  0.5384608035519776  0.4312182275275163  0.4821288228790692   F   F   F
  0.4713083414346286  0.4805797151798927  0.5807598339419258   F   F   F
  0.3771163837573610  0.4514853175274567  0.4282230665427278   F   F   F
  0.4059018739390154  0.3822235888080883  0.4561785915149272   F   F   F
  0.5357818896390683  0.5680835373033233  0.4543473312664048   F   F   F
  0.4924712632432886  0.6367287407321953  0.4646113344718685   F   F   F
  0.4677327221812249  0.5829886973614862  0.4038343643763724   F   F   F
  0.5280944416629296  0.5063826634733033  0.5194466411805863   F   F   F
  0.6212454441397384  0.5105019604624417  0.3755946010283822   F   F   F
  0.6054499763524817  0.5821019035045651  0.4188664505762958   F   F   F
  0.4050790883739026  0.5245211222763402  0.5434909784116542   F   F   F
  0.3511186308236041  0.4698989143877904  0.5089942980707576   T   T   T
  0.4314099601316886  0.4575905274187261  0.3022528278610956   T   T   T
  0.5378814388561506  0.4214597067848636  0.5685804584579980   T   T   T
  0.3577064913849743  0.3863808157879539  0.5390793831147492   T   T   T
  0.4625951421883201  0.5516617238622956  0.4875128022361963   F   F   F
  0.6074764885173392  0.3759210785785152  0.5108143072605417   T   T   T
  0.4917212973456977  0.4379714744945855  0.6574252037730000   T   T   T
  0.5881950002350919  0.4684044134342206  0.3067486191493060   T   T   T
  0.4900497958562298  0.4037080615820798  0.4151644571778519   F   F   F
  0.4354377436490457  0.6747458382414290  0.4130049920053415   T   T   T
  0.4685519255793532  0.5363195531501963  0.6601905652645172   T   T   T
  0.5397532608265934  0.5319899791087650  0.3771480104995177   F   F   F
  0.6684086565736728  0.6003650239262137  0.4837440987139485   T   T   T
  0.6657688139762376  0.5192928950476913  0.5508585442744703   T   T   T
  0.3737021362478106  0.3348158058407881  0.3856549746192829   T   T   T
  0.6795559896004082  0.4370227609216545  0.4869181991205049   T   T   T
  0.5388979470917478  0.3199034716923254  0.3879883363423136   T   T   T
  0.3024147611889660  0.5032780970028790  0.4375708090948479   T   T   T
  0.3132618547451559  0.3955843694635077  0.4487909720619189   T   T   T
  0.5124852243614280  0.6248730663202681  0.6171390981752731   T   T   T
  0.4496194669670696  0.3731513459391526  0.5842422557636717   T   T   T
  0.3904961344368477  0.5795983384771246  0.6135629904683327   T   T   T
  0.4067040551192690  0.3053579459677321  0.5011158510863950   T   T   T
  0.4000570265428702  0.3706834792796889  0.2885676816251069   T   T   T
  0.3834905589884846  0.5347294254971243  0.2926859305466827   T   T   T
  0.6924016277998998  0.4601336158679943  0.3871472413232002   T   T   T
  0.3378552776212551  0.5726621746727154  0.5127946029641516   T   T   T
  0.5995718585065224  0.5729982022650074  0.3082235061836222   T   T   T
  0.6125882821315296  0.6141090992967569  0.5756492389311278   T   T   T
  0.4401731170058727  0.6154831662008622  0.3239722678031369   T   T   T
  0.4867043651807700  0.5161721943272920  0.1928280550556155   T   T   T
  0.4869957662710461  0.4485331606153226  0.2343403633269502   T   T   T
  0.4748448715532044  0.4737366745538740  0.1981897853839422   T   T   T
  0.4523964024912034  0.4573267032796230  0.1718825069551820   T   T   T
 
  0.00000000E+00  0.00000000E+00  0.00000000E+00
  0.00000000E+00  0.00000000E+00  0.00000000E+00
  0.00000000E+00  0.00000000E+00  0.00000000E+00
  0.00000000E+00  0.00000000E+00  0.00000000E+00
  0.00000000E+00  0.00000000E+00  0.00000000E+00
  0.00000000E+00  0.00000000E+00  0.00000000E+00
  0.00000000E+00  0.00000000E+00  0.00000000E+00
  0.00000000E+00  0.00000000E+00  0.00000000E+00
  0.00000000E+00  0.00000000E+00  0.00000000E+00
  0.00000000E+00  0.00000000E+00  0.00000000E+00
  0.00000000E+00  0.00000000E+00  0.00000000E+00
  0.00000000E+00  0.00000000E+00  0.00000000E+00
  0.00000000E+00  0.00000000E+00  0.00000000E+00
  0.00000000E+00  0.00000000E+00  0.00000000E+00
  0.00000000E+00  0.00000000E+00  0.00000000E+00
  0.00000000E+00  0.00000000E+00  0.00000000E+00
  0.00000000E+00  0.00000000E+00  0.00000000E+00
  0.00000000E+00  0.00000000E+00  0.00000000E+00
  0.00000000E+00  0.00000000E+00  0.00000000E+00
  0.00000000E+00  0.00000000E+00  0.00000000E+00
  0.00000000E+00  0.00000000E+00  0.00000000E+00
  0.00000000E+00  0.00000000E+00  0.00000000E+00
  0.00000000E+00  0.00000000E+00  0.00000000E+00
  0.00000000E+00  0.00000000E+00  0.00000000E+00
  0.00000000E+00  0.00000000E+00  0.00000000E+00
  0.00000000E+00  0.00000000E+00  0.00000000E+00
  0.00000000E+00  0.00000000E+00  0.00000000E+00
  0.00000000E+00  0.00000000E+00  0.00000000E+00
  0.00000000E+00  0.00000000E+00  0.00000000E+00
  0.00000000E+00  0.00000000E+00  0.00000000E+00
  0.00000000E+00  0.00000000E+00  0.00000000E+00
  0.00000000E+00  0.00000000E+00  0.00000000E+00
  0.00000000E+00  0.00000000E+00  0.00000000E+00
  0.00000000E+00  0.00000000E+00  0.00000000E+00
  0.00000000E+00  0.00000000E+00  0.00000000E+00
  0.00000000E+00  0.00000000E+00  0.00000000E+00
  0.00000000E+00  0.00000000E+00  0.00000000E+00
  0.00000000E+00  0.00000000E+00  0.00000000E+00
  0.00000000E+00  0.00000000E+00  0.00000000E+00
  0.00000000E+00  0.00000000E+00  0.00000000E+00
  0.00000000E+00  0.00000000E+00  0.00000000E+00
  0.00000000E+00  0.00000000E+00  0.00000000E+00
  0.00000000E+00  0.00000000E+00  0.00000000E+00
  0.00000000E+00  0.00000000E+00  0.00000000E+00
  0.00000000E+00  0.00000000E+00  0.00000000E+00
  0.00000000E+00  0.00000000E+00  0.00000000E+00
  0.00000000E+00  0.00000000E+00  0.00000000E+00
  0.00000000E+00  0.00000000E+00  0.00000000E+00
  0.00000000E+00  0.00000000E+00  0.00000000E+00
  0.00000000E+00  0.00000000E+00  0.00000000E+00
  0.00000000E+00  0.00000000E+00  0.00000000E+00
  0.00000000E+00  0.00000000E+00  0.00000000E+00
  0.00000000E+00  0.00000000E+00  0.00000000E+00
  0.00000000E+00  0.00000000E+00  0.00000000E+00
  0.00000000E+00  0.00000000E+00  0.00000000E+00
  0.00000000E+00  0.00000000E+00  0.00000000E+00
  0.00000000E+00  0.00000000E+00  0.00000000E+00
  0.00000000E+00  0.00000000E+00  0.00000000E+00
  0.00000000E+00  0.00000000E+00  0.00000000E+00
  0.00000000E+00  0.00000000E+00  0.00000000E+00
  0.00000000E+00  0.00000000E+00  0.00000000E+00
  0.00000000E+00  0.00000000E+00  0.00000000E+00
  0.00000000E+00  0.00000000E+00  0.00000000E+00
  0.00000000E+00  0.00000000E+00  0.00000000E+00
  0.00000000E+00  0.00000000E+00  0.00000000E+00
  0.00000000E+00  0.00000000E+00  0.00000000E+00
  0.00000000E+00  0.00000000E+00  0.00000000E+00
  0.00000000E+00  0.00000000E+00  0.00000000E+00
  0.00000000E+00  0.00000000E+00  0.00000000E+00
  0.00000000E+00  0.00000000E+00  0.00000000E+00
  0.00000000E+00  0.00000000E+00  0.00000000E+00
  0.00000000E+00  0.00000000E+00  0.00000000E+00
