La Co Ni Sn Bi O  C  H                  
   1.00000000000000     
    29.1044006348000011    0.0000000000000000    0.0000000000000000
     0.4451680315000000   28.3694074727000007    0.0000000000000000
     0.0682082826000000    0.3036559964000000   28.5240018092999996
   La   Co   Ni   Sn   Bi   O    C    H 
    14    13    13    14    14     2     1     1
Selective dynamics
Direct
  0.5923336679935991  0.4206139177170940  0.4076243080505382   T   T   T
  0.6852334870731959  0.5712822687276663  0.3810162839629929   T   T   T
  0.4952439488609598  0.5279340311369247  0.2825127093570660   T   T   T
  0.5634591928975651  0.5200070519616280  0.6016917421560347   T   T   T
  0.5085588184211872  0.3874704538824104  0.3050338817836781   T   T   T
  0.5745356716672541  0.6558070010940712  0.4846457198324890   T   T   T
  0.5088176628699858  0.3372566399620347  0.4986426212758087   T   T   T
  0.5352713600855658  0.6377805817098853  0.3758760791788425   T   T   T
  0.4347705842854767  0.6454577968250872  0.5375345151473103   T   T   T
  0.4373551010143757  0.5015757590148624  0.3842817269995109   F   F   F
  0.4437846394494898  0.4460183835780285  0.5005161578087822   F   F   F
  0.3878975182640724  0.4650826744953424  0.6093374754703313   T   T   T
  0.3444762844551746  0.4447138879544265  0.3468978405606327   T   T   T
  0.3620521858804081  0.5863170439809456  0.3945126651742550   T   T   T
  0.4217425606853311  0.4061295180575186  0.3699802678458894   F   F   F
  0.5011311695957161  0.4887203336762909  0.4395023580252015   F   F   F
  0.4044148221271726  0.6101724300038001  0.4624736492929173   F   F   F
  0.4722931245665194  0.5596737886932672  0.5729988711091565   F   F   F
  0.6552684236953183  0.5165424048424470  0.4543399438695133   F   F   F
  0.5967309916701211  0.5535378348504167  0.5056109707055541   F   F   F
  0.5314074673932367  0.5941153005651714  0.5336729985293047   F   F   F
  0.5796732686089143  0.4997731718447866  0.4507473928409595   F   F   F
  0.4608871649250734  0.3312423534594454  0.3433460814688241   T   T   T
  0.3905180950192175  0.5252419063175111  0.4552418453041511   F   F   F
  0.4542905168052654  0.3248859236759026  0.4228360185182691   T   T   T
  0.5074804872141527  0.4592780196109629  0.3501259710292359   F   F   F
  0.6012877811302459  0.4669891268301640  0.5212355700313438   F   F   F
  0.5384608035519776  0.4312182275275163  0.4821288228790692   F   F   F
  0.4713083414346286  0.4805797151798927  0.5807598339419258   F   F   F
  0.3771163837573610  0.4514853175274567  0.4282230665427278   F   F   F
  0.4059018739390154  0.3822235888080883  0.4561785915149272   F   F   F
  0.5357818896390683  0.5680835373033233  0.4543473312664048   F   F   F
  0.4924712632432886  0.6367287407321953  0.4646113344718685   F   F   F
  0.4677327221812249  0.5829886973614862  0.4038343643763724   F   F   F
  0.5280944416629296  0.5063826634733033  0.5194466411805863   F   F   F
  0.6212454441397384  0.5105019604624417  0.3755946010283822   F   F   F
  0.6054499763524817  0.5821019035045651  0.4188664505762958   F   F   F
  0.4050790883739026  0.5245211222763402  0.5434909784116542   F   F   F
  0.3508882751167257  0.4699842164080116  0.5089149190772945   T   T   T
  0.4337323875512158  0.4576879017420957  0.3021506385822169   T   T   T
  0.5373290592223080  0.4209754170122470  0.5683377966337623   T   T   T
  0.3575093196082999  0.3863362727221815  0.5389276054358386   T   T   T
  0.4625951421883201  0.5516617238622956  0.4875128022361963   F   F   F
  0.6063843456045211  0.3751748863491843  0.5103462270281410   T   T   T
  0.4917373499735819  0.4369345416084285  0.6572089690348161   T   T   T
  0.5873180938286225  0.4678149627888049  0.3061013882193496   T   T   T
  0.4900497958562298  0.4037080615820798  0.4151644571778519   F   F   F
  0.4354210371054733  0.6749644925696271  0.4132861100616738   T   T   T
  0.4691016387358747  0.5354188937791962  0.6597178740765892   T   T   T
  0.5397532608265934  0.5319899791087650  0.3771480104995177   F   F   F
  0.6679553514676315  0.6006621853302440  0.4836463144432613   T   T   T
  0.6662145291641505  0.5185314164407994  0.5501416949314507   T   T   T
  0.3747253988143981  0.3348026421907866  0.3844277855440560   T   T   T
  0.6787425680464979  0.4362085178076534  0.4862659119656531   T   T   T
  0.5396290903760531  0.3188077289640836  0.3909115476533908   T   T   T
  0.3026665885949595  0.5032017846253716  0.4371251923553493   T   T   T
  0.3134480375150420  0.3954322455206292  0.4486737528819574   T   T   T
  0.5142968692290947  0.6240074621556448  0.6168766005854046   T   T   T
  0.4485924307372483  0.3726335574996349  0.5843655625292025   T   T   T
  0.3907736617840261  0.5787326103575485  0.6132170845079329   T   T   T
  0.4050136646398885  0.3048375105115861  0.4998440508257224   T   T   T
  0.4021295075257846  0.3723275398414588  0.2867536290521364   T   T   T
  0.3836552611408034  0.5343455571714071  0.2926831920782040   T   T   T
  0.6927910549814548  0.4604736713538088  0.3870369948117002   T   T   T
  0.3378010748342297  0.5722803451972915  0.5131763801903814   T   T   T
  0.5993909339117781  0.5727093212580712  0.3080724594753026   T   T   T
  0.6133350417510597  0.6132052854562375  0.5759145097230634   T   T   T
  0.4402951999086449  0.6156617892304193  0.3240422317725651   T   T   T
  0.4225942355781993  0.7034308804546308  0.5957809056628210   T   T   T
  0.4378236356098339  0.6667618613933194  0.6655617976922322   T   T   T
  0.4227858688702614  0.7005305151712887  0.6412618426456950   T   T   T
  0.4077612698331148  0.7318214977476964  0.6593826243429660   T   T   T
 
  0.00000000E+00  0.00000000E+00  0.00000000E+00
  0.00000000E+00  0.00000000E+00  0.00000000E+00
  0.00000000E+00  0.00000000E+00  0.00000000E+00
  0.00000000E+00  0.00000000E+00  0.00000000E+00
  0.00000000E+00  0.00000000E+00  0.00000000E+00
  0.00000000E+00  0.00000000E+00  0.00000000E+00
  0.00000000E+00  0.00000000E+00  0.00000000E+00
  0.00000000E+00  0.00000000E+00  0.00000000E+00
  0.00000000E+00  0.00000000E+00  0.00000000E+00
  0.00000000E+00  0.00000000E+00  0.00000000E+00
  0.00000000E+00  0.00000000E+00  0.00000000E+00
  0.00000000E+00  0.00000000E+00  0.00000000E+00
  0.00000000E+00  0.00000000E+00  0.00000000E+00
  0.00000000E+00  0.00000000E+00  0.00000000E+00
  0.00000000E+00  0.00000000E+00  0.00000000E+00
  0.00000000E+00  0.00000000E+00  0.00000000E+00
  0.00000000E+00  0.00000000E+00  0.00000000E+00
  0.00000000E+00  0.00000000E+00  0.00000000E+00
  0.00000000E+00  0.00000000E+00  0.00000000E+00
  0.00000000E+00  0.00000000E+00  0.00000000E+00
  0.00000000E+00  0.00000000E+00  0.00000000E+00
  0.00000000E+00  0.00000000E+00  0.00000000E+00
  0.00000000E+00  0.00000000E+00  0.00000000E+00
  0.00000000E+00  0.00000000E+00  0.00000000E+00
  0.00000000E+00  0.00000000E+00  0.00000000E+00
  0.00000000E+00  0.00000000E+00  0.00000000E+00
  0.00000000E+00  0.00000000E+00  0.00000000E+00
  0.00000000E+00  0.00000000E+00  0.00000000E+00
  0.00000000E+00  0.00000000E+00  0.00000000E+00
  0.00000000E+00  0.00000000E+00  0.00000000E+00
  0.00000000E+00  0.00000000E+00  0.00000000E+00
  0.00000000E+00  0.00000000E+00  0.00000000E+00
  0.00000000E+00  0.00000000E+00  0.00000000E+00
  0.00000000E+00  0.00000000E+00  0.00000000E+00
  0.00000000E+00  0.00000000E+00  0.00000000E+00
  0.00000000E+00  0.00000000E+00  0.00000000E+00
  0.00000000E+00  0.00000000E+00  0.00000000E+00
  0.00000000E+00  0.00000000E+00  0.00000000E+00
  0.00000000E+00  0.00000000E+00  0.00000000E+00
  0.00000000E+00  0.00000000E+00  0.00000000E+00
  0.00000000E+00  0.00000000E+00  0.00000000E+00
  0.00000000E+00  0.00000000E+00  0.00000000E+00
  0.00000000E+00  0.00000000E+00  0.00000000E+00
  0.00000000E+00  0.00000000E+00  0.00000000E+00
  0.00000000E+00  0.00000000E+00  0.00000000E+00
  0.00000000E+00  0.00000000E+00  0.00000000E+00
  0.00000000E+00  0.00000000E+00  0.00000000E+00
  0.00000000E+00  0.00000000E+00  0.00000000E+00
  0.00000000E+00  0.00000000E+00  0.00000000E+00
  0.00000000E+00  0.00000000E+00  0.00000000E+00
  0.00000000E+00  0.00000000E+00  0.00000000E+00
  0.00000000E+00  0.00000000E+00  0.00000000E+00
  0.00000000E+00  0.00000000E+00  0.00000000E+00
  0.00000000E+00  0.00000000E+00  0.00000000E+00
  0.00000000E+00  0.00000000E+00  0.00000000E+00
  0.00000000E+00  0.00000000E+00  0.00000000E+00
  0.00000000E+00  0.00000000E+00  0.00000000E+00
  0.00000000E+00  0.00000000E+00  0.00000000E+00
  0.00000000E+00  0.00000000E+00  0.00000000E+00
  0.00000000E+00  0.00000000E+00  0.00000000E+00
  0.00000000E+00  0.00000000E+00  0.00000000E+00
  0.00000000E+00  0.00000000E+00  0.00000000E+00
  0.00000000E+00  0.00000000E+00  0.00000000E+00
  0.00000000E+00  0.00000000E+00  0.00000000E+00
  0.00000000E+00  0.00000000E+00  0.00000000E+00
  0.00000000E+00  0.00000000E+00  0.00000000E+00
  0.00000000E+00  0.00000000E+00  0.00000000E+00
  0.00000000E+00  0.00000000E+00  0.00000000E+00
  0.00000000E+00  0.00000000E+00  0.00000000E+00
  0.00000000E+00  0.00000000E+00  0.00000000E+00
  0.00000000E+00  0.00000000E+00  0.00000000E+00
  0.00000000E+00  0.00000000E+00  0.00000000E+00
