La Co Ni Sn Bi O  C  H                  
   1.00000000000000     
    29.1044006348000011    0.0000000000000000    0.0000000000000000
     0.4451680315000000   28.3694074727000007    0.0000000000000000
     0.0682082826000000    0.3036559964000000   28.5240018092999996
   La   Co   Ni   Sn   Bi   O    C    H 
    14    13    13    14    14     2     1     1
Selective dynamics
Direct
  0.5923318260529359  0.4230063948582860  0.4070843423350845   T   T   T
  0.6849946638255822  0.5716076525572107  0.3809048955174502   T   T   T
  0.4948620422537587  0.5288104804794107  0.2826123372190963   T   T   T
  0.5627251680020037  0.5215661836591543  0.6018979637664518   T   T   T
  0.5091953791119397  0.3862649166896140  0.3057800512734429   T   T   T
  0.5753914848059366  0.6556324144287289  0.4836413132989132   T   T   T
  0.5047545942476070  0.3376015986820934  0.4990804996014763   T   T   T
  0.5348911097298185  0.6378017777631004  0.3754798225697149   T   T   T
  0.4368398447433365  0.6439819850952815  0.5355110898218955   T   T   T
  0.4373551010143757  0.5015757590148624  0.3842817269995109   F   F   F
  0.4437846394494898  0.4460183835780285  0.5005161578087822   F   F   F
  0.3874518873098875  0.4681310111799724  0.6101342591923530   T   T   T
  0.3431869547826894  0.4457065353037425  0.3476483212194710   T   T   T
  0.3617749241031698  0.5860243476636591  0.3942502196746058   T   T   T
  0.4217425606853311  0.4061295180575186  0.3699802678458894   F   F   F
  0.5011311695957161  0.4887203336762909  0.4395023580252015   F   F   F
  0.4044148221271726  0.6101724300038001  0.4624736492929173   F   F   F
  0.4722931245665194  0.5596737886932672  0.5729988711091565   F   F   F
  0.6552684236953183  0.5165424048424470  0.4543399438695133   F   F   F
  0.5967309916701211  0.5535378348504167  0.5056109707055541   F   F   F
  0.5314074673932367  0.5941153005651714  0.5336729985293047   F   F   F
  0.5796732686089143  0.4997731718447866  0.4507473928409595   F   F   F
  0.4596319851277227  0.3323949897329470  0.3422638963629361   T   T   T
  0.3905180950192175  0.5252419063175111  0.4552418453041511   F   F   F
  0.4537175592632667  0.3230348550022186  0.4218347653982490   T   T   T
  0.5074804872141527  0.4592780196109629  0.3501259710292359   F   F   F
  0.6012877811302459  0.4669891268301640  0.5212355700313438   F   F   F
  0.5384608035519776  0.4312182275275163  0.4821288228790692   F   F   F
  0.4713083414346286  0.4805797151798927  0.5807598339419258   F   F   F
  0.3771163837573610  0.4514853175274567  0.4282230665427278   F   F   F
  0.4059018739390154  0.3822235888080883  0.4561785915149272   F   F   F
  0.5357818896390683  0.5680835373033233  0.4543473312664048   F   F   F
  0.4924712632432886  0.6367287407321953  0.4646113344718685   F   F   F
  0.4677327221812249  0.5829886973614862  0.4038343643763724   F   F   F
  0.5280944416629296  0.5063826634733033  0.5194466411805863   F   F   F
  0.6212454441397384  0.5105019604624417  0.3755946010283822   F   F   F
  0.6054499763524817  0.5821019035045651  0.4188664505762958   F   F   F
  0.4050790883739026  0.5245211222763402  0.5434909784116542   F   F   F
  0.3505795133606422  0.4700717672738816  0.5092775453580545   T   T   T
  0.4340965062933914  0.4589674710656668  0.3024053316024148   T   T   T
  0.5388252980564161  0.4214382321421082  0.5684935718763765   T   T   T
  0.3582036380618812  0.3872917404436522  0.5419796628379837   T   T   T
  0.4625951421883201  0.5516617238622956  0.4875128022361963   F   F   F
  0.6039542871314404  0.3728036424788767  0.5066604437683835   T   T   T
  0.4933383909303658  0.4383911254970266  0.6577049686849853   T   T   T
  0.5867016289272250  0.4684941627330169  0.3052441433729137   T   T   T
  0.4900497958562298  0.4037080615820798  0.4151644571778519   F   F   F
  0.4353043117399539  0.6748301992661996  0.4131050808734284   T   T   T
  0.4682569439640792  0.5365009233149923  0.6601030058706762   T   T   T
  0.5397532608265934  0.5319899791087650  0.3771480104995177   F   F   F
  0.6684954278051640  0.6003980462308979  0.4838991622036147   T   T   T
  0.6660291830632714  0.5191456455448870  0.5503082721105196   T   T   T
  0.3728105071078952  0.3364556346997755  0.3859198319231739   T   T   T
  0.6772626140823892  0.4353351242459721  0.4871676097437234   T   T   T
  0.5434269831631366  0.3230735200146466  0.3936200257928628   T   T   T
  0.3023875897286344  0.5033637980477653  0.4371805011355199   T   T   T
  0.3134687873068828  0.3965761841965748  0.4521868931914181   T   T   T
  0.5122604241525719  0.6249672990108225  0.6170731780942186   T   T   T
  0.4489332780953152  0.3754777521038506  0.5864726344943232   T   T   T
  0.3909860091950231  0.5814787130861351  0.6127028548539840   T   T   T
  0.3997936643865431  0.3054567609425211  0.4982661493250302   T   T   T
  0.4016303428549604  0.3749101692934400  0.2876667830939168   T   T   T
  0.3829700329719404  0.5344361739131711  0.2927940544864547   T   T   T
  0.6938288624222565  0.4611846309915569  0.3886787503103981   T   T   T
  0.3378981244941954  0.5720921829084726  0.5132368661566239   T   T   T
  0.5990335837139745  0.5730175833105061  0.3079919453897964   T   T   T
  0.6126600759219408  0.6143105161451413  0.5755770958412005   T   T   T
  0.4394564448816656  0.6159831221103782  0.3239406366989509   T   T   T
  0.4652024650906232  0.2646804484167099  0.3316376727520508   T   T   T
  0.4521769128821211  0.2544484254304349  0.4102224431008726   T   T   T
  0.4593488861871234  0.2396599796764940  0.3686249458327152   T   T   T
  0.4605100134469856  0.2009207037863879  0.3643219350140498   T   T   T
 
  0.00000000E+00  0.00000000E+00  0.00000000E+00
  0.00000000E+00  0.00000000E+00  0.00000000E+00
  0.00000000E+00  0.00000000E+00  0.00000000E+00
  0.00000000E+00  0.00000000E+00  0.00000000E+00
  0.00000000E+00  0.00000000E+00  0.00000000E+00
  0.00000000E+00  0.00000000E+00  0.00000000E+00
  0.00000000E+00  0.00000000E+00  0.00000000E+00
  0.00000000E+00  0.00000000E+00  0.00000000E+00
  0.00000000E+00  0.00000000E+00  0.00000000E+00
  0.00000000E+00  0.00000000E+00  0.00000000E+00
  0.00000000E+00  0.00000000E+00  0.00000000E+00
  0.00000000E+00  0.00000000E+00  0.00000000E+00
  0.00000000E+00  0.00000000E+00  0.00000000E+00
  0.00000000E+00  0.00000000E+00  0.00000000E+00
  0.00000000E+00  0.00000000E+00  0.00000000E+00
  0.00000000E+00  0.00000000E+00  0.00000000E+00
  0.00000000E+00  0.00000000E+00  0.00000000E+00
  0.00000000E+00  0.00000000E+00  0.00000000E+00
  0.00000000E+00  0.00000000E+00  0.00000000E+00
  0.00000000E+00  0.00000000E+00  0.00000000E+00
  0.00000000E+00  0.00000000E+00  0.00000000E+00
  0.00000000E+00  0.00000000E+00  0.00000000E+00
  0.00000000E+00  0.00000000E+00  0.00000000E+00
  0.00000000E+00  0.00000000E+00  0.00000000E+00
  0.00000000E+00  0.00000000E+00  0.00000000E+00
  0.00000000E+00  0.00000000E+00  0.00000000E+00
  0.00000000E+00  0.00000000E+00  0.00000000E+00
  0.00000000E+00  0.00000000E+00  0.00000000E+00
  0.00000000E+00  0.00000000E+00  0.00000000E+00
  0.00000000E+00  0.00000000E+00  0.00000000E+00
  0.00000000E+00  0.00000000E+00  0.00000000E+00
  0.00000000E+00  0.00000000E+00  0.00000000E+00
  0.00000000E+00  0.00000000E+00  0.00000000E+00
  0.00000000E+00  0.00000000E+00  0.00000000E+00
  0.00000000E+00  0.00000000E+00  0.00000000E+00
  0.00000000E+00  0.00000000E+00  0.00000000E+00
  0.00000000E+00  0.00000000E+00  0.00000000E+00
  0.00000000E+00  0.00000000E+00  0.00000000E+00
  0.00000000E+00  0.00000000E+00  0.00000000E+00
  0.00000000E+00  0.00000000E+00  0.00000000E+00
  0.00000000E+00  0.00000000E+00  0.00000000E+00
  0.00000000E+00  0.00000000E+00  0.00000000E+00
  0.00000000E+00  0.00000000E+00  0.00000000E+00
  0.00000000E+00  0.00000000E+00  0.00000000E+00
  0.00000000E+00  0.00000000E+00  0.00000000E+00
  0.00000000E+00  0.00000000E+00  0.00000000E+00
  0.00000000E+00  0.00000000E+00  0.00000000E+00
  0.00000000E+00  0.00000000E+00  0.00000000E+00
  0.00000000E+00  0.00000000E+00  0.00000000E+00
  0.00000000E+00  0.00000000E+00  0.00000000E+00
  0.00000000E+00  0.00000000E+00  0.00000000E+00
  0.00000000E+00  0.00000000E+00  0.00000000E+00
  0.00000000E+00  0.00000000E+00  0.00000000E+00
  0.00000000E+00  0.00000000E+00  0.00000000E+00
  0.00000000E+00  0.00000000E+00  0.00000000E+00
  0.00000000E+00  0.00000000E+00  0.00000000E+00
  0.00000000E+00  0.00000000E+00  0.00000000E+00
  0.00000000E+00  0.00000000E+00  0.00000000E+00
  0.00000000E+00  0.00000000E+00  0.00000000E+00
  0.00000000E+00  0.00000000E+00  0.00000000E+00
  0.00000000E+00  0.00000000E+00  0.00000000E+00
  0.00000000E+00  0.00000000E+00  0.00000000E+00
  0.00000000E+00  0.00000000E+00  0.00000000E+00
  0.00000000E+00  0.00000000E+00  0.00000000E+00
  0.00000000E+00  0.00000000E+00  0.00000000E+00
  0.00000000E+00  0.00000000E+00  0.00000000E+00
  0.00000000E+00  0.00000000E+00  0.00000000E+00
  0.00000000E+00  0.00000000E+00  0.00000000E+00
  0.00000000E+00  0.00000000E+00  0.00000000E+00
  0.00000000E+00  0.00000000E+00  0.00000000E+00
  0.00000000E+00  0.00000000E+00  0.00000000E+00
  0.00000000E+00  0.00000000E+00  0.00000000E+00
