La Co Ni Sn Bi O  C  H                  
   1.00000000000000     
    29.1044006348000011    0.0000000000000000    0.0000000000000000
     0.4451680315000000   28.3694074727000007    0.0000000000000000
     0.0682082826000000    0.3036559964000000   28.5240018092999996
   La   Co   Ni   Sn   Bi   O    C    H 
    14    13    13    14    14     2     1     1
Selective dynamics
Direct
  0.5925072023815912  0.4203311503573834  0.4078236377119386   T   T   T
  0.6855101352385106  0.5709181125042947  0.3811675980745650   T   T   T
  0.4956870631176543  0.5272986844484954  0.2821593996984738   T   T   T
  0.5641902557702617  0.5207811706084965  0.6052141215205219   T   T   T
  0.5090135462835262  0.3869889840694539  0.3055387758631618   T   T   T
  0.5748857715210114  0.6555440343663339  0.4839148430621265   T   T   T
  0.5093762831177893  0.3383471109491994  0.4997289203224456   T   T   T
  0.5351082029170064  0.6376674911649355  0.3752397961602258   T   T   T
  0.4359284524176972  0.6432271384973971  0.5358311511375621   T   T   T
  0.4373551010143757  0.5015757590148624  0.3842817269995109   F   F   F
  0.4437846394494898  0.4460183835780285  0.5005161578087822   F   F   F
  0.3854371924810477  0.4668589039111757  0.6078240561146228   T   T   T
  0.3447498598481397  0.4442313554483001  0.3465591272731305   T   T   T
  0.3621463116511595  0.5854145038774452  0.3936606835112110   T   T   T
  0.4217425606853311  0.4061295180575186  0.3699802678458894   F   F   F
  0.5011311695957161  0.4887203336762909  0.4395023580252015   F   F   F
  0.4044148221271726  0.6101724300038001  0.4624736492929173   F   F   F
  0.4722931245665194  0.5596737886932672  0.5729988711091565   F   F   F
  0.6552684236953183  0.5165424048424470  0.4543399438695133   F   F   F
  0.5967309916701211  0.5535378348504167  0.5056109707055541   F   F   F
  0.5314074673932367  0.5941153005651714  0.5336729985293047   F   F   F
  0.5796732686089143  0.4997731718447866  0.4507473928409595   F   F   F
  0.4611214516275666  0.3308784470581828  0.3445257991182137   T   T   T
  0.3905180950192175  0.5252419063175111  0.4552418453041511   F   F   F
  0.4544629077460435  0.3246168150899333  0.4237844999391127   T   T   T
  0.5074804872141527  0.4592780196109629  0.3501259710292359   F   F   F
  0.6012877811302459  0.4669891268301640  0.5212355700313438   F   F   F
  0.5384608035519776  0.4312182275275163  0.4821288228790692   F   F   F
  0.4713083414346286  0.4805797151798927  0.5807598339419258   F   F   F
  0.3771163837573610  0.4514853175274567  0.4282230665427278   F   F   F
  0.4059018739390154  0.3822235888080883  0.4561785915149272   F   F   F
  0.5357818896390683  0.5680835373033233  0.4543473312664048   F   F   F
  0.4924712632432886  0.6367287407321953  0.4646113344718685   F   F   F
  0.4677327221812249  0.5829886973614862  0.4038343643763724   F   F   F
  0.5280944416629296  0.5063826634733033  0.5194466411805863   F   F   F
  0.6212454441397384  0.5105019604624417  0.3755946010283822   F   F   F
  0.6054499763524817  0.5821019035045651  0.4188664505762958   F   F   F
  0.4050790883739026  0.5245211222763402  0.5434909784116542   F   F   F
  0.3505350393471561  0.4702424340920336  0.5083701250441213   T   T   T
  0.4343114394717567  0.4570705506821213  0.3019242439030117   T   T   T
  0.5382057843472300  0.4218787612977602  0.5696798239392934   T   T   T
  0.3575706917339495  0.3866798733445970  0.5387876808152580   T   T   T
  0.4625951421883201  0.5516617238622956  0.4875128022361963   F   F   F
  0.6068419461882797  0.3758765359273930  0.5111627316593771   T   T   T
  0.4873018556263686  0.4384363233494230  0.6581120814858105   T   T   T
  0.5875637321415942  0.4675374612523100  0.3064043066756010   T   T   T
  0.4900497958562298  0.4037080615820798  0.4151644571778519   F   F   F
  0.4354898594529290  0.6746187492649337  0.4127450381173254   T   T   T
  0.4672606742339721  0.5369022473045564  0.6597475416784756   T   T   T
  0.5397532608265934  0.5319899791087650  0.3771480104995177   F   F   F
  0.6681548286680250  0.6007069355695647  0.4835764346179064   T   T   T
  0.6661070350285107  0.5192785299890617  0.5503551182173572   T   T   T
  0.3748536360908958  0.3347934424777697  0.3846975320645172   T   T   T
  0.6790878540867754  0.4366785113240975  0.4869838369460018   T   T   T
  0.5396844761757567  0.3183997474203935  0.3920380067051020   T   T   T
  0.3023508646026432  0.5030712528409595  0.4362401588882986   T   T   T
  0.3133290097615390  0.3957107687071246  0.4486657310055061   T   T   T
  0.5127674773977893  0.6248970949524683  0.6168922429786702   T   T   T
  0.4484442641109587  0.3741212163173501  0.5851480862189514   T   T   T
  0.3898875797982139  0.5803862269535807  0.6129397613557809   T   T   T
  0.4059848691230477  0.3054438411145413  0.5009523738948392   T   T   T
  0.4027285411644735  0.3715297827572087  0.2869337205046820   T   T   T
  0.3841112243649842  0.5334530890446368  0.2920233060361376   T   T   T
  0.6926477276801359  0.4601421158155937  0.3874476535790897   T   T   T
  0.3374532562256374  0.5719285756897193  0.5126366276500905   T   T   T
  0.5995825756552007  0.5725486377437994  0.3079709099439637   T   T   T
  0.6127305977843782  0.6138805580017564  0.5757653476425004   T   T   T
  0.4403091552532241  0.6148243051570940  0.3235752368512675   T   T   T
  0.6025365794359631  0.4672862411876408  0.6573102849187878   T   T   T
  0.5924368372597600  0.3904927512552414  0.6378527540233088   T   T   T
  0.6090907833201304  0.4224973912478230  0.6624217973018846   T   T   T
  0.6315169407108969  0.4118712200973486  0.6924775554805860   T   T   T
 
  0.00000000E+00  0.00000000E+00  0.00000000E+00
  0.00000000E+00  0.00000000E+00  0.00000000E+00
  0.00000000E+00  0.00000000E+00  0.00000000E+00
  0.00000000E+00  0.00000000E+00  0.00000000E+00
  0.00000000E+00  0.00000000E+00  0.00000000E+00
  0.00000000E+00  0.00000000E+00  0.00000000E+00
  0.00000000E+00  0.00000000E+00  0.00000000E+00
  0.00000000E+00  0.00000000E+00  0.00000000E+00
  0.00000000E+00  0.00000000E+00  0.00000000E+00
  0.00000000E+00  0.00000000E+00  0.00000000E+00
  0.00000000E+00  0.00000000E+00  0.00000000E+00
  0.00000000E+00  0.00000000E+00  0.00000000E+00
  0.00000000E+00  0.00000000E+00  0.00000000E+00
  0.00000000E+00  0.00000000E+00  0.00000000E+00
  0.00000000E+00  0.00000000E+00  0.00000000E+00
  0.00000000E+00  0.00000000E+00  0.00000000E+00
  0.00000000E+00  0.00000000E+00  0.00000000E+00
  0.00000000E+00  0.00000000E+00  0.00000000E+00
  0.00000000E+00  0.00000000E+00  0.00000000E+00
  0.00000000E+00  0.00000000E+00  0.00000000E+00
  0.00000000E+00  0.00000000E+00  0.00000000E+00
  0.00000000E+00  0.00000000E+00  0.00000000E+00
  0.00000000E+00  0.00000000E+00  0.00000000E+00
  0.00000000E+00  0.00000000E+00  0.00000000E+00
  0.00000000E+00  0.00000000E+00  0.00000000E+00
  0.00000000E+00  0.00000000E+00  0.00000000E+00
  0.00000000E+00  0.00000000E+00  0.00000000E+00
  0.00000000E+00  0.00000000E+00  0.00000000E+00
  0.00000000E+00  0.00000000E+00  0.00000000E+00
  0.00000000E+00  0.00000000E+00  0.00000000E+00
  0.00000000E+00  0.00000000E+00  0.00000000E+00
  0.00000000E+00  0.00000000E+00  0.00000000E+00
  0.00000000E+00  0.00000000E+00  0.00000000E+00
  0.00000000E+00  0.00000000E+00  0.00000000E+00
  0.00000000E+00  0.00000000E+00  0.00000000E+00
  0.00000000E+00  0.00000000E+00  0.00000000E+00
  0.00000000E+00  0.00000000E+00  0.00000000E+00
  0.00000000E+00  0.00000000E+00  0.00000000E+00
  0.00000000E+00  0.00000000E+00  0.00000000E+00
  0.00000000E+00  0.00000000E+00  0.00000000E+00
  0.00000000E+00  0.00000000E+00  0.00000000E+00
  0.00000000E+00  0.00000000E+00  0.00000000E+00
  0.00000000E+00  0.00000000E+00  0.00000000E+00
  0.00000000E+00  0.00000000E+00  0.00000000E+00
  0.00000000E+00  0.00000000E+00  0.00000000E+00
  0.00000000E+00  0.00000000E+00  0.00000000E+00
  0.00000000E+00  0.00000000E+00  0.00000000E+00
  0.00000000E+00  0.00000000E+00  0.00000000E+00
  0.00000000E+00  0.00000000E+00  0.00000000E+00
  0.00000000E+00  0.00000000E+00  0.00000000E+00
  0.00000000E+00  0.00000000E+00  0.00000000E+00
  0.00000000E+00  0.00000000E+00  0.00000000E+00
  0.00000000E+00  0.00000000E+00  0.00000000E+00
  0.00000000E+00  0.00000000E+00  0.00000000E+00
  0.00000000E+00  0.00000000E+00  0.00000000E+00
  0.00000000E+00  0.00000000E+00  0.00000000E+00
  0.00000000E+00  0.00000000E+00  0.00000000E+00
  0.00000000E+00  0.00000000E+00  0.00000000E+00
  0.00000000E+00  0.00000000E+00  0.00000000E+00
  0.00000000E+00  0.00000000E+00  0.00000000E+00
  0.00000000E+00  0.00000000E+00  0.00000000E+00
  0.00000000E+00  0.00000000E+00  0.00000000E+00
  0.00000000E+00  0.00000000E+00  0.00000000E+00
  0.00000000E+00  0.00000000E+00  0.00000000E+00
  0.00000000E+00  0.00000000E+00  0.00000000E+00
  0.00000000E+00  0.00000000E+00  0.00000000E+00
  0.00000000E+00  0.00000000E+00  0.00000000E+00
  0.00000000E+00  0.00000000E+00  0.00000000E+00
  0.00000000E+00  0.00000000E+00  0.00000000E+00
  0.00000000E+00  0.00000000E+00  0.00000000E+00
  0.00000000E+00  0.00000000E+00  0.00000000E+00
  0.00000000E+00  0.00000000E+00  0.00000000E+00
