La Co Ni Sn Bi O  C  H                  
   1.00000000000000     
    29.1044006348000011    0.0000000000000000    0.0000000000000000
     0.4451680315000000   28.3694074727000007    0.0000000000000000
     0.0682082826000000    0.3036559964000000   28.5240018092999996
   La   Co   Ni   Sn   Bi   O    C    H 
    14    13    13    14    14     2     1     1
Selective dynamics
Direct
  0.5922864493749610  0.4203809625293229  0.4076191287959931   T   T   T
  0.6853406142013461  0.5711950543467992  0.3810533129537693   T   T   T
  0.4956821868318925  0.5280020136323987  0.2823464595432901   T   T   T
  0.5624664985439243  0.5212389841999495  0.6020507414067188   T   T   T
  0.5080851754083519  0.3874695091631103  0.3050933363684046   T   T   T
  0.5751701961762005  0.6555329655492415  0.4838337004825707   T   T   T
  0.5086928331376168  0.3377110990627731  0.4990159422903878   T   T   T
  0.5350882622818172  0.6376987659802563  0.3752580676671772   T   T   T
  0.4358881924702384  0.6431787053106122  0.5359603323929789   T   T   T
  0.4373551010143757  0.5015757590148624  0.3842817269995109   F   F   F
  0.4437846394494898  0.4460183835780285  0.5005161578087822   F   F   F
  0.3872799891195018  0.4663191737656380  0.6091946774491881   T   T   T
  0.3399921577344595  0.4467649389870996  0.3457719088197244   T   T   T
  0.3621885976108779  0.5856915671151530  0.3936523370152947   T   T   T
  0.4217425606853311  0.4061295180575186  0.3699802678458894   F   F   F
  0.5011311695957161  0.4887203336762909  0.4395023580252015   F   F   F
  0.4044148221271726  0.6101724300038001  0.4624736492929173   F   F   F
  0.4722931245665194  0.5596737886932672  0.5729988711091565   F   F   F
  0.6552684236953183  0.5165424048424470  0.4543399438695133   F   F   F
  0.5967309916701211  0.5535378348504167  0.5056109707055541   F   F   F
  0.5314074673932367  0.5941153005651714  0.5336729985293047   F   F   F
  0.5796732686089143  0.4997731718447866  0.4507473928409595   F   F   F
  0.4593643802140062  0.3302319692301812  0.3442370049542543   T   T   T
  0.3905180950192175  0.5252419063175111  0.4552418453041511   F   F   F
  0.4539136886642133  0.3248425075615626  0.4236062403438879   T   T   T
  0.5074804872141527  0.4592780196109629  0.3501259710292359   F   F   F
  0.6012877811302459  0.4669891268301640  0.5212355700313438   F   F   F
  0.5384608035519776  0.4312182275275163  0.4821288228790692   F   F   F
  0.4713083414346286  0.4805797151798927  0.5807598339419258   F   F   F
  0.3771163837573610  0.4514853175274567  0.4282230665427278   F   F   F
  0.4059018739390154  0.3822235888080883  0.4561785915149272   F   F   F
  0.5357818896390683  0.5680835373033233  0.4543473312664048   F   F   F
  0.4924712632432886  0.6367287407321953  0.4646113344718685   F   F   F
  0.4677327221812249  0.5829886973614862  0.4038343643763724   F   F   F
  0.5280944416629296  0.5063826634733033  0.5194466411805863   F   F   F
  0.6212454441397384  0.5105019604624417  0.3755946010283822   F   F   F
  0.6054499763524817  0.5821019035045651  0.4188664505762958   F   F   F
  0.4050790883739026  0.5245211222763402  0.5434909784116542   F   F   F
  0.3506325213345235  0.4706779972664286  0.5091775243064489   T   T   T
  0.4336768223691534  0.4578486895525653  0.3024701716741717   T   T   T
  0.5375536395135188  0.4212875796967454  0.5687061269790384   T   T   T
  0.3572816175438936  0.3870678253301086  0.5384707783617495   T   T   T
  0.4625951421883201  0.5516617238622956  0.4875128022361963   F   F   F
  0.6064531171213157  0.3753162476408612  0.5103388965159286   T   T   T
  0.4914008106148863  0.4379887692314193  0.6575010052771617   T   T   T
  0.5873022042658237  0.4675657256114276  0.3063140069080637   T   T   T
  0.4900497958562298  0.4037080615820798  0.4151644571778519   F   F   F
  0.4354559148351225  0.6748997693605957  0.4130268305965679   T   T   T
  0.4684696422666150  0.5362883616359144  0.6601993675652608   T   T   T
  0.5397532608265934  0.5319899791087650  0.3771480104995177   F   F   F
  0.6683400607288053  0.6004608121139174  0.4838042056052074   T   T   T
  0.6658731379818563  0.5191781821357617  0.5504829557674575   T   T   T
  0.3735145958763216  0.3360903755935716  0.3852515037845866   T   T   T
  0.6788796753040944  0.4364551680028088  0.4866294443807601   T   T   T
  0.5390482436946524  0.3186741622103817  0.3910488586117870   T   T   T
  0.3025969584267896  0.5039066385485570  0.4376607486281878   T   T   T
  0.3118716948980133  0.3973045346793080  0.4487803240563443   T   T   T
  0.5124412020450694  0.6248383645420100  0.6171095907108207   T   T   T
  0.4482951433057872  0.3735501199424832  0.5848128802164444   T   T   T
  0.3905063367501374  0.5798050234044818  0.6133721968209225   T   T   T
  0.4046206889332823  0.3053240799636845  0.5003129989421914   T   T   T
  0.4010870184370923  0.3730448775895490  0.2876287429638185   T   T   T
  0.3843416108415387  0.5344704923193658  0.2917160548997434   T   T   T
  0.6927378255462506  0.4603567624587895  0.3873793744281607   T   T   T
  0.3377221930486243  0.5726240552677498  0.5128329750334065   T   T   T
  0.5995809794636612  0.5725299203283118  0.3079254762542514   T   T   T
  0.6125014815867106  0.6139755728674190  0.5758737703595190   T   T   T
  0.4403389030640887  0.6155669920938516  0.3236746076977388   T   T   T
  0.2602769046820326  0.4366979163752638  0.3425067316728230   T   T   T
  0.2221134745330697  0.4262969838251216  0.4116425728671831   T   T   T
  0.2235519878026902  0.4338076640492721  0.3685526568410388   T   T   T
  0.1906592751172138  0.4390136744838893  0.3489432423488573   T   T   T
 
  0.00000000E+00  0.00000000E+00  0.00000000E+00
  0.00000000E+00  0.00000000E+00  0.00000000E+00
  0.00000000E+00  0.00000000E+00  0.00000000E+00
  0.00000000E+00  0.00000000E+00  0.00000000E+00
  0.00000000E+00  0.00000000E+00  0.00000000E+00
  0.00000000E+00  0.00000000E+00  0.00000000E+00
  0.00000000E+00  0.00000000E+00  0.00000000E+00
  0.00000000E+00  0.00000000E+00  0.00000000E+00
  0.00000000E+00  0.00000000E+00  0.00000000E+00
  0.00000000E+00  0.00000000E+00  0.00000000E+00
  0.00000000E+00  0.00000000E+00  0.00000000E+00
  0.00000000E+00  0.00000000E+00  0.00000000E+00
  0.00000000E+00  0.00000000E+00  0.00000000E+00
  0.00000000E+00  0.00000000E+00  0.00000000E+00
  0.00000000E+00  0.00000000E+00  0.00000000E+00
  0.00000000E+00  0.00000000E+00  0.00000000E+00
  0.00000000E+00  0.00000000E+00  0.00000000E+00
  0.00000000E+00  0.00000000E+00  0.00000000E+00
  0.00000000E+00  0.00000000E+00  0.00000000E+00
  0.00000000E+00  0.00000000E+00  0.00000000E+00
  0.00000000E+00  0.00000000E+00  0.00000000E+00
  0.00000000E+00  0.00000000E+00  0.00000000E+00
  0.00000000E+00  0.00000000E+00  0.00000000E+00
  0.00000000E+00  0.00000000E+00  0.00000000E+00
  0.00000000E+00  0.00000000E+00  0.00000000E+00
  0.00000000E+00  0.00000000E+00  0.00000000E+00
  0.00000000E+00  0.00000000E+00  0.00000000E+00
  0.00000000E+00  0.00000000E+00  0.00000000E+00
  0.00000000E+00  0.00000000E+00  0.00000000E+00
  0.00000000E+00  0.00000000E+00  0.00000000E+00
  0.00000000E+00  0.00000000E+00  0.00000000E+00
  0.00000000E+00  0.00000000E+00  0.00000000E+00
  0.00000000E+00  0.00000000E+00  0.00000000E+00
  0.00000000E+00  0.00000000E+00  0.00000000E+00
  0.00000000E+00  0.00000000E+00  0.00000000E+00
  0.00000000E+00  0.00000000E+00  0.00000000E+00
  0.00000000E+00  0.00000000E+00  0.00000000E+00
  0.00000000E+00  0.00000000E+00  0.00000000E+00
  0.00000000E+00  0.00000000E+00  0.00000000E+00
  0.00000000E+00  0.00000000E+00  0.00000000E+00
  0.00000000E+00  0.00000000E+00  0.00000000E+00
  0.00000000E+00  0.00000000E+00  0.00000000E+00
  0.00000000E+00  0.00000000E+00  0.00000000E+00
  0.00000000E+00  0.00000000E+00  0.00000000E+00
  0.00000000E+00  0.00000000E+00  0.00000000E+00
  0.00000000E+00  0.00000000E+00  0.00000000E+00
  0.00000000E+00  0.00000000E+00  0.00000000E+00
  0.00000000E+00  0.00000000E+00  0.00000000E+00
  0.00000000E+00  0.00000000E+00  0.00000000E+00
  0.00000000E+00  0.00000000E+00  0.00000000E+00
  0.00000000E+00  0.00000000E+00  0.00000000E+00
  0.00000000E+00  0.00000000E+00  0.00000000E+00
  0.00000000E+00  0.00000000E+00  0.00000000E+00
  0.00000000E+00  0.00000000E+00  0.00000000E+00
  0.00000000E+00  0.00000000E+00  0.00000000E+00
  0.00000000E+00  0.00000000E+00  0.00000000E+00
  0.00000000E+00  0.00000000E+00  0.00000000E+00
  0.00000000E+00  0.00000000E+00  0.00000000E+00
  0.00000000E+00  0.00000000E+00  0.00000000E+00
  0.00000000E+00  0.00000000E+00  0.00000000E+00
  0.00000000E+00  0.00000000E+00  0.00000000E+00
  0.00000000E+00  0.00000000E+00  0.00000000E+00
  0.00000000E+00  0.00000000E+00  0.00000000E+00
  0.00000000E+00  0.00000000E+00  0.00000000E+00
  0.00000000E+00  0.00000000E+00  0.00000000E+00
  0.00000000E+00  0.00000000E+00  0.00000000E+00
  0.00000000E+00  0.00000000E+00  0.00000000E+00
  0.00000000E+00  0.00000000E+00  0.00000000E+00
  0.00000000E+00  0.00000000E+00  0.00000000E+00
  0.00000000E+00  0.00000000E+00  0.00000000E+00
  0.00000000E+00  0.00000000E+00  0.00000000E+00
  0.00000000E+00  0.00000000E+00  0.00000000E+00
