La Co Ni Sn Bi O  C  H                  
   1.00000000000000     
    29.1044006348000011    0.0000000000000000    0.0000000000000000
     0.4451680315000000   28.3694074727000007    0.0000000000000000
     0.0682082826000000    0.3036559964000000   28.5240018092999996
   La   Co   Ni   Sn   Bi   O    C    H 
    14    13    13    14    14     2     1     1
Selective dynamics
Direct
  0.5921826404238483  0.4202269643384471  0.4080929715478198   T   T   T
  0.6851816735402568  0.5710418059742862  0.3806738607931553   T   T   T
  0.4966951875757676  0.5247570102022170  0.2782329848000952   T   T   T
  0.5622341416946667  0.5215087535426942  0.6021182030219031   T   T   T
  0.5083048535968409  0.3913423206626083  0.3017634614257477   T   T   T
  0.5752009534500664  0.6554645572338410  0.4835223409583209   T   T   T
  0.5102745027939806  0.3375434791371977  0.4980041882242668   T   T   T
  0.5354692662761831  0.6376439433491561  0.3750741806217515   T   T   T
  0.4356314886779530  0.6429396737915272  0.5359791118406507   T   T   T
  0.4373551010143757  0.5015757590148624  0.3842817269995109   F   F   F
  0.4437846394494898  0.4460183835780285  0.5005161578087822   F   F   F
  0.3875884648079941  0.4660606107978370  0.6091808762493666   T   T   T
  0.3441181413435204  0.4447263498871188  0.3467548972926157   T   T   T
  0.3624387075304260  0.5856337254146037  0.3933945131876390   T   T   T
  0.4217425606853311  0.4061295180575186  0.3699802678458894   F   F   F
  0.5011311695957161  0.4887203336762909  0.4395023580252015   F   F   F
  0.4044148221271726  0.6101724300038001  0.4624736492929173   F   F   F
  0.4722931245665194  0.5596737886932672  0.5729988711091565   F   F   F
  0.6552684236953183  0.5165424048424470  0.4543399438695133   F   F   F
  0.5967309916701211  0.5535378348504167  0.5056109707055541   F   F   F
  0.5314074673932367  0.5941153005651714  0.5336729985293047   F   F   F
  0.5796732686089143  0.4997731718447866  0.4507473928409595   F   F   F
  0.4587613439669769  0.3294519946066640  0.3446664885978204   T   T   T
  0.3905180950192175  0.5252419063175111  0.4552418453041511   F   F   F
  0.4544467007696668  0.3246005863562801  0.4237512906585276   T   T   T
  0.5074804872141527  0.4592780196109629  0.3501259710292359   F   F   F
  0.6012877811302459  0.4669891268301640  0.5212355700313438   F   F   F
  0.5384608035519776  0.4312182275275163  0.4821288228790692   F   F   F
  0.4713083414346286  0.4805797151798927  0.5807598339419258   F   F   F
  0.3771163837573610  0.4514853175274567  0.4282230665427278   F   F   F
  0.4059018739390154  0.3822235888080883  0.4561785915149272   F   F   F
  0.5357818896390683  0.5680835373033233  0.4543473312664048   F   F   F
  0.4924712632432886  0.6367287407321953  0.4646113344718685   F   F   F
  0.4677327221812249  0.5829886973614862  0.4038343643763724   F   F   F
  0.5280944416629296  0.5063826634733033  0.5194466411805863   F   F   F
  0.6212454441397384  0.5105019604624417  0.3755946010283822   F   F   F
  0.6054499763524817  0.5821019035045651  0.4188664505762958   F   F   F
  0.4050790883739026  0.5245211222763402  0.5434909784116542   F   F   F
  0.3509230977636173  0.4700417237016263  0.5087481597169929   T   T   T
  0.4319028136578409  0.4574762463142429  0.3034016971393276   T   T   T
  0.5378336939813317  0.4216190812223534  0.5686421914554646   T   T   T
  0.3574390804915841  0.3865334028459584  0.5390125715174581   T   T   T
  0.4625951421883201  0.5516617238622956  0.4875128022361963   F   F   F
  0.6072836828274070  0.3757824695492912  0.5111595583526982   T   T   T
  0.4916017311037756  0.4380474535801385  0.6575969713248171   T   T   T
  0.5895099740991149  0.4675769512264358  0.3075140922076342   T   T   T
  0.4900497958562298  0.4037080615820798  0.4151644571778519   F   F   F
  0.4355431584882048  0.6741400149908482  0.4121318596776449   T   T   T
  0.4684516716861635  0.5363123007779005  0.6602357828977862   T   T   T
  0.5397532608265934  0.5319899791087650  0.3771480104995177   F   F   F
  0.6684530349750807  0.6002481083010498  0.4835549226718817   T   T   T
  0.6656596581058418  0.5191719086734873  0.5509295380022706   T   T   T
  0.3740944931918025  0.3349713571798624  0.3851328698373954   T   T   T
  0.6793997892836334  0.4369733291092658  0.4868577226165136   T   T   T
  0.5390034410820513  0.3195514185078520  0.3886514170027107   T   T   T
  0.3026159092032554  0.5034777754833646  0.4368368559165974   T   T   T
  0.3132934507938742  0.3957408604363868  0.4487258158999945   T   T   T
  0.5123444042134360  0.6249980381487478  0.6170437561617067   T   T   T
  0.4492743155460112  0.3733924876216747  0.5843236668982162   T   T   T
  0.3904790107746860  0.5796350616605759  0.6136248354880374   T   T   T
  0.4065962223397204  0.3054475533733872  0.5010381670489817   T   T   T
  0.4015358296533204  0.3712433088076660  0.2874254602534707   T   T   T
  0.3842174394826706  0.5339701954490553  0.2916250756891266   T   T   T
  0.6922543749278131  0.4600871432745873  0.3870180749627842   T   T   T
  0.3377324402322889  0.5725212963517354  0.5127033915925480   T   T   T
  0.5992312582197368  0.5721037626427392  0.3075758294513052   T   T   T
  0.6126374824542332  0.6140588291874625  0.5755549139807107   T   T   T
  0.4416514985929019  0.6135931744240538  0.3230246391228176   T   T   T
  0.5224776501578179  0.5128331205800951  0.1949973742610709   T   T   T
  0.5050072086024318  0.4437822828306865  0.2294060188991708   T   T   T
  0.5213620494014968  0.4682308432084912  0.1951652261153146   T   T   T
  0.5356112918466485  0.4488283267241208  0.1647042788508024   T   T   T
 
  0.00000000E+00  0.00000000E+00  0.00000000E+00
  0.00000000E+00  0.00000000E+00  0.00000000E+00
  0.00000000E+00  0.00000000E+00  0.00000000E+00
  0.00000000E+00  0.00000000E+00  0.00000000E+00
  0.00000000E+00  0.00000000E+00  0.00000000E+00
  0.00000000E+00  0.00000000E+00  0.00000000E+00
  0.00000000E+00  0.00000000E+00  0.00000000E+00
  0.00000000E+00  0.00000000E+00  0.00000000E+00
  0.00000000E+00  0.00000000E+00  0.00000000E+00
  0.00000000E+00  0.00000000E+00  0.00000000E+00
  0.00000000E+00  0.00000000E+00  0.00000000E+00
  0.00000000E+00  0.00000000E+00  0.00000000E+00
  0.00000000E+00  0.00000000E+00  0.00000000E+00
  0.00000000E+00  0.00000000E+00  0.00000000E+00
  0.00000000E+00  0.00000000E+00  0.00000000E+00
  0.00000000E+00  0.00000000E+00  0.00000000E+00
  0.00000000E+00  0.00000000E+00  0.00000000E+00
  0.00000000E+00  0.00000000E+00  0.00000000E+00
  0.00000000E+00  0.00000000E+00  0.00000000E+00
  0.00000000E+00  0.00000000E+00  0.00000000E+00
  0.00000000E+00  0.00000000E+00  0.00000000E+00
  0.00000000E+00  0.00000000E+00  0.00000000E+00
  0.00000000E+00  0.00000000E+00  0.00000000E+00
  0.00000000E+00  0.00000000E+00  0.00000000E+00
  0.00000000E+00  0.00000000E+00  0.00000000E+00
  0.00000000E+00  0.00000000E+00  0.00000000E+00
  0.00000000E+00  0.00000000E+00  0.00000000E+00
  0.00000000E+00  0.00000000E+00  0.00000000E+00
  0.00000000E+00  0.00000000E+00  0.00000000E+00
  0.00000000E+00  0.00000000E+00  0.00000000E+00
  0.00000000E+00  0.00000000E+00  0.00000000E+00
  0.00000000E+00  0.00000000E+00  0.00000000E+00
  0.00000000E+00  0.00000000E+00  0.00000000E+00
  0.00000000E+00  0.00000000E+00  0.00000000E+00
  0.00000000E+00  0.00000000E+00  0.00000000E+00
  0.00000000E+00  0.00000000E+00  0.00000000E+00
  0.00000000E+00  0.00000000E+00  0.00000000E+00
  0.00000000E+00  0.00000000E+00  0.00000000E+00
  0.00000000E+00  0.00000000E+00  0.00000000E+00
  0.00000000E+00  0.00000000E+00  0.00000000E+00
  0.00000000E+00  0.00000000E+00  0.00000000E+00
  0.00000000E+00  0.00000000E+00  0.00000000E+00
  0.00000000E+00  0.00000000E+00  0.00000000E+00
  0.00000000E+00  0.00000000E+00  0.00000000E+00
  0.00000000E+00  0.00000000E+00  0.00000000E+00
  0.00000000E+00  0.00000000E+00  0.00000000E+00
  0.00000000E+00  0.00000000E+00  0.00000000E+00
  0.00000000E+00  0.00000000E+00  0.00000000E+00
  0.00000000E+00  0.00000000E+00  0.00000000E+00
  0.00000000E+00  0.00000000E+00  0.00000000E+00
  0.00000000E+00  0.00000000E+00  0.00000000E+00
  0.00000000E+00  0.00000000E+00  0.00000000E+00
  0.00000000E+00  0.00000000E+00  0.00000000E+00
  0.00000000E+00  0.00000000E+00  0.00000000E+00
  0.00000000E+00  0.00000000E+00  0.00000000E+00
  0.00000000E+00  0.00000000E+00  0.00000000E+00
  0.00000000E+00  0.00000000E+00  0.00000000E+00
  0.00000000E+00  0.00000000E+00  0.00000000E+00
  0.00000000E+00  0.00000000E+00  0.00000000E+00
  0.00000000E+00  0.00000000E+00  0.00000000E+00
  0.00000000E+00  0.00000000E+00  0.00000000E+00
  0.00000000E+00  0.00000000E+00  0.00000000E+00
  0.00000000E+00  0.00000000E+00  0.00000000E+00
  0.00000000E+00  0.00000000E+00  0.00000000E+00
  0.00000000E+00  0.00000000E+00  0.00000000E+00
  0.00000000E+00  0.00000000E+00  0.00000000E+00
  0.00000000E+00  0.00000000E+00  0.00000000E+00
  0.00000000E+00  0.00000000E+00  0.00000000E+00
  0.00000000E+00  0.00000000E+00  0.00000000E+00
  0.00000000E+00  0.00000000E+00  0.00000000E+00
  0.00000000E+00  0.00000000E+00  0.00000000E+00
  0.00000000E+00  0.00000000E+00  0.00000000E+00
