La Co Ni Sn Bi O  C  H                  
   1.00000000000000     
    29.1044006348000011    0.0000000000000000    0.0000000000000000
     0.4451680315000000   28.3694074727000007    0.0000000000000000
     0.0682082826000000    0.3036559964000000   28.5240018092999996
   La   Co   Ni   Sn   Bi   O    C    H 
    14    13    13    14    14     2     1     1
Selective dynamics
Direct
  0.5921458056536613  0.4206517593047757  0.4076081562253506   T   T   T
  0.6854009935901187  0.5711430983306796  0.3813179515078593   T   T   T
  0.4954097889903044  0.5274608974739828  0.2823474854411758   T   T   T
  0.5624178930172883  0.5214035775838100  0.6022320045526672   T   T   T
  0.5091725877105541  0.3867258965973530  0.3055983863305463   T   T   T
  0.5754131249654346  0.6554177671120507  0.4836201167976215   T   T   T
  0.5065318470628090  0.3388715704793313  0.5006781269451694   T   T   T
  0.5350832063485988  0.6376865439437215  0.3752492323012931   T   T   T
  0.4362958115152741  0.6438265692036159  0.5352539373639899   T   T   T
  0.4373551010143757  0.5015757590148624  0.3842817269995109   F   F   F
  0.4437846394494898  0.4460183835780285  0.5005161578087822   F   F   F
  0.3839211777640020  0.4680392703403190  0.6111589778925354   T   T   T
  0.3445895327073855  0.4438897637959028  0.3467799125434373   T   T   T
  0.3619148018347016  0.5860156989478571  0.3935326837246278   T   T   T
  0.4217425606853311  0.4061295180575186  0.3699802678458894   F   F   F
  0.5011311695957161  0.4887203336762909  0.4395023580252015   F   F   F
  0.4044148221271726  0.6101724300038001  0.4624736492929173   F   F   F
  0.4722931245665194  0.5596737886932672  0.5729988711091565   F   F   F
  0.6552684236953183  0.5165424048424470  0.4543399438695133   F   F   F
  0.5967309916701211  0.5535378348504167  0.5056109707055541   F   F   F
  0.5314074673932367  0.5941153005651714  0.5336729985293047   F   F   F
  0.5796732686089143  0.4997731718447866  0.4507473928409595   F   F   F
  0.4610143102839079  0.3309965558140029  0.3448075908113878   T   T   T
  0.3905180950192175  0.5252419063175111  0.4552418453041511   F   F   F
  0.4539834035591298  0.3243096600135776  0.4239767541898522   T   T   T
  0.5074804872141527  0.4592780196109629  0.3501259710292359   F   F   F
  0.6012877811302459  0.4669891268301640  0.5212355700313438   F   F   F
  0.5384608035519776  0.4312182275275163  0.4821288228790692   F   F   F
  0.4713083414346286  0.4805797151798927  0.5807598339419258   F   F   F
  0.3771163837573610  0.4514853175274567  0.4282230665427278   F   F   F
  0.4059018739390154  0.3822235888080883  0.4561785915149272   F   F   F
  0.5357818896390683  0.5680835373033233  0.4543473312664048   F   F   F
  0.4924712632432886  0.6367287407321953  0.4646113344718685   F   F   F
  0.4677327221812249  0.5829886973614862  0.4038343643763724   F   F   F
  0.5280944416629296  0.5063826634733033  0.5194466411805863   F   F   F
  0.6212454441397384  0.5105019604624417  0.3755946010283822   F   F   F
  0.6054499763524817  0.5821019035045651  0.4188664505762958   F   F   F
  0.4050790883739026  0.5245211222763402  0.5434909784116542   F   F   F
  0.3501793952751407  0.4701450384124701  0.5078363323911229   T   T   T
  0.4341377249455290  0.4569099658924204  0.3019174924650720   T   T   T
  0.5391881179624003  0.4220033990740588  0.5678536093895437   T   T   T
  0.3589088862484645  0.3874133513999768  0.5399874022665910   T   T   T
  0.4625951421883201  0.5516617238622956  0.4875128022361963   F   F   F
  0.6056266300640734  0.3739332672509357  0.5089245317046295   T   T   T
  0.4956959162440919  0.4398200579835443  0.6588466625201924   T   T   T
  0.5872898277245446  0.4676336071273566  0.3062572767719078   T   T   T
  0.4900497958562298  0.4037080615820798  0.4151644571778519   F   F   F
  0.4355389062121837  0.6746993982863945  0.4127057750821905   T   T   T
  0.4668434966298839  0.5376260589955435  0.6593344234016204   T   T   T
  0.5397532608265934  0.5319899791087650  0.3771480104995177   F   F   F
  0.6685806994693906  0.6004569221571552  0.4838659181828450   T   T   T
  0.6659215992542791  0.5190814565655899  0.5504016025884700   T   T   T
  0.3743252569524790  0.3349013581307045  0.3850127663707192   T   T   T
  0.6782438314429711  0.4359527381000936  0.4869305374542467   T   T   T
  0.5394146407887095  0.3185169371576136  0.3930030059401103   T   T   T
  0.3024484757256395  0.5032254211704150  0.4355839029797882   T   T   T
  0.3133340851407641  0.3961215329502162  0.4500080654039462   T   T   T
  0.5122231439798600  0.6251231733785723  0.6170197358098884   T   T   T
  0.4494364256306355  0.3780445702677233  0.5886880831589278   T   T   T
  0.3897561685769670  0.5816304731355326  0.6119100905164088   T   T   T
  0.4033653368662627  0.3053398092798820  0.5003803727419720   T   T   T
  0.4027918738563082  0.3712347946713543  0.2870246192836349   T   T   T
  0.3839326745002863  0.5334353787097232  0.2924648579860361   T   T   T
  0.6926834792383835  0.4601848799239115  0.3877842959300171   T   T   T
  0.3375166141507850  0.5720662508835670  0.5125736054578103   T   T   T
  0.5996304970753105  0.5724878721659649  0.3080092458651587   T   T   T
  0.6125327525939546  0.6139516723115169  0.5758519231045984   T   T   T
  0.4401211667325664  0.6152095469091702  0.3236662089310237   T   T   T
  0.3790213597542159  0.4392102773168786  0.6890447626749653   T   T   T
  0.4448692203537032  0.4159698125581249  0.7259715992156920   T   T   T
  0.4019020086217259  0.4198949992608058  0.7228073316870466   T   T   T
  0.3809913076339306  0.4051664379473165  0.7521095037072195   T   T   T
 
  0.00000000E+00  0.00000000E+00  0.00000000E+00
  0.00000000E+00  0.00000000E+00  0.00000000E+00
  0.00000000E+00  0.00000000E+00  0.00000000E+00
  0.00000000E+00  0.00000000E+00  0.00000000E+00
  0.00000000E+00  0.00000000E+00  0.00000000E+00
  0.00000000E+00  0.00000000E+00  0.00000000E+00
  0.00000000E+00  0.00000000E+00  0.00000000E+00
  0.00000000E+00  0.00000000E+00  0.00000000E+00
  0.00000000E+00  0.00000000E+00  0.00000000E+00
  0.00000000E+00  0.00000000E+00  0.00000000E+00
  0.00000000E+00  0.00000000E+00  0.00000000E+00
  0.00000000E+00  0.00000000E+00  0.00000000E+00
  0.00000000E+00  0.00000000E+00  0.00000000E+00
  0.00000000E+00  0.00000000E+00  0.00000000E+00
  0.00000000E+00  0.00000000E+00  0.00000000E+00
  0.00000000E+00  0.00000000E+00  0.00000000E+00
  0.00000000E+00  0.00000000E+00  0.00000000E+00
  0.00000000E+00  0.00000000E+00  0.00000000E+00
  0.00000000E+00  0.00000000E+00  0.00000000E+00
  0.00000000E+00  0.00000000E+00  0.00000000E+00
  0.00000000E+00  0.00000000E+00  0.00000000E+00
  0.00000000E+00  0.00000000E+00  0.00000000E+00
  0.00000000E+00  0.00000000E+00  0.00000000E+00
  0.00000000E+00  0.00000000E+00  0.00000000E+00
  0.00000000E+00  0.00000000E+00  0.00000000E+00
  0.00000000E+00  0.00000000E+00  0.00000000E+00
  0.00000000E+00  0.00000000E+00  0.00000000E+00
  0.00000000E+00  0.00000000E+00  0.00000000E+00
  0.00000000E+00  0.00000000E+00  0.00000000E+00
  0.00000000E+00  0.00000000E+00  0.00000000E+00
  0.00000000E+00  0.00000000E+00  0.00000000E+00
  0.00000000E+00  0.00000000E+00  0.00000000E+00
  0.00000000E+00  0.00000000E+00  0.00000000E+00
  0.00000000E+00  0.00000000E+00  0.00000000E+00
  0.00000000E+00  0.00000000E+00  0.00000000E+00
  0.00000000E+00  0.00000000E+00  0.00000000E+00
  0.00000000E+00  0.00000000E+00  0.00000000E+00
  0.00000000E+00  0.00000000E+00  0.00000000E+00
  0.00000000E+00  0.00000000E+00  0.00000000E+00
  0.00000000E+00  0.00000000E+00  0.00000000E+00
  0.00000000E+00  0.00000000E+00  0.00000000E+00
  0.00000000E+00  0.00000000E+00  0.00000000E+00
  0.00000000E+00  0.00000000E+00  0.00000000E+00
  0.00000000E+00  0.00000000E+00  0.00000000E+00
  0.00000000E+00  0.00000000E+00  0.00000000E+00
  0.00000000E+00  0.00000000E+00  0.00000000E+00
  0.00000000E+00  0.00000000E+00  0.00000000E+00
  0.00000000E+00  0.00000000E+00  0.00000000E+00
  0.00000000E+00  0.00000000E+00  0.00000000E+00
  0.00000000E+00  0.00000000E+00  0.00000000E+00
  0.00000000E+00  0.00000000E+00  0.00000000E+00
  0.00000000E+00  0.00000000E+00  0.00000000E+00
  0.00000000E+00  0.00000000E+00  0.00000000E+00
  0.00000000E+00  0.00000000E+00  0.00000000E+00
  0.00000000E+00  0.00000000E+00  0.00000000E+00
  0.00000000E+00  0.00000000E+00  0.00000000E+00
  0.00000000E+00  0.00000000E+00  0.00000000E+00
  0.00000000E+00  0.00000000E+00  0.00000000E+00
  0.00000000E+00  0.00000000E+00  0.00000000E+00
  0.00000000E+00  0.00000000E+00  0.00000000E+00
  0.00000000E+00  0.00000000E+00  0.00000000E+00
  0.00000000E+00  0.00000000E+00  0.00000000E+00
  0.00000000E+00  0.00000000E+00  0.00000000E+00
  0.00000000E+00  0.00000000E+00  0.00000000E+00
  0.00000000E+00  0.00000000E+00  0.00000000E+00
  0.00000000E+00  0.00000000E+00  0.00000000E+00
  0.00000000E+00  0.00000000E+00  0.00000000E+00
  0.00000000E+00  0.00000000E+00  0.00000000E+00
  0.00000000E+00  0.00000000E+00  0.00000000E+00
  0.00000000E+00  0.00000000E+00  0.00000000E+00
  0.00000000E+00  0.00000000E+00  0.00000000E+00
  0.00000000E+00  0.00000000E+00  0.00000000E+00
