La Co Ni Sn Bi O  C  H                  
   1.00000000000000     
    29.1044006348000011    0.0000000000000000    0.0000000000000000
     0.4451680315000000   28.3694074727000007    0.0000000000000000
     0.0682082826000000    0.3036559964000000   28.5240018092999996
   La   Co   Ni   Sn   Bi   O    C    H 
    14    13    13    14    14     2     1     1
Selective dynamics
Direct
  0.5922415998312015  0.4205516105758700  0.4077899763521653   T   T   T
  0.6855947882337236  0.5710279565056224  0.3813786527968028   T   T   T
  0.4954204260098320  0.5282463363858899  0.2825489950181103   T   T   T
  0.5620554621084672  0.5216026014354377  0.6021473456527514   T   T   T
  0.5087914487411931  0.3872349940009516  0.3052791422391960   T   T   T
  0.5749675821969263  0.6554111664941995  0.4835179902595754   T   T   T
  0.5089164572778707  0.3378604807103180  0.4993832126521428   T   T   T
  0.5349948231612555  0.6376640011091866  0.3751672927576599   T   T   T
  0.4350445187827652  0.6430326836668017  0.5354581465076189   T   T   T
  0.4373551010143757  0.5015757590148624  0.3842817269995109   F   F   F
  0.4437846394494898  0.4460183835780285  0.5005161578087822   F   F   F
  0.3835914947913982  0.4665643502519631  0.6106283049574519   T   T   T
  0.3444815084648314  0.4444637762455908  0.3466358289359371   T   T   T
  0.3617567371195017  0.5857262813338246  0.3939052958881306   T   T   T
  0.4217425606853311  0.4061295180575186  0.3699802678458894   F   F   F
  0.5011311695957161  0.4887203336762909  0.4395023580252015   F   F   F
  0.4044148221271726  0.6101724300038001  0.4624736492929173   F   F   F
  0.4722931245665194  0.5596737886932672  0.5729988711091565   F   F   F
  0.6552684236953183  0.5165424048424470  0.4543399438695133   F   F   F
  0.5967309916701211  0.5535378348504167  0.5056109707055541   F   F   F
  0.5314074673932367  0.5941153005651714  0.5336729985293047   F   F   F
  0.5796732686089143  0.4997731718447866  0.4507473928409595   F   F   F
  0.4607107823535146  0.3307728250437716  0.3444559725001323   T   T   T
  0.3905180950192175  0.5252419063175111  0.4552418453041511   F   F   F
  0.4544033652998313  0.3244727290639826  0.4237781691182947   T   T   T
  0.5074804872141527  0.4592780196109629  0.3501259710292359   F   F   F
  0.6012877811302459  0.4669891268301640  0.5212355700313438   F   F   F
  0.5384608035519776  0.4312182275275163  0.4821288228790692   F   F   F
  0.4713083414346286  0.4805797151798927  0.5807598339419258   F   F   F
  0.3771163837573610  0.4514853175274567  0.4282230665427278   F   F   F
  0.4059018739390154  0.3822235888080883  0.4561785915149272   F   F   F
  0.5357818896390683  0.5680835373033233  0.4543473312664048   F   F   F
  0.4924712632432886  0.6367287407321953  0.4646113344718685   F   F   F
  0.4677327221812249  0.5829886973614862  0.4038343643763724   F   F   F
  0.5280944416629296  0.5063826634733033  0.5194466411805863   F   F   F
  0.6212454441397384  0.5105019604624417  0.3755946010283822   F   F   F
  0.6054499763524817  0.5821019035045651  0.4188664505762958   F   F   F
  0.4050790883739026  0.5245211222763402  0.5434909784116542   F   F   F
  0.3507147349414597  0.4701414343904601  0.5080904699634426   T   T   T
  0.4339313830687937  0.4575051659429681  0.3022223782924677   T   T   T
  0.5377602936834970  0.4217054185981109  0.5687712640810426   T   T   T
  0.3575892559379046  0.3867175734504523  0.5386360550682816   T   T   T
  0.4625951421883201  0.5516617238622956  0.4875128022361963   F   F   F
  0.6064913161742556  0.3752375607312317  0.5104870306844432   T   T   T
  0.4921478606827315  0.4377645698998585  0.6577031746748158   T   T   T
  0.5872518439464015  0.4678077132214127  0.3063048759586509   T   T   T
  0.4900497958562298  0.4037080615820798  0.4151644571778519   F   F   F
  0.4355041254735104  0.6748653802169428  0.4130304957630154   T   T   T
  0.4673196081273056  0.5355327792143310  0.6596224917058309   T   T   T
  0.5397532608265934  0.5319899791087650  0.3771480104995177   F   F   F
  0.6682989453186535  0.6005399429500951  0.4838656673814886   T   T   T
  0.6656404033041875  0.5191688805945511  0.5507672249479186   T   T   T
  0.3747657541944333  0.3346942785426418  0.3847199426001953   T   T   T
  0.6787462480231901  0.4364209614179129  0.4867771658712148   T   T   T
  0.5397328735129345  0.3187574453446885  0.3914791900519801   T   T   T
  0.3023111416977149  0.5031004100062655  0.4363609554967822   T   T   T
  0.3132225157894265  0.3956799350355684  0.4484557455970248   T   T   T
  0.5112531612314427  0.6247757428470478  0.6171926773016472   T   T   T
  0.4486340542224354  0.3744968683302132  0.5852294291656086   T   T   T
  0.3901067914723128  0.5798884195461420  0.6132996869613506   T   T   T
  0.4054809633373046  0.3052137004971501  0.5007701021444039   T   T   T
  0.4024557567328830  0.3717775096729429  0.2869463624442276   T   T   T
  0.3837218426279325  0.5338965312131958  0.2924257875820568   T   T   T
  0.6926117360683780  0.4601558997057777  0.3874869195317178   T   T   T
  0.3374213513483554  0.5714605851759634  0.5131114788526941   T   T   T
  0.5998306576022550  0.5727607042498946  0.3082548404612497   T   T   T
  0.6123091865245495  0.6141416436362618  0.5755528660297260   T   T   T
  0.4397917645607549  0.6155142062154916  0.3238977194719415   T   T   T
  0.3110108541494815  0.4922080058767109  0.6355136494631708   T   T   T
  0.2909977634938938  0.5680245253193091  0.6166298843268009   T   T   T
  0.2819810112395922  0.5270611933573496  0.6294995376376414   T   T   T
  0.2454796443875494  0.5178853123805912  0.6368005788079190   T   T   T
 
  0.00000000E+00  0.00000000E+00  0.00000000E+00
  0.00000000E+00  0.00000000E+00  0.00000000E+00
  0.00000000E+00  0.00000000E+00  0.00000000E+00
  0.00000000E+00  0.00000000E+00  0.00000000E+00
  0.00000000E+00  0.00000000E+00  0.00000000E+00
  0.00000000E+00  0.00000000E+00  0.00000000E+00
  0.00000000E+00  0.00000000E+00  0.00000000E+00
  0.00000000E+00  0.00000000E+00  0.00000000E+00
  0.00000000E+00  0.00000000E+00  0.00000000E+00
  0.00000000E+00  0.00000000E+00  0.00000000E+00
  0.00000000E+00  0.00000000E+00  0.00000000E+00
  0.00000000E+00  0.00000000E+00  0.00000000E+00
  0.00000000E+00  0.00000000E+00  0.00000000E+00
  0.00000000E+00  0.00000000E+00  0.00000000E+00
  0.00000000E+00  0.00000000E+00  0.00000000E+00
  0.00000000E+00  0.00000000E+00  0.00000000E+00
  0.00000000E+00  0.00000000E+00  0.00000000E+00
  0.00000000E+00  0.00000000E+00  0.00000000E+00
  0.00000000E+00  0.00000000E+00  0.00000000E+00
  0.00000000E+00  0.00000000E+00  0.00000000E+00
  0.00000000E+00  0.00000000E+00  0.00000000E+00
  0.00000000E+00  0.00000000E+00  0.00000000E+00
  0.00000000E+00  0.00000000E+00  0.00000000E+00
  0.00000000E+00  0.00000000E+00  0.00000000E+00
  0.00000000E+00  0.00000000E+00  0.00000000E+00
  0.00000000E+00  0.00000000E+00  0.00000000E+00
  0.00000000E+00  0.00000000E+00  0.00000000E+00
  0.00000000E+00  0.00000000E+00  0.00000000E+00
  0.00000000E+00  0.00000000E+00  0.00000000E+00
  0.00000000E+00  0.00000000E+00  0.00000000E+00
  0.00000000E+00  0.00000000E+00  0.00000000E+00
  0.00000000E+00  0.00000000E+00  0.00000000E+00
  0.00000000E+00  0.00000000E+00  0.00000000E+00
  0.00000000E+00  0.00000000E+00  0.00000000E+00
  0.00000000E+00  0.00000000E+00  0.00000000E+00
  0.00000000E+00  0.00000000E+00  0.00000000E+00
  0.00000000E+00  0.00000000E+00  0.00000000E+00
  0.00000000E+00  0.00000000E+00  0.00000000E+00
  0.00000000E+00  0.00000000E+00  0.00000000E+00
  0.00000000E+00  0.00000000E+00  0.00000000E+00
  0.00000000E+00  0.00000000E+00  0.00000000E+00
  0.00000000E+00  0.00000000E+00  0.00000000E+00
  0.00000000E+00  0.00000000E+00  0.00000000E+00
  0.00000000E+00  0.00000000E+00  0.00000000E+00
  0.00000000E+00  0.00000000E+00  0.00000000E+00
  0.00000000E+00  0.00000000E+00  0.00000000E+00
  0.00000000E+00  0.00000000E+00  0.00000000E+00
  0.00000000E+00  0.00000000E+00  0.00000000E+00
  0.00000000E+00  0.00000000E+00  0.00000000E+00
  0.00000000E+00  0.00000000E+00  0.00000000E+00
  0.00000000E+00  0.00000000E+00  0.00000000E+00
  0.00000000E+00  0.00000000E+00  0.00000000E+00
  0.00000000E+00  0.00000000E+00  0.00000000E+00
  0.00000000E+00  0.00000000E+00  0.00000000E+00
  0.00000000E+00  0.00000000E+00  0.00000000E+00
  0.00000000E+00  0.00000000E+00  0.00000000E+00
  0.00000000E+00  0.00000000E+00  0.00000000E+00
  0.00000000E+00  0.00000000E+00  0.00000000E+00
  0.00000000E+00  0.00000000E+00  0.00000000E+00
  0.00000000E+00  0.00000000E+00  0.00000000E+00
  0.00000000E+00  0.00000000E+00  0.00000000E+00
  0.00000000E+00  0.00000000E+00  0.00000000E+00
  0.00000000E+00  0.00000000E+00  0.00000000E+00
  0.00000000E+00  0.00000000E+00  0.00000000E+00
  0.00000000E+00  0.00000000E+00  0.00000000E+00
  0.00000000E+00  0.00000000E+00  0.00000000E+00
  0.00000000E+00  0.00000000E+00  0.00000000E+00
  0.00000000E+00  0.00000000E+00  0.00000000E+00
  0.00000000E+00  0.00000000E+00  0.00000000E+00
  0.00000000E+00  0.00000000E+00  0.00000000E+00
  0.00000000E+00  0.00000000E+00  0.00000000E+00
  0.00000000E+00  0.00000000E+00  0.00000000E+00
