La Co Ni Sn Bi O  C  H                  
   1.00000000000000     
    29.1044006348000011    0.0000000000000000    0.0000000000000000
     0.4451680315000000   28.3694074727000007    0.0000000000000000
     0.0682082826000000    0.3036559964000000   28.5240018092999996
   La   Co   Ni   Sn   Bi   O    C    H 
    14    13    13    14    14     2     1     1
Selective dynamics
Direct
  0.5927831571518083  0.4210047216574592  0.4079631754564141   T   T   T
  0.6843539487974672  0.5716609053039713  0.3801117679561463   T   T   T
  0.4940263598946103  0.5247373763712347  0.2814166704094025   T   T   T
  0.5624334144421285  0.5218844116048624  0.6021130187914829   T   T   T
  0.5102518747303870  0.3855659590411334  0.3067186203921749   T   T   T
  0.5752368168990971  0.6555532088773180  0.4836428058594265   T   T   T
  0.5087423718705373  0.3383948536978916  0.5005757866532918   T   T   T
  0.5361394845639548  0.6375375430327733  0.3751996990981554   T   T   T
  0.4360372223830827  0.6433490818350917  0.5357378176683585   T   T   T
  0.4373551010143757  0.5015757590148624  0.3842817269995109   F   F   F
  0.4437846394494898  0.4460183835780285  0.5005161578087822   F   F   F
  0.3867139048926480  0.4675093324852827  0.6093842247314870   T   T   T
  0.3454247741048191  0.4424925272448621  0.3424913773130273   T   T   T
  0.3617659908628006  0.5877616114237022  0.3947606406286385   T   T   T
  0.4217425606853311  0.4061295180575186  0.3699802678458894   F   F   F
  0.5011311695957161  0.4887203336762909  0.4395023580252015   F   F   F
  0.4044148221271726  0.6101724300038001  0.4624736492929173   F   F   F
  0.4722931245665194  0.5596737886932672  0.5729988711091565   F   F   F
  0.6552684236953183  0.5165424048424470  0.4543399438695133   F   F   F
  0.5967309916701211  0.5535378348504167  0.5056109707055541   F   F   F
  0.5314074673932367  0.5941153005651714  0.5336729985293047   F   F   F
  0.5796732686089143  0.4997731718447866  0.4507473928409595   F   F   F
  0.4641651927308464  0.3288060852621679  0.3498124819949132   T   T   T
  0.3905180950192175  0.5252419063175111  0.4552418453041511   F   F   F
  0.4560606054225173  0.3240494311565897  0.4275357793666117   T   T   T
  0.5074804872141527  0.4592780196109629  0.3501259710292359   F   F   F
  0.6012877811302459  0.4669891268301640  0.5212355700313438   F   F   F
  0.5384608035519776  0.4312182275275163  0.4821288228790692   F   F   F
  0.4713083414346286  0.4805797151798927  0.5807598339419258   F   F   F
  0.3771163837573610  0.4514853175274567  0.4282230665427278   F   F   F
  0.4059018739390154  0.3822235888080883  0.4561785915149272   F   F   F
  0.5357818896390683  0.5680835373033233  0.4543473312664048   F   F   F
  0.4924712632432886  0.6367287407321953  0.4646113344718685   F   F   F
  0.4677327221812249  0.5829886973614862  0.4038343643763724   F   F   F
  0.5280944416629296  0.5063826634733033  0.5194466411805863   F   F   F
  0.6212454441397384  0.5105019604624417  0.3755946010283822   F   F   F
  0.6054499763524817  0.5821019035045651  0.4188664505762958   F   F   F
  0.4050790883739026  0.5245211222763402  0.5434909784116542   F   F   F
  0.3501416279433652  0.4712016392328304  0.5083013104124364   T   T   T
  0.4340012708342763  0.4508936422554888  0.2983386247216108   T   T   T
  0.5379506711251807  0.4220879778327653  0.5690907912031130   T   T   T
  0.3568647359841425  0.3882913275054750  0.5385389921245897   T   T   T
  0.4625951421883201  0.5516617238622956  0.4875128022361963   F   F   F
  0.6065678603982989  0.3751422744079448  0.5103457198847486   T   T   T
  0.4917877207491484  0.4392458662295458  0.6581775988982804   T   T   T
  0.5873034619618861  0.4670064599983357  0.3063380913377561   T   T   T
  0.4900497958562298  0.4037080615820798  0.4151644571778519   F   F   F
  0.4357376932787971  0.6750121151888104  0.4128866189891562   T   T   T
  0.4681163075834568  0.5371918022883032  0.6599824339834475   T   T   T
  0.5397532608265934  0.5319899791087650  0.3771480104995177   F   F   F
  0.6685256046430916  0.6004201475082849  0.4832457367716213   T   T   T
  0.6658063917027394  0.5191930533344573  0.5503170305992371   T   T   T
  0.3757841229783591  0.3329429019057370  0.3885318945590939   T   T   T
  0.6788010211808040  0.4364772722698059  0.4868739579436825   T   T   T
  0.5428818734141773  0.3191256939339276  0.3946544034897018   T   T   T
  0.3032924043282981  0.5030232488668819  0.4336909739541725   T   T   T
  0.3129913381142798  0.3957281498523840  0.4473366042187519   T   T   T
  0.5124178826078846  0.6254152114194185  0.6167391676692784   T   T   T
  0.4481676431830426  0.3751862698065677  0.5860309549681261   T   T   T
  0.3902673137322567  0.5807003808701930  0.6129223607365436   T   T   T
  0.4050268112098717  0.3061582722136980  0.5033638528570924   T   T   T
  0.4040385559450087  0.3610249167683380  0.2926770023872050   T   T   T
  0.3846338108420857  0.5368719349186866  0.2959456033879601   T   T   T
  0.6930501698680074  0.4608594844665745  0.3876707632745685   T   T   T
  0.3373647243341009  0.5716211348027115  0.5124464658460073   T   T   T
  0.5981965765850025  0.5715427793752103  0.3065244183460412   T   T   T
  0.6127143384386459  0.6143787717063602  0.5754677329570915   T   T   T
  0.4422237046233115  0.6150877208532618  0.3240901083873141   T   T   T
  0.3453687338399790  0.4510272492393338  0.2514823638995925   T   T   T
  0.4201872344196777  0.4560646731912085  0.2285828816725986   T   T   T
  0.3767773645461663  0.4542329108655018  0.2206790161576900   T   T   T
  0.3662985936862159  0.4554282352220477  0.1833315740224250   T   T   T
 
  0.00000000E+00  0.00000000E+00  0.00000000E+00
  0.00000000E+00  0.00000000E+00  0.00000000E+00
  0.00000000E+00  0.00000000E+00  0.00000000E+00
  0.00000000E+00  0.00000000E+00  0.00000000E+00
  0.00000000E+00  0.00000000E+00  0.00000000E+00
  0.00000000E+00  0.00000000E+00  0.00000000E+00
  0.00000000E+00  0.00000000E+00  0.00000000E+00
  0.00000000E+00  0.00000000E+00  0.00000000E+00
  0.00000000E+00  0.00000000E+00  0.00000000E+00
  0.00000000E+00  0.00000000E+00  0.00000000E+00
  0.00000000E+00  0.00000000E+00  0.00000000E+00
  0.00000000E+00  0.00000000E+00  0.00000000E+00
  0.00000000E+00  0.00000000E+00  0.00000000E+00
  0.00000000E+00  0.00000000E+00  0.00000000E+00
  0.00000000E+00  0.00000000E+00  0.00000000E+00
  0.00000000E+00  0.00000000E+00  0.00000000E+00
  0.00000000E+00  0.00000000E+00  0.00000000E+00
  0.00000000E+00  0.00000000E+00  0.00000000E+00
  0.00000000E+00  0.00000000E+00  0.00000000E+00
  0.00000000E+00  0.00000000E+00  0.00000000E+00
  0.00000000E+00  0.00000000E+00  0.00000000E+00
  0.00000000E+00  0.00000000E+00  0.00000000E+00
  0.00000000E+00  0.00000000E+00  0.00000000E+00
  0.00000000E+00  0.00000000E+00  0.00000000E+00
  0.00000000E+00  0.00000000E+00  0.00000000E+00
  0.00000000E+00  0.00000000E+00  0.00000000E+00
  0.00000000E+00  0.00000000E+00  0.00000000E+00
  0.00000000E+00  0.00000000E+00  0.00000000E+00
  0.00000000E+00  0.00000000E+00  0.00000000E+00
  0.00000000E+00  0.00000000E+00  0.00000000E+00
  0.00000000E+00  0.00000000E+00  0.00000000E+00
  0.00000000E+00  0.00000000E+00  0.00000000E+00
  0.00000000E+00  0.00000000E+00  0.00000000E+00
  0.00000000E+00  0.00000000E+00  0.00000000E+00
  0.00000000E+00  0.00000000E+00  0.00000000E+00
  0.00000000E+00  0.00000000E+00  0.00000000E+00
  0.00000000E+00  0.00000000E+00  0.00000000E+00
  0.00000000E+00  0.00000000E+00  0.00000000E+00
  0.00000000E+00  0.00000000E+00  0.00000000E+00
  0.00000000E+00  0.00000000E+00  0.00000000E+00
  0.00000000E+00  0.00000000E+00  0.00000000E+00
  0.00000000E+00  0.00000000E+00  0.00000000E+00
  0.00000000E+00  0.00000000E+00  0.00000000E+00
  0.00000000E+00  0.00000000E+00  0.00000000E+00
  0.00000000E+00  0.00000000E+00  0.00000000E+00
  0.00000000E+00  0.00000000E+00  0.00000000E+00
  0.00000000E+00  0.00000000E+00  0.00000000E+00
  0.00000000E+00  0.00000000E+00  0.00000000E+00
  0.00000000E+00  0.00000000E+00  0.00000000E+00
  0.00000000E+00  0.00000000E+00  0.00000000E+00
  0.00000000E+00  0.00000000E+00  0.00000000E+00
  0.00000000E+00  0.00000000E+00  0.00000000E+00
  0.00000000E+00  0.00000000E+00  0.00000000E+00
  0.00000000E+00  0.00000000E+00  0.00000000E+00
  0.00000000E+00  0.00000000E+00  0.00000000E+00
  0.00000000E+00  0.00000000E+00  0.00000000E+00
  0.00000000E+00  0.00000000E+00  0.00000000E+00
  0.00000000E+00  0.00000000E+00  0.00000000E+00
  0.00000000E+00  0.00000000E+00  0.00000000E+00
  0.00000000E+00  0.00000000E+00  0.00000000E+00
  0.00000000E+00  0.00000000E+00  0.00000000E+00
  0.00000000E+00  0.00000000E+00  0.00000000E+00
  0.00000000E+00  0.00000000E+00  0.00000000E+00
  0.00000000E+00  0.00000000E+00  0.00000000E+00
  0.00000000E+00  0.00000000E+00  0.00000000E+00
  0.00000000E+00  0.00000000E+00  0.00000000E+00
  0.00000000E+00  0.00000000E+00  0.00000000E+00
  0.00000000E+00  0.00000000E+00  0.00000000E+00
  0.00000000E+00  0.00000000E+00  0.00000000E+00
  0.00000000E+00  0.00000000E+00  0.00000000E+00
  0.00000000E+00  0.00000000E+00  0.00000000E+00
  0.00000000E+00  0.00000000E+00  0.00000000E+00
