La Co Ni Sn Bi O  C  H                  
   1.00000000000000     
    29.1044006348000011    0.0000000000000000    0.0000000000000000
     0.4451680315000000   28.3694074727000007    0.0000000000000000
     0.0682082826000000    0.3036559964000000   28.5240018092999996
   La   Co   Ni   Sn   Bi   O    C    H 
    14    13    13    14    14     2     1     1
Selective dynamics
Direct
  0.5931851573585835  0.4181638396193639  0.4046890183624028   T   T   T
  0.6847979707743456  0.5724933859215030  0.3808587269788127   T   T   T
  0.4946156083022105  0.5298886377505897  0.2829230628784579   T   T   T
  0.5624363509421940  0.5216290823421992  0.6020009549164969   T   T   T
  0.5112960998313678  0.3860483199414630  0.3046703710869725   T   T   T
  0.5753320941839186  0.6553348023573961  0.4835710236752581   T   T   T
  0.5079711351850732  0.3380161625645441  0.4995551919389721   T   T   T
  0.5338958531078782  0.6386502216938956  0.3759717609472356   T   T   T
  0.4360548008860833  0.6433754346974554  0.5357338538969784   T   T   T
  0.4373551010143757  0.5015757590148624  0.3842817269995109   F   F   F
  0.4437846394494898  0.4460183835780285  0.5005161578087822   F   F   F
  0.3874463605726743  0.4672661363149143  0.6098841593191222   T   T   T
  0.3444194194819037  0.4443725661316710  0.3469221751351628   T   T   T
  0.3614652046266525  0.5855700499507451  0.3942066716684210   T   T   T
  0.4217425606853311  0.4061295180575186  0.3699802678458894   F   F   F
  0.5011311695957161  0.4887203336762909  0.4395023580252015   F   F   F
  0.4044148221271726  0.6101724300038001  0.4624736492929173   F   F   F
  0.4722931245665194  0.5596737886932672  0.5729988711091565   F   F   F
  0.6552684236953183  0.5165424048424470  0.4543399438695133   F   F   F
  0.5967309916701211  0.5535378348504167  0.5056109707055541   F   F   F
  0.5314074673932367  0.5941153005651714  0.5336729985293047   F   F   F
  0.5796732686089143  0.4997731718447866  0.4507473928409595   F   F   F
  0.4583152171460795  0.3290829181662324  0.3452083345951623   T   T   T
  0.3905180950192175  0.5252419063175111  0.4552418453041511   F   F   F
  0.4528468634875397  0.3243560325720005  0.4246719605792498   T   T   T
  0.5074804872141527  0.4592780196109629  0.3501259710292359   F   F   F
  0.6012877811302459  0.4669891268301640  0.5212355700313438   F   F   F
  0.5384608035519776  0.4312182275275163  0.4821288228790692   F   F   F
  0.4713083414346286  0.4805797151798927  0.5807598339419258   F   F   F
  0.3771163837573610  0.4514853175274567  0.4282230665427278   F   F   F
  0.4059018739390154  0.3822235888080883  0.4561785915149272   F   F   F
  0.5357818896390683  0.5680835373033233  0.4543473312664048   F   F   F
  0.4924712632432886  0.6367287407321953  0.4646113344718685   F   F   F
  0.4677327221812249  0.5829886973614862  0.4038343643763724   F   F   F
  0.5280944416629296  0.5063826634733033  0.5194466411805863   F   F   F
  0.6212454441397384  0.5105019604624417  0.3755946010283822   F   F   F
  0.6054499763524817  0.5821019035045651  0.4188664505762958   F   F   F
  0.4050790883739026  0.5245211222763402  0.5434909784116542   F   F   F
  0.3507003849598484  0.4703522809337674  0.5088997124127733   T   T   T
  0.4342344055394637  0.4581941180224198  0.3023487484440729   T   T   T
  0.5381507075665571  0.4216580461442911  0.5687291636425883   T   T   T
  0.3573768405919627  0.3875384418399426  0.5403503383592303   T   T   T
  0.4625951421883201  0.5516617238622956  0.4875128022361963   F   F   F
  0.6059909564452145  0.3750156730594670  0.5091498215568583   T   T   T
  0.4923286078196256  0.4390727885707368  0.6577513235982314   T   T   T
  0.5869055085935878  0.4714327152350031  0.3050125844793233   T   T   T
  0.4900497958562298  0.4037080615820798  0.4151644571778519   F   F   F
  0.4348024350421845  0.6752884000435307  0.4137129620936657   T   T   T
  0.4684498627352915  0.5371611505849877  0.6601964227303474   T   T   T
  0.5397532608265934  0.5319899791087650  0.3771480104995177   F   F   F
  0.6685192067096644  0.6001691991608068  0.4839837162245468   T   T   T
  0.6658725028305266  0.5191046433353148  0.5506661102177638   T   T   T
  0.3734642479447799  0.3355526817523905  0.3847727597345794   T   T   T
  0.6784273984147412  0.4362323625480147  0.4864129015067662   T   T   T
  0.5362892061751766  0.3161715895960422  0.3922741167445866   T   T   T
  0.3022918196552803  0.5031486482644394  0.4369437178826858   T   T   T
  0.3131173664917534  0.3962729272888804  0.4501055560801541   T   T   T
  0.5123491038855632  0.6252816059889480  0.6168746322562814   T   T   T
  0.4488086462513782  0.3747177314327387  0.5856862026736048   T   T   T
  0.3905084619001463  0.5805074220733553  0.6131099539914255   T   T   T
  0.4040894693474847  0.3058077937242364  0.5015492837177414   T   T   T
  0.4032916357692537  0.3726548059156861  0.2866458108785843   T   T   T
  0.3833159388154507  0.5340369246791454  0.2927175803464362   T   T   T
  0.6937420799495492  0.4619944179173989  0.3886157798231217   T   T   T
  0.3376894232307324  0.5723002285810317  0.5129033997073734   T   T   T
  0.5984806713030846  0.5760431520919804  0.3094773171745404   T   T   T
  0.6126200882666369  0.6142239351750101  0.5757410722678182   T   T   T
  0.4387197173094753  0.6165346835680247  0.3245020525048614   T   T   T
  0.6274003239873436  0.3701818535731933  0.3417635491460831   T   T   T
  0.5866414436911913  0.3540075309988246  0.2765769228670629   T   T   T
  0.6224352758396384  0.3510742158080377  0.3019976523255853   T   T   T
  0.6522731235031670  0.3304555082573823  0.2882082601787849   T   T   T
 
  0.00000000E+00  0.00000000E+00  0.00000000E+00
  0.00000000E+00  0.00000000E+00  0.00000000E+00
  0.00000000E+00  0.00000000E+00  0.00000000E+00
  0.00000000E+00  0.00000000E+00  0.00000000E+00
  0.00000000E+00  0.00000000E+00  0.00000000E+00
  0.00000000E+00  0.00000000E+00  0.00000000E+00
  0.00000000E+00  0.00000000E+00  0.00000000E+00
  0.00000000E+00  0.00000000E+00  0.00000000E+00
  0.00000000E+00  0.00000000E+00  0.00000000E+00
  0.00000000E+00  0.00000000E+00  0.00000000E+00
  0.00000000E+00  0.00000000E+00  0.00000000E+00
  0.00000000E+00  0.00000000E+00  0.00000000E+00
  0.00000000E+00  0.00000000E+00  0.00000000E+00
  0.00000000E+00  0.00000000E+00  0.00000000E+00
  0.00000000E+00  0.00000000E+00  0.00000000E+00
  0.00000000E+00  0.00000000E+00  0.00000000E+00
  0.00000000E+00  0.00000000E+00  0.00000000E+00
  0.00000000E+00  0.00000000E+00  0.00000000E+00
  0.00000000E+00  0.00000000E+00  0.00000000E+00
  0.00000000E+00  0.00000000E+00  0.00000000E+00
  0.00000000E+00  0.00000000E+00  0.00000000E+00
  0.00000000E+00  0.00000000E+00  0.00000000E+00
  0.00000000E+00  0.00000000E+00  0.00000000E+00
  0.00000000E+00  0.00000000E+00  0.00000000E+00
  0.00000000E+00  0.00000000E+00  0.00000000E+00
  0.00000000E+00  0.00000000E+00  0.00000000E+00
  0.00000000E+00  0.00000000E+00  0.00000000E+00
  0.00000000E+00  0.00000000E+00  0.00000000E+00
  0.00000000E+00  0.00000000E+00  0.00000000E+00
  0.00000000E+00  0.00000000E+00  0.00000000E+00
  0.00000000E+00  0.00000000E+00  0.00000000E+00
  0.00000000E+00  0.00000000E+00  0.00000000E+00
  0.00000000E+00  0.00000000E+00  0.00000000E+00
  0.00000000E+00  0.00000000E+00  0.00000000E+00
  0.00000000E+00  0.00000000E+00  0.00000000E+00
  0.00000000E+00  0.00000000E+00  0.00000000E+00
  0.00000000E+00  0.00000000E+00  0.00000000E+00
  0.00000000E+00  0.00000000E+00  0.00000000E+00
  0.00000000E+00  0.00000000E+00  0.00000000E+00
  0.00000000E+00  0.00000000E+00  0.00000000E+00
  0.00000000E+00  0.00000000E+00  0.00000000E+00
  0.00000000E+00  0.00000000E+00  0.00000000E+00
  0.00000000E+00  0.00000000E+00  0.00000000E+00
  0.00000000E+00  0.00000000E+00  0.00000000E+00
  0.00000000E+00  0.00000000E+00  0.00000000E+00
  0.00000000E+00  0.00000000E+00  0.00000000E+00
  0.00000000E+00  0.00000000E+00  0.00000000E+00
  0.00000000E+00  0.00000000E+00  0.00000000E+00
  0.00000000E+00  0.00000000E+00  0.00000000E+00
  0.00000000E+00  0.00000000E+00  0.00000000E+00
  0.00000000E+00  0.00000000E+00  0.00000000E+00
  0.00000000E+00  0.00000000E+00  0.00000000E+00
  0.00000000E+00  0.00000000E+00  0.00000000E+00
  0.00000000E+00  0.00000000E+00  0.00000000E+00
  0.00000000E+00  0.00000000E+00  0.00000000E+00
  0.00000000E+00  0.00000000E+00  0.00000000E+00
  0.00000000E+00  0.00000000E+00  0.00000000E+00
  0.00000000E+00  0.00000000E+00  0.00000000E+00
  0.00000000E+00  0.00000000E+00  0.00000000E+00
  0.00000000E+00  0.00000000E+00  0.00000000E+00
  0.00000000E+00  0.00000000E+00  0.00000000E+00
  0.00000000E+00  0.00000000E+00  0.00000000E+00
  0.00000000E+00  0.00000000E+00  0.00000000E+00
  0.00000000E+00  0.00000000E+00  0.00000000E+00
  0.00000000E+00  0.00000000E+00  0.00000000E+00
  0.00000000E+00  0.00000000E+00  0.00000000E+00
  0.00000000E+00  0.00000000E+00  0.00000000E+00
  0.00000000E+00  0.00000000E+00  0.00000000E+00
  0.00000000E+00  0.00000000E+00  0.00000000E+00
  0.00000000E+00  0.00000000E+00  0.00000000E+00
  0.00000000E+00  0.00000000E+00  0.00000000E+00
  0.00000000E+00  0.00000000E+00  0.00000000E+00
