La Co Ni Sn Bi O  C  H                  
   1.00000000000000     
    29.1044006348000011    0.0000000000000000    0.0000000000000000
     0.4451680315000000   28.3694074727000007    0.0000000000000000
     0.0682082826000000    0.3036559964000000   28.5240018092999996
   La   Co   Ni   Sn   Bi   O    C    H 
    14    13    13    14    14     2     1     1
Selective dynamics
Direct
  0.5940877909572375  0.4141646141792409  0.4108268981428057   T   T   T
  0.6854171601189437  0.5709828968721088  0.3811853929074741   T   T   T
  0.4956079465646861  0.5278243903460651  0.2826354518469442   T   T   T
  0.5625342025489529  0.5205279138659441  0.6018843264943590   T   T   T
  0.5042440587157199  0.3897155121402882  0.3012717667419397   T   T   T
  0.5751180558190174  0.6553528612449039  0.4838915208919798   T   T   T
  0.5162654721184974  0.3347755971693985  0.4947406897050361   T   T   T
  0.5354487903694986  0.6376461665943973  0.3752565811027443   T   T   T
  0.4363101757367180  0.6428506619153694  0.5364383237958060   T   T   T
  0.4373551010143757  0.5015757590148624  0.3842817269995109   F   F   F
  0.4437846394494898  0.4460183835780285  0.5005161578087822   F   F   F
  0.3879733322341463  0.4647045749196155  0.6084157073764609   T   T   T
  0.3430598565429318  0.4472305951259893  0.3478206380316972   T   T   T
  0.3621865364892856  0.5858410716999907  0.3941914623362356   T   T   T
  0.4217425606853311  0.4061295180575186  0.3699802678458894   F   F   F
  0.5011311695957161  0.4887203336762909  0.4395023580252015   F   F   F
  0.4044148221271726  0.6101724300038001  0.4624736492929173   F   F   F
  0.4722931245665194  0.5596737886932672  0.5729988711091565   F   F   F
  0.6552684236953183  0.5165424048424470  0.4543399438695133   F   F   F
  0.5967309916701211  0.5535378348504167  0.5056109707055541   F   F   F
  0.5314074673932367  0.5941153005651714  0.5336729985293047   F   F   F
  0.5796732686089143  0.4997731718447866  0.4507473928409595   F   F   F
  0.4539791315567703  0.3314261578150965  0.3400770708577550   T   T   T
  0.3905180950192175  0.5252419063175111  0.4552418453041511   F   F   F
  0.4529885716056718  0.3252267801309836  0.4212360245701043   T   T   T
  0.5074804872141527  0.4592780196109629  0.3501259710292359   F   F   F
  0.6012877811302459  0.4669891268301640  0.5212355700313438   F   F   F
  0.5384608035519776  0.4312182275275163  0.4821288228790692   F   F   F
  0.4713083414346286  0.4805797151798927  0.5807598339419258   F   F   F
  0.3771163837573610  0.4514853175274567  0.4282230665427278   F   F   F
  0.4059018739390154  0.3822235888080883  0.4561785915149272   F   F   F
  0.5357818896390683  0.5680835373033233  0.4543473312664048   F   F   F
  0.4924712632432886  0.6367287407321953  0.4646113344718685   F   F   F
  0.4677327221812249  0.5829886973614862  0.4038343643763724   F   F   F
  0.5280944416629296  0.5063826634733033  0.5194466411805863   F   F   F
  0.6212454441397384  0.5105019604624417  0.3755946010283822   F   F   F
  0.6054499763524817  0.5821019035045651  0.4188664505762958   F   F   F
  0.4050790883739026  0.5245211222763402  0.5434909784116542   F   F   F
  0.3514848206651012  0.4692898555277976  0.5090321069737466   T   T   T
  0.4329057450100774  0.4588670704247442  0.3025913424168837   T   T   T
  0.5354987606334126  0.4215081231317316  0.5687104627550678   T   T   T
  0.3580845254655955  0.3849680066250044  0.5386680165513980   T   T   T
  0.4625951421883201  0.5516617238622956  0.4875128022361963   F   F   F
  0.6105557656831828  0.3787775727018850  0.5223107084157714   T   T   T
  0.4897085091047053  0.4371961422375506  0.6574941347812482   T   T   T
  0.5869746755313552  0.4653824899781341  0.3085648437176888   T   T   T
  0.4900497958562298  0.4037080615820798  0.4151644571778519   F   F   F
  0.4355729217438815  0.6749038783209873  0.4130935500524806   T   T   T
  0.4684380069618025  0.5357080951702237  0.6601724006425015   T   T   T
  0.5397532608265934  0.5319899791087650  0.3771480104995177   F   F   F
  0.6684182707936193  0.6002484181716218  0.4838092556445807   T   T   T
  0.6655928620138123  0.5190153693528083  0.5513524086029624   T   T   T
  0.3722373014933775  0.3370368902593210  0.3844395973473167   T   T   T
  0.6815838044112745  0.4382444463506781  0.4887215034427518   T   T   T
  0.5323252331832011  0.3174460970700544  0.3815471636400268   T   T   T
  0.3022434773410878  0.5040657869327293  0.4385661674832115   T   T   T
  0.3124100110122001  0.3968202120064883  0.4494889108351602   T   T   T
  0.5131819178514117  0.6240090364206391  0.6175649714980721   T   T   T
  0.4500367484643845  0.3705805913435688  0.5828078295641604   T   T   T
  0.3904377435981875  0.5790488814077275  0.6137169051550347   T   T   T
  0.4109837016405304  0.3053702864804527  0.5006456124943476   T   T   T
  0.3970753813515606  0.3759928953793608  0.2853845719326584   T   T   T
  0.3836013470686908  0.5352185063540810  0.2922228532481052   T   T   T
  0.6916485811151943  0.4595814805961326  0.3879973545201090   T   T   T
  0.3381077079140437  0.5727970003157322  0.5132942811944375   T   T   T
  0.5997916600617789  0.5716100392003455  0.3078715928193396   T   T   T
  0.6126315947553255  0.6135693984170962  0.5760270710983637   T   T   T
  0.4404213056047022  0.6157348211874053  0.3239078032516908   T   T   T
  0.6276007123407886  0.3338392501426276  0.4340231882757449   T   T   T
  0.5833981461256299  0.2823163010635610  0.4745167013652002   T   T   T
  0.6186742923904313  0.2929547830235704  0.4503431596667071   T   T   T
  0.6438725697405953  0.2641747472905280  0.4427934650287576   T   T   T
 
  0.00000000E+00  0.00000000E+00  0.00000000E+00
  0.00000000E+00  0.00000000E+00  0.00000000E+00
  0.00000000E+00  0.00000000E+00  0.00000000E+00
  0.00000000E+00  0.00000000E+00  0.00000000E+00
  0.00000000E+00  0.00000000E+00  0.00000000E+00
  0.00000000E+00  0.00000000E+00  0.00000000E+00
  0.00000000E+00  0.00000000E+00  0.00000000E+00
  0.00000000E+00  0.00000000E+00  0.00000000E+00
  0.00000000E+00  0.00000000E+00  0.00000000E+00
  0.00000000E+00  0.00000000E+00  0.00000000E+00
  0.00000000E+00  0.00000000E+00  0.00000000E+00
  0.00000000E+00  0.00000000E+00  0.00000000E+00
  0.00000000E+00  0.00000000E+00  0.00000000E+00
  0.00000000E+00  0.00000000E+00  0.00000000E+00
  0.00000000E+00  0.00000000E+00  0.00000000E+00
  0.00000000E+00  0.00000000E+00  0.00000000E+00
  0.00000000E+00  0.00000000E+00  0.00000000E+00
  0.00000000E+00  0.00000000E+00  0.00000000E+00
  0.00000000E+00  0.00000000E+00  0.00000000E+00
  0.00000000E+00  0.00000000E+00  0.00000000E+00
  0.00000000E+00  0.00000000E+00  0.00000000E+00
  0.00000000E+00  0.00000000E+00  0.00000000E+00
  0.00000000E+00  0.00000000E+00  0.00000000E+00
  0.00000000E+00  0.00000000E+00  0.00000000E+00
  0.00000000E+00  0.00000000E+00  0.00000000E+00
  0.00000000E+00  0.00000000E+00  0.00000000E+00
  0.00000000E+00  0.00000000E+00  0.00000000E+00
  0.00000000E+00  0.00000000E+00  0.00000000E+00
  0.00000000E+00  0.00000000E+00  0.00000000E+00
  0.00000000E+00  0.00000000E+00  0.00000000E+00
  0.00000000E+00  0.00000000E+00  0.00000000E+00
  0.00000000E+00  0.00000000E+00  0.00000000E+00
  0.00000000E+00  0.00000000E+00  0.00000000E+00
  0.00000000E+00  0.00000000E+00  0.00000000E+00
  0.00000000E+00  0.00000000E+00  0.00000000E+00
  0.00000000E+00  0.00000000E+00  0.00000000E+00
  0.00000000E+00  0.00000000E+00  0.00000000E+00
  0.00000000E+00  0.00000000E+00  0.00000000E+00
  0.00000000E+00  0.00000000E+00  0.00000000E+00
  0.00000000E+00  0.00000000E+00  0.00000000E+00
  0.00000000E+00  0.00000000E+00  0.00000000E+00
  0.00000000E+00  0.00000000E+00  0.00000000E+00
  0.00000000E+00  0.00000000E+00  0.00000000E+00
  0.00000000E+00  0.00000000E+00  0.00000000E+00
  0.00000000E+00  0.00000000E+00  0.00000000E+00
  0.00000000E+00  0.00000000E+00  0.00000000E+00
  0.00000000E+00  0.00000000E+00  0.00000000E+00
  0.00000000E+00  0.00000000E+00  0.00000000E+00
  0.00000000E+00  0.00000000E+00  0.00000000E+00
  0.00000000E+00  0.00000000E+00  0.00000000E+00
  0.00000000E+00  0.00000000E+00  0.00000000E+00
  0.00000000E+00  0.00000000E+00  0.00000000E+00
  0.00000000E+00  0.00000000E+00  0.00000000E+00
  0.00000000E+00  0.00000000E+00  0.00000000E+00
  0.00000000E+00  0.00000000E+00  0.00000000E+00
  0.00000000E+00  0.00000000E+00  0.00000000E+00
  0.00000000E+00  0.00000000E+00  0.00000000E+00
  0.00000000E+00  0.00000000E+00  0.00000000E+00
  0.00000000E+00  0.00000000E+00  0.00000000E+00
  0.00000000E+00  0.00000000E+00  0.00000000E+00
  0.00000000E+00  0.00000000E+00  0.00000000E+00
  0.00000000E+00  0.00000000E+00  0.00000000E+00
  0.00000000E+00  0.00000000E+00  0.00000000E+00
  0.00000000E+00  0.00000000E+00  0.00000000E+00
  0.00000000E+00  0.00000000E+00  0.00000000E+00
  0.00000000E+00  0.00000000E+00  0.00000000E+00
  0.00000000E+00  0.00000000E+00  0.00000000E+00
  0.00000000E+00  0.00000000E+00  0.00000000E+00
  0.00000000E+00  0.00000000E+00  0.00000000E+00
  0.00000000E+00  0.00000000E+00  0.00000000E+00
  0.00000000E+00  0.00000000E+00  0.00000000E+00
  0.00000000E+00  0.00000000E+00  0.00000000E+00
