La Co Ni Sn Bi O  C  H                  
   1.00000000000000     
    29.1044006348000011    0.0000000000000000    0.0000000000000000
     0.4451680315000000   28.3694074727000007    0.0000000000000000
     0.0682082826000000    0.3036559964000000   28.5240018092999996
   La   Co   Ni   Sn   Bi   O    C    H 
    14    13    13    14    14     2     1     1
Selective dynamics
Direct
  0.5923777158542500  0.4215950350471929  0.4074169536575575   T   T   T
  0.6851349210394736  0.5714460283629387  0.3810318541694519   T   T   T
  0.4951601635218847  0.5287276288441728  0.2825697936141051   T   T   T
  0.5626243157186230  0.5214771075621619  0.6020213398456152   T   T   T
  0.5092013506684389  0.3883268180872700  0.3048222715163303   T   T   T
  0.5751756785335917  0.6555210461637256  0.4839041271454611   T   T   T
  0.5059170187696025  0.3358965279135322  0.5005503585077788   T   T   T
  0.5349679477166541  0.6377250856366569  0.3754637019749263   T   T   T
  0.4365922896616536  0.6439404077898180  0.5354291896379013   T   T   T
  0.4373551010143757  0.5015757590148624  0.3842817269995109   F   F   F
  0.4437846394494898  0.4460183835780285  0.5005161578087822   F   F   F
  0.3872413594645465  0.4690031207232029  0.6107875023702057   T   T   T
  0.3440593664146595  0.4445268968835365  0.3469142839186883   T   T   T
  0.3618313941910371  0.5860263111861088  0.3939757119057338   T   T   T
  0.4217425606853311  0.4061295180575186  0.3699802678458894   F   F   F
  0.5011311695957161  0.4887203336762909  0.4395023580252015   F   F   F
  0.4044148221271726  0.6101724300038001  0.4624736492929173   F   F   F
  0.4722931245665194  0.5596737886932672  0.5729988711091565   F   F   F
  0.6552684236953183  0.5165424048424470  0.4543399438695133   F   F   F
  0.5967309916701211  0.5535378348504167  0.5056109707055541   F   F   F
  0.5314074673932367  0.5941153005651714  0.5336729985293047   F   F   F
  0.5796732686089143  0.4997731718447866  0.4507473928409595   F   F   F
  0.4596903034912613  0.3323581708720069  0.3477598745152271   T   T   T
  0.3905180950192175  0.5252419063175111  0.4552418453041511   F   F   F
  0.4538738078696998  0.3188786866278728  0.4258492537691539   T   T   T
  0.5074804872141527  0.4592780196109629  0.3501259710292359   F   F   F
  0.6012877811302459  0.4669891268301640  0.5212355700313438   F   F   F
  0.5384608035519776  0.4312182275275163  0.4821288228790692   F   F   F
  0.4713083414346286  0.4805797151798927  0.5807598339419258   F   F   F
  0.3771163837573610  0.4514853175274567  0.4282230665427278   F   F   F
  0.4059018739390154  0.3822235888080883  0.4561785915149272   F   F   F
  0.5357818896390683  0.5680835373033233  0.4543473312664048   F   F   F
  0.4924712632432886  0.6367287407321953  0.4646113344718685   F   F   F
  0.4677327221812249  0.5829886973614862  0.4038343643763724   F   F   F
  0.5280944416629296  0.5063826634733033  0.5194466411805863   F   F   F
  0.6212454441397384  0.5105019604624417  0.3755946010283822   F   F   F
  0.6054499763524817  0.5821019035045651  0.4188664505762958   F   F   F
  0.4050790883739026  0.5245211222763402  0.5434909784116542   F   F   F
  0.3500222186396834  0.4715110285043247  0.5085072774708413   T   T   T
  0.4338621878410924  0.4578077756882600  0.3024210350208604   T   T   T
  0.5376410772760629  0.4214596043466210  0.5687978071496123   T   T   T
  0.3563844633420988  0.3902529316378114  0.5423276317677265   T   T   T
  0.4625951421883201  0.5516617238622956  0.4875128022361963   F   F   F
  0.6046816297472122  0.3744279469543506  0.5094355716189354   T   T   T
  0.4921854810100734  0.4393201454416352  0.6581933737600114   T   T   T
  0.5872256961907176  0.4684335646140826  0.3059182043236475   T   T   T
  0.4900497958562298  0.4037080615820798  0.4151644571778519   F   F   F
  0.4352856191635600  0.6749515085469476  0.4131937234221297   T   T   T
  0.4683335671801441  0.5373262649088918  0.6601595209914811   T   T   T
  0.5397532608265934  0.5319899791087650  0.3771480104995177   F   F   F
  0.6684971948235495  0.6004758814047840  0.4838163627823830   T   T   T
  0.6659663598982282  0.5191939272935929  0.5503223683979961   T   T   T
  0.3734367407873319  0.3359486822778572  0.3862303342749409   T   T   T
  0.6777890956069436  0.4359003758586758  0.4868043636853628   T   T   T
  0.5412775637276446  0.3215118501083611  0.3909619024868208   T   T   T
  0.3021791319242255  0.5035108214508357  0.4359070185158478   T   T   T
  0.3131488138739469  0.3970184329246270  0.4513133770977354   T   T   T
  0.5125087214134804  0.6251922566185382  0.6168865130334654   T   T   T
  0.4475431607869382  0.3757877957140942  0.5867636318605046   T   T   T
  0.3908369395105312  0.5817846573162069  0.6126445619891304   T   T   T
  0.3989357434992078  0.3082114914725810  0.5032726655148370   T   T   T
  0.4027952854249485  0.3723003276444886  0.2870399773953589   T   T   T
  0.3835503749923249  0.5340380364845505  0.2926185383796810   T   T   T
  0.6931755089022710  0.4608043059187185  0.3879335323085459   T   T   T
  0.3376605778568560  0.5721970979093394  0.5130019233702200   T   T   T
  0.5992081804829819  0.5729142711244739  0.3079184659257820   T   T   T
  0.6128026404828478  0.6141678557903897  0.5757171121066620   T   T   T
  0.4395979247045914  0.6158560521281855  0.3239658185241740   T   T   T
  0.5084231474415181  0.2493620632103303  0.4942629172969359   T   T   T
  0.4591570399543792  0.2493751253907428  0.4325067151900666   T   T   T
  0.4853420520037319  0.2290778659962139  0.4627108741383315   T   T   T
  0.4874108268594216  0.1900643037836701  0.4609841116217019   T   T   T
 
  0.00000000E+00  0.00000000E+00  0.00000000E+00
  0.00000000E+00  0.00000000E+00  0.00000000E+00
  0.00000000E+00  0.00000000E+00  0.00000000E+00
  0.00000000E+00  0.00000000E+00  0.00000000E+00
  0.00000000E+00  0.00000000E+00  0.00000000E+00
  0.00000000E+00  0.00000000E+00  0.00000000E+00
  0.00000000E+00  0.00000000E+00  0.00000000E+00
  0.00000000E+00  0.00000000E+00  0.00000000E+00
  0.00000000E+00  0.00000000E+00  0.00000000E+00
  0.00000000E+00  0.00000000E+00  0.00000000E+00
  0.00000000E+00  0.00000000E+00  0.00000000E+00
  0.00000000E+00  0.00000000E+00  0.00000000E+00
  0.00000000E+00  0.00000000E+00  0.00000000E+00
  0.00000000E+00  0.00000000E+00  0.00000000E+00
  0.00000000E+00  0.00000000E+00  0.00000000E+00
  0.00000000E+00  0.00000000E+00  0.00000000E+00
  0.00000000E+00  0.00000000E+00  0.00000000E+00
  0.00000000E+00  0.00000000E+00  0.00000000E+00
  0.00000000E+00  0.00000000E+00  0.00000000E+00
  0.00000000E+00  0.00000000E+00  0.00000000E+00
  0.00000000E+00  0.00000000E+00  0.00000000E+00
  0.00000000E+00  0.00000000E+00  0.00000000E+00
  0.00000000E+00  0.00000000E+00  0.00000000E+00
  0.00000000E+00  0.00000000E+00  0.00000000E+00
  0.00000000E+00  0.00000000E+00  0.00000000E+00
  0.00000000E+00  0.00000000E+00  0.00000000E+00
  0.00000000E+00  0.00000000E+00  0.00000000E+00
  0.00000000E+00  0.00000000E+00  0.00000000E+00
  0.00000000E+00  0.00000000E+00  0.00000000E+00
  0.00000000E+00  0.00000000E+00  0.00000000E+00
  0.00000000E+00  0.00000000E+00  0.00000000E+00
  0.00000000E+00  0.00000000E+00  0.00000000E+00
  0.00000000E+00  0.00000000E+00  0.00000000E+00
  0.00000000E+00  0.00000000E+00  0.00000000E+00
  0.00000000E+00  0.00000000E+00  0.00000000E+00
  0.00000000E+00  0.00000000E+00  0.00000000E+00
  0.00000000E+00  0.00000000E+00  0.00000000E+00
  0.00000000E+00  0.00000000E+00  0.00000000E+00
  0.00000000E+00  0.00000000E+00  0.00000000E+00
  0.00000000E+00  0.00000000E+00  0.00000000E+00
  0.00000000E+00  0.00000000E+00  0.00000000E+00
  0.00000000E+00  0.00000000E+00  0.00000000E+00
  0.00000000E+00  0.00000000E+00  0.00000000E+00
  0.00000000E+00  0.00000000E+00  0.00000000E+00
  0.00000000E+00  0.00000000E+00  0.00000000E+00
  0.00000000E+00  0.00000000E+00  0.00000000E+00
  0.00000000E+00  0.00000000E+00  0.00000000E+00
  0.00000000E+00  0.00000000E+00  0.00000000E+00
  0.00000000E+00  0.00000000E+00  0.00000000E+00
  0.00000000E+00  0.00000000E+00  0.00000000E+00
  0.00000000E+00  0.00000000E+00  0.00000000E+00
  0.00000000E+00  0.00000000E+00  0.00000000E+00
  0.00000000E+00  0.00000000E+00  0.00000000E+00
  0.00000000E+00  0.00000000E+00  0.00000000E+00
  0.00000000E+00  0.00000000E+00  0.00000000E+00
  0.00000000E+00  0.00000000E+00  0.00000000E+00
  0.00000000E+00  0.00000000E+00  0.00000000E+00
  0.00000000E+00  0.00000000E+00  0.00000000E+00
  0.00000000E+00  0.00000000E+00  0.00000000E+00
  0.00000000E+00  0.00000000E+00  0.00000000E+00
  0.00000000E+00  0.00000000E+00  0.00000000E+00
  0.00000000E+00  0.00000000E+00  0.00000000E+00
  0.00000000E+00  0.00000000E+00  0.00000000E+00
  0.00000000E+00  0.00000000E+00  0.00000000E+00
  0.00000000E+00  0.00000000E+00  0.00000000E+00
  0.00000000E+00  0.00000000E+00  0.00000000E+00
  0.00000000E+00  0.00000000E+00  0.00000000E+00
  0.00000000E+00  0.00000000E+00  0.00000000E+00
  0.00000000E+00  0.00000000E+00  0.00000000E+00
  0.00000000E+00  0.00000000E+00  0.00000000E+00
  0.00000000E+00  0.00000000E+00  0.00000000E+00
  0.00000000E+00  0.00000000E+00  0.00000000E+00
