La Co Ni Sn Bi O  C  H                  
   1.00000000000000     
    29.1044006348000011    0.0000000000000000    0.0000000000000000
     0.4451680315000000   28.3694074727000007    0.0000000000000000
     0.0682082826000000    0.3036559964000000   28.5240018092999996
   La   Co   Ni   Sn   Bi   O    C    H 
    14    13    13    14    14     2     1     1
Selective dynamics
Direct
  0.5920865570174512  0.4207624933825173  0.4073079061648875   T   T   T
  0.6872451376119165  0.5702684253324265  0.3826392339151745   T   T   T
  0.4959811224461937  0.5375022456284554  0.2821919381659912   T   T   T
  0.5625473547821294  0.5220566264207038  0.6019530619783445   T   T   T
  0.5087226642678330  0.3881774302213384  0.3056444908668175   T   T   T
  0.5748057509667879  0.6550964740919883  0.4813238247424062   T   T   T
  0.5084823252838406  0.3381443162676654  0.4993801279079745   T   T   T
  0.5335807909710438  0.6390024936692940  0.3704484692733221   T   T   T
  0.4358249311954933  0.6434938583966162  0.5355171512491483   T   T   T
  0.4373551010143757  0.5015757590148624  0.3842817269995109   F   F   F
  0.4437846394494898  0.4460183835780285  0.5005161578087822   F   F   F
  0.3873811922323179  0.4670000851108470  0.6095843097297736   T   T   T
  0.3442432917144403  0.4448732033442516  0.3471258799584800   T   T   T
  0.3597594475711356  0.5850287751312192  0.3955935874632618   T   T   T
  0.4217425606853311  0.4061295180575186  0.3699802678458894   F   F   F
  0.5011311695957161  0.4887203336762909  0.4395023580252015   F   F   F
  0.4044148221271726  0.6101724300038001  0.4624736492929173   F   F   F
  0.4722931245665194  0.5596737886932672  0.5729988711091565   F   F   F
  0.6552684236953183  0.5165424048424470  0.4543399438695133   F   F   F
  0.5967309916701211  0.5535378348504167  0.5056109707055541   F   F   F
  0.5314074673932367  0.5941153005651714  0.5336729985293047   F   F   F
  0.5796732686089143  0.4997731718447866  0.4507473928409595   F   F   F
  0.4606518539162088  0.3309922159229787  0.3444340855740665   T   T   T
  0.3905180950192175  0.5252419063175111  0.4552418453041511   F   F   F
  0.4543210514864336  0.3245505433588438  0.4238417079545762   T   T   T
  0.5074804872141527  0.4592780196109629  0.3501259710292359   F   F   F
  0.6012877811302459  0.4669891268301640  0.5212355700313438   F   F   F
  0.5384608035519776  0.4312182275275163  0.4821288228790692   F   F   F
  0.4713083414346286  0.4805797151798927  0.5807598339419258   F   F   F
  0.3771163837573610  0.4514853175274567  0.4282230665427278   F   F   F
  0.4059018739390154  0.3822235888080883  0.4561785915149272   F   F   F
  0.5357818896390683  0.5680835373033233  0.4543473312664048   F   F   F
  0.4924712632432886  0.6367287407321953  0.4646113344718685   F   F   F
  0.4677327221812249  0.5829886973614862  0.4038343643763724   F   F   F
  0.5280944416629296  0.5063826634733033  0.5194466411805863   F   F   F
  0.6212454441397384  0.5105019604624417  0.3755946010283822   F   F   F
  0.6054499763524817  0.5821019035045651  0.4188664505762958   F   F   F
  0.4050790883739026  0.5245211222763402  0.5434909784116542   F   F   F
  0.3510840288134199  0.4698576580062703  0.5090131009522167   T   T   T
  0.4342268716059689  0.4587602967577951  0.3025104334806884   T   T   T
  0.5382943972704691  0.4218690321139760  0.5689182265540784   T   T   T
  0.3577858675690284  0.3867912341138163  0.5399184137442330   T   T   T
  0.4625951421883201  0.5516617238622956  0.4875128022361963   F   F   F
  0.6063841826295217  0.3750880482434946  0.5097820895374284   T   T   T
  0.4920685730087979  0.4388712355496882  0.6578899525689955   T   T   T
  0.5856290555318271  0.4694906042942861  0.3055294998877059   T   T   T
  0.4900497958562298  0.4037080615820798  0.4151644571778519   F   F   F
  0.4348726456288594  0.6751621752463246  0.4140206492310201   T   T   T
  0.4684666099424855  0.5368330337504706  0.6603738149267674   T   T   T
  0.5397532608265934  0.5319899791087650  0.3771480104995177   F   F   F
  0.6682410234804007  0.6005967619170405  0.4841025722849251   T   T   T
  0.6658647661981857  0.5193683389774966  0.5507914991465627   T   T   T
  0.3749439097527991  0.3346206728446958  0.3845174918507375   T   T   T
  0.6790441409043827  0.4364640683146135  0.4871899380071934   T   T   T
  0.5395663566417498  0.3186846241461549  0.3915443572047162   T   T   T
  0.3016975937238027  0.5018836211022939  0.4380529060263426   T   T   T
  0.3137071440001691  0.3949629024164070  0.4495236877992160   T   T   T
  0.5118586110025852  0.6251876385966310  0.6170144924431215   T   T   T
  0.4490724444527825  0.3747111621252561  0.5856012892169979   T   T   T
  0.3907177081328520  0.5804048702675665  0.6131558796807707   T   T   T
  0.4048185098544639  0.3053779331936659  0.5007398933397545   T   T   T
  0.4025800305636288  0.3728670397856697  0.2870449284061646   T   T   T
  0.3834796418627666  0.5345928434337975  0.2933475468281274   T   T   T
  0.6926740592121928  0.4598046033381080  0.3879714393198254   T   T   T
  0.3377234273943808  0.5721905975614086  0.5131392012000434   T   T   T
  0.6026524152319900  0.5726277153024448  0.3103352324890366   T   T   T
  0.6120992087380372  0.6151245379000712  0.5747989745345887   T   T   T
  0.4351989997810065  0.6181739327238703  0.3260496356112271   T   T   T
  0.5186720453989228  0.6097283552161208  0.2394478690521309   T   T   T
  0.5393599354041216  0.6677571402857180  0.2890647026169198   T   T   T
  0.5319628851852373  0.6511226864574257  0.2484985854017184   T   T   T
  0.5382735177982338  0.6750401792773417  0.2181668838889317   T   T   T
 
  0.00000000E+00  0.00000000E+00  0.00000000E+00
  0.00000000E+00  0.00000000E+00  0.00000000E+00
  0.00000000E+00  0.00000000E+00  0.00000000E+00
  0.00000000E+00  0.00000000E+00  0.00000000E+00
  0.00000000E+00  0.00000000E+00  0.00000000E+00
  0.00000000E+00  0.00000000E+00  0.00000000E+00
  0.00000000E+00  0.00000000E+00  0.00000000E+00
  0.00000000E+00  0.00000000E+00  0.00000000E+00
  0.00000000E+00  0.00000000E+00  0.00000000E+00
  0.00000000E+00  0.00000000E+00  0.00000000E+00
  0.00000000E+00  0.00000000E+00  0.00000000E+00
  0.00000000E+00  0.00000000E+00  0.00000000E+00
  0.00000000E+00  0.00000000E+00  0.00000000E+00
  0.00000000E+00  0.00000000E+00  0.00000000E+00
  0.00000000E+00  0.00000000E+00  0.00000000E+00
  0.00000000E+00  0.00000000E+00  0.00000000E+00
  0.00000000E+00  0.00000000E+00  0.00000000E+00
  0.00000000E+00  0.00000000E+00  0.00000000E+00
  0.00000000E+00  0.00000000E+00  0.00000000E+00
  0.00000000E+00  0.00000000E+00  0.00000000E+00
  0.00000000E+00  0.00000000E+00  0.00000000E+00
  0.00000000E+00  0.00000000E+00  0.00000000E+00
  0.00000000E+00  0.00000000E+00  0.00000000E+00
  0.00000000E+00  0.00000000E+00  0.00000000E+00
  0.00000000E+00  0.00000000E+00  0.00000000E+00
  0.00000000E+00  0.00000000E+00  0.00000000E+00
  0.00000000E+00  0.00000000E+00  0.00000000E+00
  0.00000000E+00  0.00000000E+00  0.00000000E+00
  0.00000000E+00  0.00000000E+00  0.00000000E+00
  0.00000000E+00  0.00000000E+00  0.00000000E+00
  0.00000000E+00  0.00000000E+00  0.00000000E+00
  0.00000000E+00  0.00000000E+00  0.00000000E+00
  0.00000000E+00  0.00000000E+00  0.00000000E+00
  0.00000000E+00  0.00000000E+00  0.00000000E+00
  0.00000000E+00  0.00000000E+00  0.00000000E+00
  0.00000000E+00  0.00000000E+00  0.00000000E+00
  0.00000000E+00  0.00000000E+00  0.00000000E+00
  0.00000000E+00  0.00000000E+00  0.00000000E+00
  0.00000000E+00  0.00000000E+00  0.00000000E+00
  0.00000000E+00  0.00000000E+00  0.00000000E+00
  0.00000000E+00  0.00000000E+00  0.00000000E+00
  0.00000000E+00  0.00000000E+00  0.00000000E+00
  0.00000000E+00  0.00000000E+00  0.00000000E+00
  0.00000000E+00  0.00000000E+00  0.00000000E+00
  0.00000000E+00  0.00000000E+00  0.00000000E+00
  0.00000000E+00  0.00000000E+00  0.00000000E+00
  0.00000000E+00  0.00000000E+00  0.00000000E+00
  0.00000000E+00  0.00000000E+00  0.00000000E+00
  0.00000000E+00  0.00000000E+00  0.00000000E+00
  0.00000000E+00  0.00000000E+00  0.00000000E+00
  0.00000000E+00  0.00000000E+00  0.00000000E+00
  0.00000000E+00  0.00000000E+00  0.00000000E+00
  0.00000000E+00  0.00000000E+00  0.00000000E+00
  0.00000000E+00  0.00000000E+00  0.00000000E+00
  0.00000000E+00  0.00000000E+00  0.00000000E+00
  0.00000000E+00  0.00000000E+00  0.00000000E+00
  0.00000000E+00  0.00000000E+00  0.00000000E+00
  0.00000000E+00  0.00000000E+00  0.00000000E+00
  0.00000000E+00  0.00000000E+00  0.00000000E+00
  0.00000000E+00  0.00000000E+00  0.00000000E+00
  0.00000000E+00  0.00000000E+00  0.00000000E+00
  0.00000000E+00  0.00000000E+00  0.00000000E+00
  0.00000000E+00  0.00000000E+00  0.00000000E+00
  0.00000000E+00  0.00000000E+00  0.00000000E+00
  0.00000000E+00  0.00000000E+00  0.00000000E+00
  0.00000000E+00  0.00000000E+00  0.00000000E+00
  0.00000000E+00  0.00000000E+00  0.00000000E+00
  0.00000000E+00  0.00000000E+00  0.00000000E+00
  0.00000000E+00  0.00000000E+00  0.00000000E+00
  0.00000000E+00  0.00000000E+00  0.00000000E+00
  0.00000000E+00  0.00000000E+00  0.00000000E+00
  0.00000000E+00  0.00000000E+00  0.00000000E+00
