La Co Ni Sn Bi O  C  H                  
   1.00000000000000     
    29.1044006348000011    0.0000000000000000    0.0000000000000000
     0.4451680315000000   28.3694074727000007    0.0000000000000000
     0.0682082826000000    0.3036559964000000   28.5240018092999996
   La   Co   Ni   Sn   Bi   O    C    H 
    14    13    13    14    14     2     1     1
Selective dynamics
Direct
  0.5923205315158527  0.4206789150431278  0.4076784473625887   T   T   T
  0.6852903280115750  0.5712159698224911  0.3808828788343046   T   T   T
  0.4955538446276310  0.5276478546225564  0.2822171410389016   T   T   T
  0.5641858226865754  0.5208878684374236  0.6046167618162839   T   T   T
  0.5092236452666403  0.3870101124473830  0.3056198951592146   T   T   T
  0.5749721427089592  0.6555325766320912  0.4837032759177749   T   T   T
  0.5074645971356792  0.3381708249753966  0.4998593579323705   T   T   T
  0.5350332923357281  0.6376945449893849  0.3751913181419782   T   T   T
  0.4371165041234167  0.6439289386369420  0.5354802363522679   T   T   T
  0.4373551010143757  0.5015757590148624  0.3842817269995109   F   F   F
  0.4437846394494898  0.4460183835780285  0.5005161578087822   F   F   F
  0.3861240182807602  0.4673022389727681  0.6090636887055901   T   T   T
  0.3445829263005167  0.4443876475049625  0.3466261643269082   T   T   T
  0.3619864258649388  0.5853727463305185  0.3938593862878471   T   T   T
  0.4217425606853311  0.4061295180575186  0.3699802678458894   F   F   F
  0.5011311695957161  0.4887203336762909  0.4395023580252015   F   F   F
  0.4044148221271726  0.6101724300038001  0.4624736492929173   F   F   F
  0.4722931245665194  0.5596737886932672  0.5729988711091565   F   F   F
  0.6552684236953183  0.5165424048424470  0.4543399438695133   F   F   F
  0.5967309916701211  0.5535378348504167  0.5056109707055541   F   F   F
  0.5314074673932367  0.5941153005651714  0.5336729985293047   F   F   F
  0.5796732686089143  0.4997731718447866  0.4507473928409595   F   F   F
  0.4612688641263442  0.3311800344116475  0.3440432001641573   T   T   T
  0.3905180950192175  0.5252419063175111  0.4552418453041511   F   F   F
  0.4539080054245795  0.3247324646415538  0.4231606701587894   T   T   T
  0.5074804872141527  0.4592780196109629  0.3501259710292359   F   F   F
  0.6012877811302459  0.4669891268301640  0.5212355700313438   F   F   F
  0.5384608035519776  0.4312182275275163  0.4821288228790692   F   F   F
  0.4713083414346286  0.4805797151798927  0.5807598339419258   F   F   F
  0.3771163837573610  0.4514853175274567  0.4282230665427278   F   F   F
  0.4059018739390154  0.3822235888080883  0.4561785915149272   F   F   F
  0.5357818896390683  0.5680835373033233  0.4543473312664048   F   F   F
  0.4924712632432886  0.6367287407321953  0.4646113344718685   F   F   F
  0.4677327221812249  0.5829886973614862  0.4038343643763724   F   F   F
  0.5280944416629296  0.5063826634733033  0.5194466411805863   F   F   F
  0.6212454441397384  0.5105019604624417  0.3755946010283822   F   F   F
  0.6054499763524817  0.5821019035045651  0.4188664505762958   F   F   F
  0.4050790883739026  0.5245211222763402  0.5434909784116542   F   F   F
  0.3507198857278187  0.4705402841995633  0.5086913807842326   T   T   T
  0.4341720808818965  0.4573109358115644  0.3020202207677479   T   T   T
  0.5379455920934032  0.4217487750534994  0.5688859178924874   T   T   T
  0.3571809310688019  0.3872535259065837  0.5394361903186866   T   T   T
  0.4625951421883201  0.5516617238622956  0.4875128022361963   F   F   F
  0.6058181902199141  0.3748503392271017  0.5099278450636499   T   T   T
  0.4912250284724386  0.4366619095219396  0.6575640398897921   T   T   T
  0.5874353066153591  0.4677127483029370  0.3062018992220491   T   T   T
  0.4900497958562298  0.4037080615820798  0.4151644571778519   F   F   F
  0.4353665484440790  0.6746231938717350  0.4127121263234151   T   T   T
  0.4655380567354980  0.5353131459486050  0.6589361189865504   T   T   T
  0.5397532608265934  0.5319899791087650  0.3771480104995177   F   F   F
  0.6683351041517118  0.6007110008641611  0.4835432453969551   T   T   T
  0.6661139742537164  0.5193412086751438  0.5501720720039169   T   T   T
  0.3744465043946940  0.3348482231819535  0.3846193787513688   T   T   T
  0.6784954766413112  0.4361487661059049  0.4867473203798232   T   T   T
  0.5395365259577898  0.3184938703165353  0.3924206361681162   T   T   T
  0.3021942849892061  0.5026937564408884  0.4363970439592095   T   T   T
  0.3132321109690517  0.3958021162166375  0.4489265460991408   T   T   T
  0.5128555326347854  0.6239737929771498  0.6175594422475216   T   T   T
  0.4475720215080516  0.3751668427359430  0.5855753049805926   T   T   T
  0.3892227577248836  0.5819019369198831  0.6112641824998283   T   T   T
  0.4037051511871741  0.3053767952305155  0.5001419173172522   T   T   T
  0.4027344915704444  0.3717418916444831  0.2870172306398863   T   T   T
  0.3839670611853391  0.5336049763190065  0.2921395439159412   T   T   T
  0.6927744469104921  0.4603835483804186  0.3874503248244844   T   T   T
  0.3375908455203466  0.5725907965949490  0.5127508801324500   T   T   T
  0.5994114240350474  0.5725475713758464  0.3078447661783785   T   T   T
  0.6125390418961776  0.6139861813377243  0.5754970171619954   T   T   T
  0.4401181966920767  0.6151369640044181  0.3236278138283377   T   T   T
  0.5753811852870789  0.5143855468154271  0.6874841434328982   T   T   T
  0.5182893282978682  0.5492487246604874  0.7300786628594244   T   T   T
  0.5585136072433222  0.5334413628451486  0.7246153661628424   T   T   T
  0.5825118330547520  0.5357276158002109  0.7547997491005526   T   T   T
 
  0.00000000E+00  0.00000000E+00  0.00000000E+00
  0.00000000E+00  0.00000000E+00  0.00000000E+00
  0.00000000E+00  0.00000000E+00  0.00000000E+00
  0.00000000E+00  0.00000000E+00  0.00000000E+00
  0.00000000E+00  0.00000000E+00  0.00000000E+00
  0.00000000E+00  0.00000000E+00  0.00000000E+00
  0.00000000E+00  0.00000000E+00  0.00000000E+00
  0.00000000E+00  0.00000000E+00  0.00000000E+00
  0.00000000E+00  0.00000000E+00  0.00000000E+00
  0.00000000E+00  0.00000000E+00  0.00000000E+00
  0.00000000E+00  0.00000000E+00  0.00000000E+00
  0.00000000E+00  0.00000000E+00  0.00000000E+00
  0.00000000E+00  0.00000000E+00  0.00000000E+00
  0.00000000E+00  0.00000000E+00  0.00000000E+00
  0.00000000E+00  0.00000000E+00  0.00000000E+00
  0.00000000E+00  0.00000000E+00  0.00000000E+00
  0.00000000E+00  0.00000000E+00  0.00000000E+00
  0.00000000E+00  0.00000000E+00  0.00000000E+00
  0.00000000E+00  0.00000000E+00  0.00000000E+00
  0.00000000E+00  0.00000000E+00  0.00000000E+00
  0.00000000E+00  0.00000000E+00  0.00000000E+00
  0.00000000E+00  0.00000000E+00  0.00000000E+00
  0.00000000E+00  0.00000000E+00  0.00000000E+00
  0.00000000E+00  0.00000000E+00  0.00000000E+00
  0.00000000E+00  0.00000000E+00  0.00000000E+00
  0.00000000E+00  0.00000000E+00  0.00000000E+00
  0.00000000E+00  0.00000000E+00  0.00000000E+00
  0.00000000E+00  0.00000000E+00  0.00000000E+00
  0.00000000E+00  0.00000000E+00  0.00000000E+00
  0.00000000E+00  0.00000000E+00  0.00000000E+00
  0.00000000E+00  0.00000000E+00  0.00000000E+00
  0.00000000E+00  0.00000000E+00  0.00000000E+00
  0.00000000E+00  0.00000000E+00  0.00000000E+00
  0.00000000E+00  0.00000000E+00  0.00000000E+00
  0.00000000E+00  0.00000000E+00  0.00000000E+00
  0.00000000E+00  0.00000000E+00  0.00000000E+00
  0.00000000E+00  0.00000000E+00  0.00000000E+00
  0.00000000E+00  0.00000000E+00  0.00000000E+00
  0.00000000E+00  0.00000000E+00  0.00000000E+00
  0.00000000E+00  0.00000000E+00  0.00000000E+00
  0.00000000E+00  0.00000000E+00  0.00000000E+00
  0.00000000E+00  0.00000000E+00  0.00000000E+00
  0.00000000E+00  0.00000000E+00  0.00000000E+00
  0.00000000E+00  0.00000000E+00  0.00000000E+00
  0.00000000E+00  0.00000000E+00  0.00000000E+00
  0.00000000E+00  0.00000000E+00  0.00000000E+00
  0.00000000E+00  0.00000000E+00  0.00000000E+00
  0.00000000E+00  0.00000000E+00  0.00000000E+00
  0.00000000E+00  0.00000000E+00  0.00000000E+00
  0.00000000E+00  0.00000000E+00  0.00000000E+00
  0.00000000E+00  0.00000000E+00  0.00000000E+00
  0.00000000E+00  0.00000000E+00  0.00000000E+00
  0.00000000E+00  0.00000000E+00  0.00000000E+00
  0.00000000E+00  0.00000000E+00  0.00000000E+00
  0.00000000E+00  0.00000000E+00  0.00000000E+00
  0.00000000E+00  0.00000000E+00  0.00000000E+00
  0.00000000E+00  0.00000000E+00  0.00000000E+00
  0.00000000E+00  0.00000000E+00  0.00000000E+00
  0.00000000E+00  0.00000000E+00  0.00000000E+00
  0.00000000E+00  0.00000000E+00  0.00000000E+00
  0.00000000E+00  0.00000000E+00  0.00000000E+00
  0.00000000E+00  0.00000000E+00  0.00000000E+00
  0.00000000E+00  0.00000000E+00  0.00000000E+00
  0.00000000E+00  0.00000000E+00  0.00000000E+00
  0.00000000E+00  0.00000000E+00  0.00000000E+00
  0.00000000E+00  0.00000000E+00  0.00000000E+00
  0.00000000E+00  0.00000000E+00  0.00000000E+00
  0.00000000E+00  0.00000000E+00  0.00000000E+00
  0.00000000E+00  0.00000000E+00  0.00000000E+00
  0.00000000E+00  0.00000000E+00  0.00000000E+00
  0.00000000E+00  0.00000000E+00  0.00000000E+00
  0.00000000E+00  0.00000000E+00  0.00000000E+00
