La Co Ni Sn Bi O  C  H                  
   1.00000000000000     
    29.1044006348000011    0.0000000000000000    0.0000000000000000
     0.4451680315000000   28.3694074727000007    0.0000000000000000
     0.0682082826000000    0.3036559964000000   28.5240018092999996
   La   Co   Ni   Sn   Bi   O    C    H 
    14    13    13    14    14     2     1     1
Selective dynamics
Direct
  0.5924789866165436  0.4215007502349048  0.4076027012512830   T   T   T
  0.6850358605717346  0.5714528944539302  0.3808654654334261   T   T   T
  0.4952841675380260  0.5282593769426975  0.2823624816403980   T   T   T
  0.5627442392542432  0.5219173701189082  0.6020227081829419   T   T   T
  0.5093083230477917  0.3880782261326029  0.3049827380609510   T   T   T
  0.5751654456554912  0.6555570823619243  0.4836499864878968   T   T   T
  0.5057326164118422  0.3363104581558348  0.5010570400147222   T   T   T
  0.5351273539307051  0.6376477289443067  0.3752771521678289   T   T   T
  0.4365211328094838  0.6440978942324528  0.5351392523141850   T   T   T
  0.4373551010143757  0.5015757590148624  0.3842817269995109   F   F   F
  0.4437846394494898  0.4460183835780285  0.5005161578087822   F   F   F
  0.3874659608971762  0.4698574270487274  0.6114280566816200   T   T   T
  0.3440975198011659  0.4442450230574538  0.3468972465237128   T   T   T
  0.3619442498865539  0.5859537434061557  0.3938159758599560   T   T   T
  0.4217425606853311  0.4061295180575186  0.3699802678458894   F   F   F
  0.5011311695957161  0.4887203336762909  0.4395023580252015   F   F   F
  0.4044148221271726  0.6101724300038001  0.4624736492929173   F   F   F
  0.4722931245665194  0.5596737886932672  0.5729988711091565   F   F   F
  0.6552684236953183  0.5165424048424470  0.4543399438695133   F   F   F
  0.5967309916701211  0.5535378348504167  0.5056109707055541   F   F   F
  0.5314074673932367  0.5941153005651714  0.5336729985293047   F   F   F
  0.5796732686089143  0.4997731718447866  0.4507473928409595   F   F   F
  0.4598293151941613  0.3322618322278712  0.3481842155262951   T   T   T
  0.3905180950192175  0.5252419063175111  0.4552418453041511   F   F   F
  0.4537442865557477  0.3190525298382954  0.4264191077883195   T   T   T
  0.5074804872141527  0.4592780196109629  0.3501259710292359   F   F   F
  0.6012877811302459  0.4669891268301640  0.5212355700313438   F   F   F
  0.5384608035519776  0.4312182275275163  0.4821288228790692   F   F   F
  0.4713083414346286  0.4805797151798927  0.5807598339419258   F   F   F
  0.3771163837573610  0.4514853175274567  0.4282230665427278   F   F   F
  0.4059018739390154  0.3822235888080883  0.4561785915149272   F   F   F
  0.5357818896390683  0.5680835373033233  0.4543473312664048   F   F   F
  0.4924712632432886  0.6367287407321953  0.4646113344718685   F   F   F
  0.4677327221812249  0.5829886973614862  0.4038343643763724   F   F   F
  0.5280944416629296  0.5063826634733033  0.5194466411805863   F   F   F
  0.6212454441397384  0.5105019604624417  0.3755946010283822   F   F   F
  0.6054499763524817  0.5821019035045651  0.4188664505762958   F   F   F
  0.4050790883739026  0.5245211222763402  0.5434909784116542   F   F   F
  0.3497794801677128  0.4718886217739386  0.5084330394067055   T   T   T
  0.4339312927327192  0.4574550927504961  0.3024253409049794   T   T   T
  0.5379558164178663  0.4218407004385508  0.5690778804444768   T   T   T
  0.3563155309061463  0.3912254080776660  0.5431168064922356   T   T   T
  0.4625951421883201  0.5516617238622956  0.4875128022361963   F   F   F
  0.6048065253966303  0.3745450752794620  0.5097274050878041   T   T   T
  0.4928245915752722  0.4403697750873155  0.6585333373371505   T   T   T
  0.5872833563842123  0.4681571090974736  0.3059537987593252   T   T   T
  0.4900497958562298  0.4037080615820798  0.4151644571778519   F   F   F
  0.4354564182171572  0.6747457274094649  0.4128584419841910   T   T   T
  0.4686956217477183  0.5383184049008786  0.6602859008796488   T   T   T
  0.5397532608265934  0.5319899791087650  0.3771480104995177   F   F   F
  0.6685384002691942  0.6004808368154326  0.4836434475417556   T   T   T
  0.6659459651719811  0.5192708324907591  0.5503367330673535   T   T   T
  0.3734702850103793  0.3358534536405606  0.3862762718295698   T   T   T
  0.6780071237606388  0.4359931229288513  0.4871718445640253   T   T   T
  0.5412482056342129  0.3213132044536675  0.3914325725027257   T   T   T
  0.3022345057152105  0.5035163751320139  0.4355385039268611   T   T   T
  0.3133235054765107  0.3970623932812318  0.4519076971655145   T   T   T
  0.5125251362003957  0.6257316785677378  0.6164223589871749   T   T   T
  0.4476636532856622  0.3767203505479661  0.5873529644230907   T   T   T
  0.3909589416727107  0.5823750337787392  0.6125135149011184   T   T   T
  0.3987245230493832  0.3091667793517068  0.5042892955905851   T   T   T
  0.4028304977706119  0.3717548791143501  0.2871832241826031   T   T   T
  0.3835769143395920  0.5336905552645377  0.2925459358847456   T   T   T
  0.6933122057963076  0.4608525392346645  0.3883283335226697   T   T   T
  0.3376475477593985  0.5721648801697284  0.5129282134495645   T   T   T
  0.5991536166395119  0.5726958276490188  0.3076997037172908   T   T   T
  0.6129742374423474  0.6144881837890632  0.5753829382903813   T   T   T
  0.4398587289371573  0.6154976328688802  0.3237569993404379   T   T   T
  0.4580424026034488  0.2496152023984848  0.4346481312240896   T   T   T
  0.5057626159809722  0.2496340280252479  0.4976052346164090   T   T   T
  0.4826950504055860  0.2292673729770926  0.4661037262461358   T   T   T
  0.4833325310052576  0.1902259568834283  0.4654004999835817   T   T   T
 
  0.00000000E+00  0.00000000E+00  0.00000000E+00
  0.00000000E+00  0.00000000E+00  0.00000000E+00
  0.00000000E+00  0.00000000E+00  0.00000000E+00
  0.00000000E+00  0.00000000E+00  0.00000000E+00
  0.00000000E+00  0.00000000E+00  0.00000000E+00
  0.00000000E+00  0.00000000E+00  0.00000000E+00
  0.00000000E+00  0.00000000E+00  0.00000000E+00
  0.00000000E+00  0.00000000E+00  0.00000000E+00
  0.00000000E+00  0.00000000E+00  0.00000000E+00
  0.00000000E+00  0.00000000E+00  0.00000000E+00
  0.00000000E+00  0.00000000E+00  0.00000000E+00
  0.00000000E+00  0.00000000E+00  0.00000000E+00
  0.00000000E+00  0.00000000E+00  0.00000000E+00
  0.00000000E+00  0.00000000E+00  0.00000000E+00
  0.00000000E+00  0.00000000E+00  0.00000000E+00
  0.00000000E+00  0.00000000E+00  0.00000000E+00
  0.00000000E+00  0.00000000E+00  0.00000000E+00
  0.00000000E+00  0.00000000E+00  0.00000000E+00
  0.00000000E+00  0.00000000E+00  0.00000000E+00
  0.00000000E+00  0.00000000E+00  0.00000000E+00
  0.00000000E+00  0.00000000E+00  0.00000000E+00
  0.00000000E+00  0.00000000E+00  0.00000000E+00
  0.00000000E+00  0.00000000E+00  0.00000000E+00
  0.00000000E+00  0.00000000E+00  0.00000000E+00
  0.00000000E+00  0.00000000E+00  0.00000000E+00
  0.00000000E+00  0.00000000E+00  0.00000000E+00
  0.00000000E+00  0.00000000E+00  0.00000000E+00
  0.00000000E+00  0.00000000E+00  0.00000000E+00
  0.00000000E+00  0.00000000E+00  0.00000000E+00
  0.00000000E+00  0.00000000E+00  0.00000000E+00
  0.00000000E+00  0.00000000E+00  0.00000000E+00
  0.00000000E+00  0.00000000E+00  0.00000000E+00
  0.00000000E+00  0.00000000E+00  0.00000000E+00
  0.00000000E+00  0.00000000E+00  0.00000000E+00
  0.00000000E+00  0.00000000E+00  0.00000000E+00
  0.00000000E+00  0.00000000E+00  0.00000000E+00
  0.00000000E+00  0.00000000E+00  0.00000000E+00
  0.00000000E+00  0.00000000E+00  0.00000000E+00
  0.00000000E+00  0.00000000E+00  0.00000000E+00
  0.00000000E+00  0.00000000E+00  0.00000000E+00
  0.00000000E+00  0.00000000E+00  0.00000000E+00
  0.00000000E+00  0.00000000E+00  0.00000000E+00
  0.00000000E+00  0.00000000E+00  0.00000000E+00
  0.00000000E+00  0.00000000E+00  0.00000000E+00
  0.00000000E+00  0.00000000E+00  0.00000000E+00
  0.00000000E+00  0.00000000E+00  0.00000000E+00
  0.00000000E+00  0.00000000E+00  0.00000000E+00
  0.00000000E+00  0.00000000E+00  0.00000000E+00
  0.00000000E+00  0.00000000E+00  0.00000000E+00
  0.00000000E+00  0.00000000E+00  0.00000000E+00
  0.00000000E+00  0.00000000E+00  0.00000000E+00
  0.00000000E+00  0.00000000E+00  0.00000000E+00
  0.00000000E+00  0.00000000E+00  0.00000000E+00
  0.00000000E+00  0.00000000E+00  0.00000000E+00
  0.00000000E+00  0.00000000E+00  0.00000000E+00
  0.00000000E+00  0.00000000E+00  0.00000000E+00
  0.00000000E+00  0.00000000E+00  0.00000000E+00
  0.00000000E+00  0.00000000E+00  0.00000000E+00
  0.00000000E+00  0.00000000E+00  0.00000000E+00
  0.00000000E+00  0.00000000E+00  0.00000000E+00
  0.00000000E+00  0.00000000E+00  0.00000000E+00
  0.00000000E+00  0.00000000E+00  0.00000000E+00
  0.00000000E+00  0.00000000E+00  0.00000000E+00
  0.00000000E+00  0.00000000E+00  0.00000000E+00
  0.00000000E+00  0.00000000E+00  0.00000000E+00
  0.00000000E+00  0.00000000E+00  0.00000000E+00
  0.00000000E+00  0.00000000E+00  0.00000000E+00
  0.00000000E+00  0.00000000E+00  0.00000000E+00
  0.00000000E+00  0.00000000E+00  0.00000000E+00
  0.00000000E+00  0.00000000E+00  0.00000000E+00
  0.00000000E+00  0.00000000E+00  0.00000000E+00
  0.00000000E+00  0.00000000E+00  0.00000000E+00
