La Co Ni Sn Bi O  C  H                  
   1.00000000000000     
    29.1044006348000011    0.0000000000000000    0.0000000000000000
     0.4451680315000000   28.3694074727000007    0.0000000000000000
     0.0682082826000000    0.3036559964000000   28.5240018092999996
   La   Co   Ni   Sn   Bi   O    C    H 
    14    13    13    14    14     2     1     1
Selective dynamics
Direct
  0.5925892312969019  0.4206806181095941  0.4082635559396728   T   T   T
  0.6847885984507434  0.5718482564843381  0.3806997072875066   T   T   T
  0.4958589074993533  0.5269911301119042  0.2818370502830757   T   T   T
  0.5627379562094357  0.5220922360278165  0.6023566254408751   T   T   T
  0.5090716729612030  0.3869709516429716  0.3054695136728395   T   T   T
  0.5760527147268346  0.6557615682709571  0.4833514094875378   T   T   T
  0.5094247999001816  0.3382855861313379  0.4997023560157111   T   T   T
  0.5353626691799752  0.6378196216759121  0.3755879188153451   T   T   T
  0.4357880986131307  0.6431381141517980  0.5358514945071737   T   T   T
  0.4373551010143757  0.5015757590148624  0.3842817269995109   F   F   F
  0.4437846394494898  0.4460183835780285  0.5005161578087822   F   F   F
  0.3875720014400599  0.4668679608684817  0.6097403994236927   T   T   T
  0.3447356658772386  0.4440726891683864  0.3468229943329424   T   T   T
  0.3621403014810408  0.5855044913763523  0.3935486812686165   T   T   T
  0.4217425606853311  0.4061295180575186  0.3699802678458894   F   F   F
  0.5011311695957161  0.4887203336762909  0.4395023580252015   F   F   F
  0.4044148221271726  0.6101724300038001  0.4624736492929173   F   F   F
  0.4722931245665194  0.5596737886932672  0.5729988711091565   F   F   F
  0.6552684236953183  0.5165424048424470  0.4543399438695133   F   F   F
  0.5967309916701211  0.5535378348504167  0.5056109707055541   F   F   F
  0.5314074673932367  0.5941153005651714  0.5336729985293047   F   F   F
  0.5796732686089143  0.4997731718447866  0.4507473928409595   F   F   F
  0.4609076206904775  0.3307346150993698  0.3453499869706817   T   T   T
  0.3905180950192175  0.5252419063175111  0.4552418453041511   F   F   F
  0.4548898886371988  0.3245658079606423  0.4248589099423671   T   T   T
  0.5074804872141527  0.4592780196109629  0.3501259710292359   F   F   F
  0.6012877811302459  0.4669891268301640  0.5212355700313438   F   F   F
  0.5384608035519776  0.4312182275275163  0.4821288228790692   F   F   F
  0.4713083414346286  0.4805797151798927  0.5807598339419258   F   F   F
  0.3771163837573610  0.4514853175274567  0.4282230665427278   F   F   F
  0.4059018739390154  0.3822235888080883  0.4561785915149272   F   F   F
  0.5357818896390683  0.5680835373033233  0.4543473312664048   F   F   F
  0.4924712632432886  0.6367287407321953  0.4646113344718685   F   F   F
  0.4677327221812249  0.5829886973614862  0.4038343643763724   F   F   F
  0.5280944416629296  0.5063826634733033  0.5194466411805863   F   F   F
  0.6212454441397384  0.5105019604624417  0.3755946010283822   F   F   F
  0.6054499763524817  0.5821019035045651  0.4188664505762958   F   F   F
  0.4050790883739026  0.5245211222763402  0.5434909784116542   F   F   F
  0.3508183478338715  0.4702193783273387  0.5088226312057152   T   T   T
  0.4341613958699757  0.4570616472189919  0.3020403019511947   T   T   T
  0.5382536112038254  0.4221212076964703  0.5690889881601776   T   T   T
  0.3579270784722453  0.3870754969936762  0.5399649471643452   T   T   T
  0.4625951421883201  0.5516617238622956  0.4875128022361963   F   F   F
  0.6073181786111986  0.3757578215088479  0.5112776447329179   T   T   T
  0.4920153111209142  0.4393899995436922  0.6581316286874123   T   T   T
  0.5877192493002384  0.4673044454900438  0.3065687355509130   T   T   T
  0.4900497958562298  0.4037080615820798  0.4151644571778519   F   F   F
  0.4352710379105105  0.6745116000438321  0.4125703644985787   T   T   T
  0.4685986279762107  0.5375130448500153  0.6600861472499611   T   T   T
  0.5397532608265934  0.5319899791087650  0.3771480104995177   F   F   F
  0.6694172691921758  0.6007166772382317  0.4840633591822823   T   T   T
  0.6652761513089078  0.5178866734836878  0.5510888963890478   T   T   T
  0.3751955277167235  0.3345135782630990  0.3850595460348820   T   T   T
  0.6794932284419829  0.4367170970613268  0.4865432333345096   T   T   T
  0.5398341397019354  0.3184695613770289  0.3919844267323417   T   T   T
  0.3024841902135498  0.5031123651816565  0.4365544739563507   T   T   T
  0.3135825932386819  0.3958340128171453  0.4497651479523915   T   T   T
  0.5125873710821161  0.6255876514221071  0.6164616134855282   T   T   T
  0.4493198288819729  0.3746597246989019  0.5856210219591182   T   T   T
  0.3901396144018044  0.5800878190077405  0.6132116798054021   T   T   T
  0.4056845467606346  0.3056208752801178  0.5014176815906035   T   T   T
  0.4028823420336432  0.3713608366415104  0.2870221514547095   T   T   T
  0.3840890931219094  0.5334475212599589  0.2920621426493281   T   T   T
  0.6931013952894769  0.4609441925957382  0.3871685681414956   T   T   T
  0.3376359274392718  0.5721913826361115  0.5126267073218974   T   T   T
  0.5989879765765469  0.5724810298996725  0.3075991447320411   T   T   T
  0.6130255052050035  0.6151186342156605  0.5752765308482525   T   T   T
  0.4409017455782280  0.6144562047494353  0.3235391109103525   T   T   T
  0.7386816164915059  0.6026919901204307  0.5208827098009865   T   T   T
  0.7068150018223439  0.6571796196864296  0.5699444717913934   T   T   T
  0.7400428185502372  0.6348071744422895  0.5530405567840578   T   T   T
  0.7755743880835357  0.6419766058415831  0.5656197003796050   T   T   T
 
  0.00000000E+00  0.00000000E+00  0.00000000E+00
  0.00000000E+00  0.00000000E+00  0.00000000E+00
  0.00000000E+00  0.00000000E+00  0.00000000E+00
  0.00000000E+00  0.00000000E+00  0.00000000E+00
  0.00000000E+00  0.00000000E+00  0.00000000E+00
  0.00000000E+00  0.00000000E+00  0.00000000E+00
  0.00000000E+00  0.00000000E+00  0.00000000E+00
  0.00000000E+00  0.00000000E+00  0.00000000E+00
  0.00000000E+00  0.00000000E+00  0.00000000E+00
  0.00000000E+00  0.00000000E+00  0.00000000E+00
  0.00000000E+00  0.00000000E+00  0.00000000E+00
  0.00000000E+00  0.00000000E+00  0.00000000E+00
  0.00000000E+00  0.00000000E+00  0.00000000E+00
  0.00000000E+00  0.00000000E+00  0.00000000E+00
  0.00000000E+00  0.00000000E+00  0.00000000E+00
  0.00000000E+00  0.00000000E+00  0.00000000E+00
  0.00000000E+00  0.00000000E+00  0.00000000E+00
  0.00000000E+00  0.00000000E+00  0.00000000E+00
  0.00000000E+00  0.00000000E+00  0.00000000E+00
  0.00000000E+00  0.00000000E+00  0.00000000E+00
  0.00000000E+00  0.00000000E+00  0.00000000E+00
  0.00000000E+00  0.00000000E+00  0.00000000E+00
  0.00000000E+00  0.00000000E+00  0.00000000E+00
  0.00000000E+00  0.00000000E+00  0.00000000E+00
  0.00000000E+00  0.00000000E+00  0.00000000E+00
  0.00000000E+00  0.00000000E+00  0.00000000E+00
  0.00000000E+00  0.00000000E+00  0.00000000E+00
  0.00000000E+00  0.00000000E+00  0.00000000E+00
  0.00000000E+00  0.00000000E+00  0.00000000E+00
  0.00000000E+00  0.00000000E+00  0.00000000E+00
  0.00000000E+00  0.00000000E+00  0.00000000E+00
  0.00000000E+00  0.00000000E+00  0.00000000E+00
  0.00000000E+00  0.00000000E+00  0.00000000E+00
  0.00000000E+00  0.00000000E+00  0.00000000E+00
  0.00000000E+00  0.00000000E+00  0.00000000E+00
  0.00000000E+00  0.00000000E+00  0.00000000E+00
  0.00000000E+00  0.00000000E+00  0.00000000E+00
  0.00000000E+00  0.00000000E+00  0.00000000E+00
  0.00000000E+00  0.00000000E+00  0.00000000E+00
  0.00000000E+00  0.00000000E+00  0.00000000E+00
  0.00000000E+00  0.00000000E+00  0.00000000E+00
  0.00000000E+00  0.00000000E+00  0.00000000E+00
  0.00000000E+00  0.00000000E+00  0.00000000E+00
  0.00000000E+00  0.00000000E+00  0.00000000E+00
  0.00000000E+00  0.00000000E+00  0.00000000E+00
  0.00000000E+00  0.00000000E+00  0.00000000E+00
  0.00000000E+00  0.00000000E+00  0.00000000E+00
  0.00000000E+00  0.00000000E+00  0.00000000E+00
  0.00000000E+00  0.00000000E+00  0.00000000E+00
  0.00000000E+00  0.00000000E+00  0.00000000E+00
  0.00000000E+00  0.00000000E+00  0.00000000E+00
  0.00000000E+00  0.00000000E+00  0.00000000E+00
  0.00000000E+00  0.00000000E+00  0.00000000E+00
  0.00000000E+00  0.00000000E+00  0.00000000E+00
  0.00000000E+00  0.00000000E+00  0.00000000E+00
  0.00000000E+00  0.00000000E+00  0.00000000E+00
  0.00000000E+00  0.00000000E+00  0.00000000E+00
  0.00000000E+00  0.00000000E+00  0.00000000E+00
  0.00000000E+00  0.00000000E+00  0.00000000E+00
  0.00000000E+00  0.00000000E+00  0.00000000E+00
  0.00000000E+00  0.00000000E+00  0.00000000E+00
  0.00000000E+00  0.00000000E+00  0.00000000E+00
  0.00000000E+00  0.00000000E+00  0.00000000E+00
  0.00000000E+00  0.00000000E+00  0.00000000E+00
  0.00000000E+00  0.00000000E+00  0.00000000E+00
  0.00000000E+00  0.00000000E+00  0.00000000E+00
  0.00000000E+00  0.00000000E+00  0.00000000E+00
  0.00000000E+00  0.00000000E+00  0.00000000E+00
  0.00000000E+00  0.00000000E+00  0.00000000E+00
  0.00000000E+00  0.00000000E+00  0.00000000E+00
  0.00000000E+00  0.00000000E+00  0.00000000E+00
  0.00000000E+00  0.00000000E+00  0.00000000E+00
