La Co Ni Sn Bi O  C  H                  
   1.00000000000000     
    29.1044006348000011    0.0000000000000000    0.0000000000000000
     0.4451680315000000   28.3694074727000007    0.0000000000000000
     0.0682082826000000    0.3036559964000000   28.5240018092999996
   La   Co   Ni   Sn   Bi   O    C    H 
    14    13    13    14    14     2     1     1
Selective dynamics
Direct
  0.5926584599605308  0.4203930876916806  0.4084070761098971   T   T   T
  0.6847398028601835  0.5718705806128596  0.3806408469396010   T   T   T
  0.4956162839332110  0.5265448405942239  0.2817539247129439   T   T   T
  0.5621448292251662  0.5218926061315393  0.6028088023610108   T   T   T
  0.5085070911505234  0.3868849407056592  0.3052295968359338   T   T   T
  0.5747560159694726  0.6559090811617475  0.4838835631470674   T   T   T
  0.5088367095995009  0.3379256418661354  0.4994071031300956   T   T   T
  0.5354818180693649  0.6377456438659471  0.3753413443881162   T   T   T
  0.4363909357768276  0.6433914194061378  0.5357563755757843   T   T   T
  0.4373551010143757  0.5015757590148624  0.3842817269995109   F   F   F
  0.4437846394494898  0.4460183835780285  0.5005161578087822   F   F   F
  0.3872617223785573  0.4667118260332624  0.6093450957589924   T   T   T
  0.3445814799224108  0.4443168037765343  0.3468800863164573   T   T   T
  0.3622965498275738  0.5854218149874283  0.3936021033312275   T   T   T
  0.4217425606853311  0.4061295180575186  0.3699802678458894   F   F   F
  0.5011311695957161  0.4887203336762909  0.4395023580252015   F   F   F
  0.4044148221271726  0.6101724300038001  0.4624736492929173   F   F   F
  0.4722931245665194  0.5596737886932672  0.5729988711091565   F   F   F
  0.6552684236953183  0.5165424048424470  0.4543399438695133   F   F   F
  0.5967309916701211  0.5535378348504167  0.5056109707055541   F   F   F
  0.5314074673932367  0.5941153005651714  0.5336729985293047   F   F   F
  0.5796732686089143  0.4997731718447866  0.4507473928409595   F   F   F
  0.4607449955376998  0.3308410683106150  0.3442300489774632   T   T   T
  0.3905180950192175  0.5252419063175111  0.4552418453041511   F   F   F
  0.4542943340758298  0.3246050022138688  0.4236984807140676   T   T   T
  0.5074804872141527  0.4592780196109629  0.3501259710292359   F   F   F
  0.6012877811302459  0.4669891268301640  0.5212355700313438   F   F   F
  0.5384608035519776  0.4312182275275163  0.4821288228790692   F   F   F
  0.4713083414346286  0.4805797151798927  0.5807598339419258   F   F   F
  0.3771163837573610  0.4514853175274567  0.4282230665427278   F   F   F
  0.4059018739390154  0.3822235888080883  0.4561785915149272   F   F   F
  0.5357818896390683  0.5680835373033233  0.4543473312664048   F   F   F
  0.4924712632432886  0.6367287407321953  0.4646113344718685   F   F   F
  0.4677327221812249  0.5829886973614862  0.4038343643763724   F   F   F
  0.5280944416629296  0.5063826634733033  0.5194466411805863   F   F   F
  0.6212454441397384  0.5105019604624417  0.3755946010283822   F   F   F
  0.6054499763524817  0.5821019035045651  0.4188664505762958   F   F   F
  0.4050790883739026  0.5245211222763402  0.5434909784116542   F   F   F
  0.3507302871815983  0.4702561393351208  0.5088245241685944   T   T   T
  0.4338549976617275  0.4570100330391642  0.3020861135687153   T   T   T
  0.5379240293702894  0.4219924458224042  0.5689702683959914   T   T   T
  0.3575479391276706  0.3869280730179225  0.5394173721777187   T   T   T
  0.4625951421883201  0.5516617238622956  0.4875128022361963   F   F   F
  0.6065857354798510  0.3753038692042717  0.5112387189284192   T   T   T
  0.4909209993277004  0.4381640354027085  0.6579642233639750   T   T   T
  0.5874245333543520  0.4669914787757279  0.3068521900025069   T   T   T
  0.4900497958562298  0.4037080615820798  0.4151644571778519   F   F   F
  0.4354442922585783  0.6745655193190083  0.4125137816364992   T   T   T
  0.4682089451851866  0.5362878325906086  0.6603019641669041   T   T   T
  0.5397532608265934  0.5319899791087650  0.3771480104995177   F   F   F
  0.6672692099811637  0.6008312278647847  0.4827743288663687   T   T   T
  0.6613527777749183  0.5177986269983698  0.5544092435798763   T   T   T
  0.3747448821928157  0.3347407156148111  0.3847532060365841   T   T   T
  0.6791169511321590  0.4365978790208322  0.4869276444827405   T   T   T
  0.5395970700181473  0.3186787518701227  0.3915983936347638   T   T   T
  0.3024981149227181  0.5032062601659328  0.4366571261823846   T   T   T
  0.3133539142595385  0.3958935403411825  0.4492953743020439   T   T   T
  0.5124744629344351  0.6252205398730882  0.6170974043078282   T   T   T
  0.4487112475385072  0.3739512047556006  0.5851082831369818   T   T   T
  0.3910135255237231  0.5803438952794437  0.6133003525579717   T   T   T
  0.4051742744144850  0.3053319101315930  0.5007922254265447   T   T   T
  0.4021715033812424  0.3715678470276712  0.2869310550187900   T   T   T
  0.3839226527306260  0.5334739419342643  0.2919302631518121   T   T   T
  0.6930653014616605  0.4611243566291370  0.3876886858628310   T   T   T
  0.3377146854255015  0.5722638582491597  0.5127892413557757   T   T   T
  0.5987555131146127  0.5723318496089738  0.3075638012879345   T   T   T
  0.6121333190514923  0.6149987696271800  0.5757400881530077   T   T   T
  0.4408839815708449  0.6142448080994848  0.3234791648178394   T   T   T
  0.7206783513535858  0.6052799626720311  0.5601376530195195   T   T   T
  0.7378425345673996  0.5267140371090679  0.5590877177292777   T   T   T
  0.7478097289698896  0.5705630415806980  0.5641935123195260   T   T   T
  0.7844007540724979  0.5769189012725361  0.5730198435249945   T   T   T
 
  0.00000000E+00  0.00000000E+00  0.00000000E+00
  0.00000000E+00  0.00000000E+00  0.00000000E+00
  0.00000000E+00  0.00000000E+00  0.00000000E+00
  0.00000000E+00  0.00000000E+00  0.00000000E+00
  0.00000000E+00  0.00000000E+00  0.00000000E+00
  0.00000000E+00  0.00000000E+00  0.00000000E+00
  0.00000000E+00  0.00000000E+00  0.00000000E+00
  0.00000000E+00  0.00000000E+00  0.00000000E+00
  0.00000000E+00  0.00000000E+00  0.00000000E+00
  0.00000000E+00  0.00000000E+00  0.00000000E+00
  0.00000000E+00  0.00000000E+00  0.00000000E+00
  0.00000000E+00  0.00000000E+00  0.00000000E+00
  0.00000000E+00  0.00000000E+00  0.00000000E+00
  0.00000000E+00  0.00000000E+00  0.00000000E+00
  0.00000000E+00  0.00000000E+00  0.00000000E+00
  0.00000000E+00  0.00000000E+00  0.00000000E+00
  0.00000000E+00  0.00000000E+00  0.00000000E+00
  0.00000000E+00  0.00000000E+00  0.00000000E+00
  0.00000000E+00  0.00000000E+00  0.00000000E+00
  0.00000000E+00  0.00000000E+00  0.00000000E+00
  0.00000000E+00  0.00000000E+00  0.00000000E+00
  0.00000000E+00  0.00000000E+00  0.00000000E+00
  0.00000000E+00  0.00000000E+00  0.00000000E+00
  0.00000000E+00  0.00000000E+00  0.00000000E+00
  0.00000000E+00  0.00000000E+00  0.00000000E+00
  0.00000000E+00  0.00000000E+00  0.00000000E+00
  0.00000000E+00  0.00000000E+00  0.00000000E+00
  0.00000000E+00  0.00000000E+00  0.00000000E+00
  0.00000000E+00  0.00000000E+00  0.00000000E+00
  0.00000000E+00  0.00000000E+00  0.00000000E+00
  0.00000000E+00  0.00000000E+00  0.00000000E+00
  0.00000000E+00  0.00000000E+00  0.00000000E+00
  0.00000000E+00  0.00000000E+00  0.00000000E+00
  0.00000000E+00  0.00000000E+00  0.00000000E+00
  0.00000000E+00  0.00000000E+00  0.00000000E+00
  0.00000000E+00  0.00000000E+00  0.00000000E+00
  0.00000000E+00  0.00000000E+00  0.00000000E+00
  0.00000000E+00  0.00000000E+00  0.00000000E+00
  0.00000000E+00  0.00000000E+00  0.00000000E+00
  0.00000000E+00  0.00000000E+00  0.00000000E+00
  0.00000000E+00  0.00000000E+00  0.00000000E+00
  0.00000000E+00  0.00000000E+00  0.00000000E+00
  0.00000000E+00  0.00000000E+00  0.00000000E+00
  0.00000000E+00  0.00000000E+00  0.00000000E+00
  0.00000000E+00  0.00000000E+00  0.00000000E+00
  0.00000000E+00  0.00000000E+00  0.00000000E+00
  0.00000000E+00  0.00000000E+00  0.00000000E+00
  0.00000000E+00  0.00000000E+00  0.00000000E+00
  0.00000000E+00  0.00000000E+00  0.00000000E+00
  0.00000000E+00  0.00000000E+00  0.00000000E+00
  0.00000000E+00  0.00000000E+00  0.00000000E+00
  0.00000000E+00  0.00000000E+00  0.00000000E+00
  0.00000000E+00  0.00000000E+00  0.00000000E+00
  0.00000000E+00  0.00000000E+00  0.00000000E+00
  0.00000000E+00  0.00000000E+00  0.00000000E+00
  0.00000000E+00  0.00000000E+00  0.00000000E+00
  0.00000000E+00  0.00000000E+00  0.00000000E+00
  0.00000000E+00  0.00000000E+00  0.00000000E+00
  0.00000000E+00  0.00000000E+00  0.00000000E+00
  0.00000000E+00  0.00000000E+00  0.00000000E+00
  0.00000000E+00  0.00000000E+00  0.00000000E+00
  0.00000000E+00  0.00000000E+00  0.00000000E+00
  0.00000000E+00  0.00000000E+00  0.00000000E+00
  0.00000000E+00  0.00000000E+00  0.00000000E+00
  0.00000000E+00  0.00000000E+00  0.00000000E+00
  0.00000000E+00  0.00000000E+00  0.00000000E+00
  0.00000000E+00  0.00000000E+00  0.00000000E+00
  0.00000000E+00  0.00000000E+00  0.00000000E+00
  0.00000000E+00  0.00000000E+00  0.00000000E+00
  0.00000000E+00  0.00000000E+00  0.00000000E+00
  0.00000000E+00  0.00000000E+00  0.00000000E+00
  0.00000000E+00  0.00000000E+00  0.00000000E+00
