La Co Ni Sn Bi O  C  H                  
   1.00000000000000     
    29.1044006348000011    0.0000000000000000    0.0000000000000000
     0.4451680315000000   28.3694074727000007    0.0000000000000000
     0.0682082826000000    0.3036559964000000   28.5240018092999996
   La   Co   Ni   Sn   Bi   O    C    H 
    14    13    13    14    14     2     1     1
Selective dynamics
Direct
  0.5924370208403991  0.4206268410903811  0.4079970393677344   T   T   T
  0.6854996075501922  0.5711936188012707  0.3813383790487411   T   T   T
  0.4963918755662471  0.5269284445570107  0.2815510652146594   T   T   T
  0.5618079668233867  0.5217954598210808  0.6025463255475538   T   T   T
  0.5094775008368569  0.3869134430628795  0.3058737505400627   T   T   T
  0.5751920890358909  0.6555371077985743  0.4837046632526110   T   T   T
  0.5100463540011784  0.3379443282982998  0.4997469021066535   T   T   T
  0.5355607473867807  0.6376920996440398  0.3753833679776584   T   T   T
  0.4365025653757794  0.6438436283670131  0.5352310676414429   T   T   T
  0.4373551010143757  0.5015757590148624  0.3842817269995109   F   F   F
  0.4437846394494898  0.4460183835780285  0.5005161578087822   F   F   F
  0.3822821050483784  0.4666125977087054  0.6065511634634805   T   T   T
  0.3453581496064686  0.4437449720912189  0.3455555766335506   T   T   T
  0.3626579433895242  0.5869330598767061  0.3925423558078648   T   T   T
  0.4217425606853311  0.4061295180575186  0.3699802678458894   F   F   F
  0.5011311695957161  0.4887203336762909  0.4395023580252015   F   F   F
  0.4044148221271726  0.6101724300038001  0.4624736492929173   F   F   F
  0.4722931245665194  0.5596737886932672  0.5729988711091565   F   F   F
  0.6552684236953183  0.5165424048424470  0.4543399438695133   F   F   F
  0.5967309916701211  0.5535378348504167  0.5056109707055541   F   F   F
  0.5314074673932367  0.5941153005651714  0.5336729985293047   F   F   F
  0.5796732686089143  0.4997731718447866  0.4507473928409595   F   F   F
  0.4616952919157906  0.3327382036242498  0.3463491388376737   T   T   T
  0.3905180950192175  0.5252419063175111  0.4552418453041511   F   F   F
  0.4572341365808987  0.3242003167511311  0.4260515280273223   T   T   T
  0.5074804872141527  0.4592780196109629  0.3501259710292359   F   F   F
  0.6012877811302459  0.4669891268301640  0.5212355700313438   F   F   F
  0.5384608035519776  0.4312182275275163  0.4821288228790692   F   F   F
  0.4713083414346286  0.4805797151798927  0.5807598339419258   F   F   F
  0.3771163837573610  0.4514853175274567  0.4282230665427278   F   F   F
  0.4059018739390154  0.3822235888080883  0.4561785915149272   F   F   F
  0.5357818896390683  0.5680835373033233  0.4543473312664048   F   F   F
  0.4924712632432886  0.6367287407321953  0.4646113344718685   F   F   F
  0.4677327221812249  0.5829886973614862  0.4038343643763724   F   F   F
  0.5280944416629296  0.5063826634733033  0.5194466411805863   F   F   F
  0.6212454441397384  0.5105019604624417  0.3755946010283822   F   F   F
  0.6054499763524817  0.5821019035045651  0.4188664505762958   F   F   F
  0.4050790883739026  0.5245211222763402  0.5434909784116542   F   F   F
  0.3476086307536577  0.4704602332833457  0.5084214367327727   T   T   T
  0.4350311741408319  0.4570905738398365  0.3012482453510130   T   T   T
  0.5382702095098688  0.4220271585936162  0.5690655199424803   T   T   T
  0.3588402685653020  0.3839941446996339  0.5372375638242453   T   T   T
  0.4625951421883201  0.5516617238622956  0.4875128022361963   F   F   F
  0.6074749253358495  0.3755486577827605  0.5108874450159405   T   T   T
  0.4916595444321788  0.4383382515645942  0.6579712926949509   T   T   T
  0.5879154594534002  0.4673567642964571  0.3063671706550705   T   T   T
  0.4900497958562298  0.4037080615820798  0.4151644571778519   F   F   F
  0.4358972689755033  0.6747097765395123  0.4126368368342695   T   T   T
  0.4661483712123143  0.5356788140757833  0.6592054566289671   T   T   T
  0.5397532608265934  0.5319899791087650  0.3771480104995177   F   F   F
  0.6684295708036624  0.6004005983887557  0.4839873623630472   T   T   T
  0.6653852518905473  0.5191296080356371  0.5510925088743788   T   T   T
  0.3768531029999143  0.3338726427122065  0.3863908998050505   T   T   T
  0.6793711632286886  0.4368715831686431  0.4871380484055153   T   T   T
  0.5407483555968939  0.3183504888192532  0.3920928285997460   T   T   T
  0.3031820377743657  0.5038945748076623  0.4338221326629677   T   T   T
  0.3130237468739611  0.3966088785709447  0.4488423314578914   T   T   T
  0.5115905033979927  0.6250693796192143  0.6171770355851455   T   T   T
  0.4491366599129661  0.3753666028719845  0.5853982864180920   T   T   T
  0.3898585858468165  0.5808312276308222  0.6118497040032659   T   T   T
  0.4072709860621698  0.3035795615436775  0.4997009942820321   T   T   T
  0.4037577518703961  0.3714490085179579  0.2871379290777931   T   T   T
  0.3849323911423626  0.5335337653599944  0.2915966954151695   T   T   T
  0.6927432779046182  0.4603521604349571  0.3874321734738821   T   T   T
  0.3379216203669598  0.5718684972309154  0.5117648252987134   T   T   T
  0.5996864654037090  0.5723497236290890  0.3079673054176401   T   T   T
  0.6121621004670945  0.6141683936037524  0.5759069950792661   T   T   T
  0.4415213674651890  0.6146356360206628  0.3230858886558112   T   T   T
  0.3053975901915358  0.4733113408097850  0.5710437844641029   T   T   T
  0.2496124799902860  0.4390010903646492  0.5279491124899166   T   T   T
  0.2638976354444309  0.4570276581279474  0.5642670382685407   T   T   T
  0.2409008777337127  0.4611280005452966  0.5952988775665642   T   T   T
 
  0.00000000E+00  0.00000000E+00  0.00000000E+00
  0.00000000E+00  0.00000000E+00  0.00000000E+00
  0.00000000E+00  0.00000000E+00  0.00000000E+00
  0.00000000E+00  0.00000000E+00  0.00000000E+00
  0.00000000E+00  0.00000000E+00  0.00000000E+00
  0.00000000E+00  0.00000000E+00  0.00000000E+00
  0.00000000E+00  0.00000000E+00  0.00000000E+00
  0.00000000E+00  0.00000000E+00  0.00000000E+00
  0.00000000E+00  0.00000000E+00  0.00000000E+00
  0.00000000E+00  0.00000000E+00  0.00000000E+00
  0.00000000E+00  0.00000000E+00  0.00000000E+00
  0.00000000E+00  0.00000000E+00  0.00000000E+00
  0.00000000E+00  0.00000000E+00  0.00000000E+00
  0.00000000E+00  0.00000000E+00  0.00000000E+00
  0.00000000E+00  0.00000000E+00  0.00000000E+00
  0.00000000E+00  0.00000000E+00  0.00000000E+00
  0.00000000E+00  0.00000000E+00  0.00000000E+00
  0.00000000E+00  0.00000000E+00  0.00000000E+00
  0.00000000E+00  0.00000000E+00  0.00000000E+00
  0.00000000E+00  0.00000000E+00  0.00000000E+00
  0.00000000E+00  0.00000000E+00  0.00000000E+00
  0.00000000E+00  0.00000000E+00  0.00000000E+00
  0.00000000E+00  0.00000000E+00  0.00000000E+00
  0.00000000E+00  0.00000000E+00  0.00000000E+00
  0.00000000E+00  0.00000000E+00  0.00000000E+00
  0.00000000E+00  0.00000000E+00  0.00000000E+00
  0.00000000E+00  0.00000000E+00  0.00000000E+00
  0.00000000E+00  0.00000000E+00  0.00000000E+00
  0.00000000E+00  0.00000000E+00  0.00000000E+00
  0.00000000E+00  0.00000000E+00  0.00000000E+00
  0.00000000E+00  0.00000000E+00  0.00000000E+00
  0.00000000E+00  0.00000000E+00  0.00000000E+00
  0.00000000E+00  0.00000000E+00  0.00000000E+00
  0.00000000E+00  0.00000000E+00  0.00000000E+00
  0.00000000E+00  0.00000000E+00  0.00000000E+00
  0.00000000E+00  0.00000000E+00  0.00000000E+00
  0.00000000E+00  0.00000000E+00  0.00000000E+00
  0.00000000E+00  0.00000000E+00  0.00000000E+00
  0.00000000E+00  0.00000000E+00  0.00000000E+00
  0.00000000E+00  0.00000000E+00  0.00000000E+00
  0.00000000E+00  0.00000000E+00  0.00000000E+00
  0.00000000E+00  0.00000000E+00  0.00000000E+00
  0.00000000E+00  0.00000000E+00  0.00000000E+00
  0.00000000E+00  0.00000000E+00  0.00000000E+00
  0.00000000E+00  0.00000000E+00  0.00000000E+00
  0.00000000E+00  0.00000000E+00  0.00000000E+00
  0.00000000E+00  0.00000000E+00  0.00000000E+00
  0.00000000E+00  0.00000000E+00  0.00000000E+00
  0.00000000E+00  0.00000000E+00  0.00000000E+00
  0.00000000E+00  0.00000000E+00  0.00000000E+00
  0.00000000E+00  0.00000000E+00  0.00000000E+00
  0.00000000E+00  0.00000000E+00  0.00000000E+00
  0.00000000E+00  0.00000000E+00  0.00000000E+00
  0.00000000E+00  0.00000000E+00  0.00000000E+00
  0.00000000E+00  0.00000000E+00  0.00000000E+00
  0.00000000E+00  0.00000000E+00  0.00000000E+00
  0.00000000E+00  0.00000000E+00  0.00000000E+00
  0.00000000E+00  0.00000000E+00  0.00000000E+00
  0.00000000E+00  0.00000000E+00  0.00000000E+00
  0.00000000E+00  0.00000000E+00  0.00000000E+00
  0.00000000E+00  0.00000000E+00  0.00000000E+00
  0.00000000E+00  0.00000000E+00  0.00000000E+00
  0.00000000E+00  0.00000000E+00  0.00000000E+00
  0.00000000E+00  0.00000000E+00  0.00000000E+00
  0.00000000E+00  0.00000000E+00  0.00000000E+00
  0.00000000E+00  0.00000000E+00  0.00000000E+00
  0.00000000E+00  0.00000000E+00  0.00000000E+00
  0.00000000E+00  0.00000000E+00  0.00000000E+00
  0.00000000E+00  0.00000000E+00  0.00000000E+00
  0.00000000E+00  0.00000000E+00  0.00000000E+00
  0.00000000E+00  0.00000000E+00  0.00000000E+00
  0.00000000E+00  0.00000000E+00  0.00000000E+00
