La Co Ni Sn Bi O  C  H                  
   1.00000000000000     
    29.1044006348000011    0.0000000000000000    0.0000000000000000
     0.4451680315000000   28.3694074727000007    0.0000000000000000
     0.0682082826000000    0.3036559964000000   28.5240018092999996
   La   Co   Ni   Sn   Bi   O    C    H 
    14    13    13    14    14     2     1     1
Selective dynamics
Direct
  0.5921574272167732  0.4202167067096879  0.4080020862665688   T   T   T
  0.6850068980854770  0.5710683980144703  0.3804921768013680   T   T   T
  0.4964148006357399  0.5249255859825643  0.2789755004953268   T   T   T
  0.5624237249912255  0.5214942868098943  0.6020596454202389   T   T   T
  0.5094286765022121  0.3888235824941476  0.3022955562011660   T   T   T
  0.5752231779494036  0.6554875245418826  0.4834899078895885   T   T   T
  0.5097010136158624  0.3376910105377608  0.4987029845643415   T   T   T
  0.5353807587354880  0.6376794138729991  0.3751611603577206   T   T   T
  0.4356275716953661  0.6430029563651850  0.5358516045144803   T   T   T
  0.4373551010143757  0.5015757590148624  0.3842817269995109   F   F   F
  0.4437846394494898  0.4460183835780285  0.5005161578087822   F   F   F
  0.3876038874238306  0.4664001362376612  0.6094485489958560   T   T   T
  0.3442465651946094  0.4440454635693329  0.3468308182183373   T   T   T
  0.3622531884971034  0.5856289345170046  0.3934344749873545   T   T   T
  0.4217425606853311  0.4061295180575186  0.3699802678458894   F   F   F
  0.5011311695957161  0.4887203336762909  0.4395023580252015   F   F   F
  0.4044148221271726  0.6101724300038001  0.4624736492929173   F   F   F
  0.4722931245665194  0.5596737886932672  0.5729988711091565   F   F   F
  0.6552684236953183  0.5165424048424470  0.4543399438695133   F   F   F
  0.5967309916701211  0.5535378348504167  0.5056109707055541   F   F   F
  0.5314074673932367  0.5941153005651714  0.5336729985293047   F   F   F
  0.5796732686089143  0.4997731718447866  0.4507473928409595   F   F   F
  0.4587353456540687  0.3285705401217360  0.3460436961693931   T   T   T
  0.3905180950192175  0.5252419063175111  0.4552418453041511   F   F   F
  0.4545760728860697  0.3247202004166097  0.4248110723922549   T   T   T
  0.5074804872141527  0.4592780196109629  0.3501259710292359   F   F   F
  0.6012877811302459  0.4669891268301640  0.5212355700313438   F   F   F
  0.5384608035519776  0.4312182275275163  0.4821288228790692   F   F   F
  0.4713083414346286  0.4805797151798927  0.5807598339419258   F   F   F
  0.3771163837573610  0.4514853175274567  0.4282230665427278   F   F   F
  0.4059018739390154  0.3822235888080883  0.4561785915149272   F   F   F
  0.5357818896390683  0.5680835373033233  0.4543473312664048   F   F   F
  0.4924712632432886  0.6367287407321953  0.4646113344718685   F   F   F
  0.4677327221812249  0.5829886973614862  0.4038343643763724   F   F   F
  0.5280944416629296  0.5063826634733033  0.5194466411805863   F   F   F
  0.6212454441397384  0.5105019604624417  0.3755946010283822   F   F   F
  0.6054499763524817  0.5821019035045651  0.4188664505762958   F   F   F
  0.4050790883739026  0.5245211222763402  0.5434909784116542   F   F   F
  0.3508744226824921  0.4702612407423489  0.5088525948329392   T   T   T
  0.4326434020094795  0.4570884285376990  0.3032785070150703   T   T   T
  0.5377939310731856  0.4215934174816510  0.5688082827172302   T   T   T
  0.3573621973991176  0.3869301200143819  0.5393727036669845   T   T   T
  0.4625951421883201  0.5516617238622956  0.4875128022361963   F   F   F
  0.6069510583540118  0.3757361156014399  0.5108879674067879   T   T   T
  0.4917499478078368  0.4382316842756899  0.6576939145895581   T   T   T
  0.5889005381401164  0.4674793313508371  0.3072938218110949   T   T   T
  0.4900497958562298  0.4037080615820798  0.4151644571778519   F   F   F
  0.4354324075648385  0.6741885576424662  0.4122129545977236   T   T   T
  0.4684914720964108  0.5365254054312535  0.6601843879203999   T   T   T
  0.5397532608265934  0.5319899791087650  0.3771480104995177   F   F   F
  0.6685154187086291  0.6002807205368279  0.4834477480535406   T   T   T
  0.6657748536464361  0.5191748307662206  0.5506773237318164   T   T   T
  0.3741436011524419  0.3347741511144059  0.3853044062476200   T   T   T
  0.6791614405682252  0.4366970877578402  0.4865882396657120   T   T   T
  0.5391831553799994  0.3189759966877000  0.3901359758176215   T   T   T
  0.3026374356853745  0.5032304469947257  0.4366961403072965   T   T   T
  0.3133379091573338  0.3955505477910707  0.4490306997816383   T   T   T
  0.5123727988023048  0.6250787094013536  0.6169249073261296   T   T   T
  0.4490129614862277  0.3737454320475139  0.5848355220325898   T   T   T
  0.3904392674098728  0.5798308903393253  0.6134441075506198   T   T   T
  0.4056982504805092  0.3055704264485778  0.5012796712264707   T   T   T
  0.4025203613038187  0.3708839287870759  0.2876196385513605   T   T   T
  0.3839861323718016  0.5334990644219919  0.2920959122595002   T   T   T
  0.6923328330395413  0.4601136149941196  0.3869718366648218   T   T   T
  0.3376919974402699  0.5723824403542825  0.5127042218533169   T   T   T
  0.5990076173533718  0.5721990033142186  0.3074006103737311   T   T   T
  0.6127072655032850  0.6141340502411347  0.5754870354038646   T   T   T
  0.4412181307561904  0.6138750970965954  0.3232950261616957   T   T   T
  0.5068479366506510  0.4727410522712802  0.2152471564558604   T   T   T
  0.5257800715417191  0.3950618808935207  0.2158523487915730   T   T   T
  0.5215811794075916  0.4347910474850326  0.1958767389638757   T   T   T
  0.5312209287530257  0.4376541881545735  0.1582755223763882   T   T   T
 
  0.00000000E+00  0.00000000E+00  0.00000000E+00
  0.00000000E+00  0.00000000E+00  0.00000000E+00
  0.00000000E+00  0.00000000E+00  0.00000000E+00
  0.00000000E+00  0.00000000E+00  0.00000000E+00
  0.00000000E+00  0.00000000E+00  0.00000000E+00
  0.00000000E+00  0.00000000E+00  0.00000000E+00
  0.00000000E+00  0.00000000E+00  0.00000000E+00
  0.00000000E+00  0.00000000E+00  0.00000000E+00
  0.00000000E+00  0.00000000E+00  0.00000000E+00
  0.00000000E+00  0.00000000E+00  0.00000000E+00
  0.00000000E+00  0.00000000E+00  0.00000000E+00
  0.00000000E+00  0.00000000E+00  0.00000000E+00
  0.00000000E+00  0.00000000E+00  0.00000000E+00
  0.00000000E+00  0.00000000E+00  0.00000000E+00
  0.00000000E+00  0.00000000E+00  0.00000000E+00
  0.00000000E+00  0.00000000E+00  0.00000000E+00
  0.00000000E+00  0.00000000E+00  0.00000000E+00
  0.00000000E+00  0.00000000E+00  0.00000000E+00
  0.00000000E+00  0.00000000E+00  0.00000000E+00
  0.00000000E+00  0.00000000E+00  0.00000000E+00
  0.00000000E+00  0.00000000E+00  0.00000000E+00
  0.00000000E+00  0.00000000E+00  0.00000000E+00
  0.00000000E+00  0.00000000E+00  0.00000000E+00
  0.00000000E+00  0.00000000E+00  0.00000000E+00
  0.00000000E+00  0.00000000E+00  0.00000000E+00
  0.00000000E+00  0.00000000E+00  0.00000000E+00
  0.00000000E+00  0.00000000E+00  0.00000000E+00
  0.00000000E+00  0.00000000E+00  0.00000000E+00
  0.00000000E+00  0.00000000E+00  0.00000000E+00
  0.00000000E+00  0.00000000E+00  0.00000000E+00
  0.00000000E+00  0.00000000E+00  0.00000000E+00
  0.00000000E+00  0.00000000E+00  0.00000000E+00
  0.00000000E+00  0.00000000E+00  0.00000000E+00
  0.00000000E+00  0.00000000E+00  0.00000000E+00
  0.00000000E+00  0.00000000E+00  0.00000000E+00
  0.00000000E+00  0.00000000E+00  0.00000000E+00
  0.00000000E+00  0.00000000E+00  0.00000000E+00
  0.00000000E+00  0.00000000E+00  0.00000000E+00
  0.00000000E+00  0.00000000E+00  0.00000000E+00
  0.00000000E+00  0.00000000E+00  0.00000000E+00
  0.00000000E+00  0.00000000E+00  0.00000000E+00
  0.00000000E+00  0.00000000E+00  0.00000000E+00
  0.00000000E+00  0.00000000E+00  0.00000000E+00
  0.00000000E+00  0.00000000E+00  0.00000000E+00
  0.00000000E+00  0.00000000E+00  0.00000000E+00
  0.00000000E+00  0.00000000E+00  0.00000000E+00
  0.00000000E+00  0.00000000E+00  0.00000000E+00
  0.00000000E+00  0.00000000E+00  0.00000000E+00
  0.00000000E+00  0.00000000E+00  0.00000000E+00
  0.00000000E+00  0.00000000E+00  0.00000000E+00
  0.00000000E+00  0.00000000E+00  0.00000000E+00
  0.00000000E+00  0.00000000E+00  0.00000000E+00
  0.00000000E+00  0.00000000E+00  0.00000000E+00
  0.00000000E+00  0.00000000E+00  0.00000000E+00
  0.00000000E+00  0.00000000E+00  0.00000000E+00
  0.00000000E+00  0.00000000E+00  0.00000000E+00
  0.00000000E+00  0.00000000E+00  0.00000000E+00
  0.00000000E+00  0.00000000E+00  0.00000000E+00
  0.00000000E+00  0.00000000E+00  0.00000000E+00
  0.00000000E+00  0.00000000E+00  0.00000000E+00
  0.00000000E+00  0.00000000E+00  0.00000000E+00
  0.00000000E+00  0.00000000E+00  0.00000000E+00
  0.00000000E+00  0.00000000E+00  0.00000000E+00
  0.00000000E+00  0.00000000E+00  0.00000000E+00
  0.00000000E+00  0.00000000E+00  0.00000000E+00
  0.00000000E+00  0.00000000E+00  0.00000000E+00
  0.00000000E+00  0.00000000E+00  0.00000000E+00
  0.00000000E+00  0.00000000E+00  0.00000000E+00
  0.00000000E+00  0.00000000E+00  0.00000000E+00
  0.00000000E+00  0.00000000E+00  0.00000000E+00
  0.00000000E+00  0.00000000E+00  0.00000000E+00
  0.00000000E+00  0.00000000E+00  0.00000000E+00
