La Co Ni Sn Bi O  C  H                  
   1.00000000000000     
    29.1044006348000011    0.0000000000000000    0.0000000000000000
     0.4451680315000000   28.3694074727000007    0.0000000000000000
     0.0682082826000000    0.3036559964000000   28.5240018092999996
   La   Co   Ni   Sn   Bi   O    C    H 
    14    13    13    14    14     2     1     1
Selective dynamics
Direct
  0.5923717213041580  0.4206326360154696  0.4076031995870612   T   T   T
  0.6854241408314077  0.5712106709891916  0.3812074219134014   T   T   T
  0.4953232826252872  0.5280268247579218  0.2825775836226453   T   T   T
  0.5630103960133298  0.5210693925167846  0.6018591004831717   T   T   T
  0.5086785049803113  0.3873554575229646  0.3051577286979723   T   T   T
  0.5744153236079862  0.6560006960101945  0.4841298087334062   T   T   T
  0.5088655366554183  0.3375628397793357  0.4990097893081732   T   T   T
  0.5351518080077295  0.6376843721636239  0.3755662366760648   T   T   T
  0.4321042609847792  0.6476504313382969  0.5364246545058714   T   T   T
  0.4373551010143757  0.5015757590148624  0.3842817269995109   F   F   F
  0.4437846394494898  0.4460183835780285  0.5005161578087822   F   F   F
  0.3878777305480878  0.4655389128632032  0.6094693931014152   T   T   T
  0.3443761484146107  0.4445515769543636  0.3469753575390251   T   T   T
  0.3618271043161152  0.5863208933483818  0.3943096934058818   T   T   T
  0.4217425606853311  0.4061295180575186  0.3699802678458894   F   F   F
  0.5011311695957161  0.4887203336762909  0.4395023580252015   F   F   F
  0.4044148221271726  0.6101724300038001  0.4624736492929173   F   F   F
  0.4722931245665194  0.5596737886932672  0.5729988711091565   F   F   F
  0.6552684236953183  0.5165424048424470  0.4543399438695133   F   F   F
  0.5967309916701211  0.5535378348504167  0.5056109707055541   F   F   F
  0.5314074673932367  0.5941153005651714  0.5336729985293047   F   F   F
  0.5796732686089143  0.4997731718447866  0.4507473928409595   F   F   F
  0.4609171699266180  0.3310746568743523  0.3438960236392553   T   T   T
  0.3905180950192175  0.5252419063175111  0.4552418453041511   F   F   F
  0.4544873639966881  0.3247466832275528  0.4232912569123635   T   T   T
  0.5074804872141527  0.4592780196109629  0.3501259710292359   F   F   F
  0.6012877811302459  0.4669891268301640  0.5212355700313438   F   F   F
  0.5384608035519776  0.4312182275275163  0.4821288228790692   F   F   F
  0.4713083414346286  0.4805797151798927  0.5807598339419258   F   F   F
  0.3771163837573610  0.4514853175274567  0.4282230665427278   F   F   F
  0.4059018739390154  0.3822235888080883  0.4561785915149272   F   F   F
  0.5357818896390683  0.5680835373033233  0.4543473312664048   F   F   F
  0.4924712632432886  0.6367287407321953  0.4646113344718685   F   F   F
  0.4677327221812249  0.5829886973614862  0.4038343643763724   F   F   F
  0.5280944416629296  0.5063826634733033  0.5194466411805863   F   F   F
  0.6212454441397384  0.5105019604624417  0.3755946010283822   F   F   F
  0.6054499763524817  0.5821019035045651  0.4188664505762958   F   F   F
  0.4050790883739026  0.5245211222763402  0.5434909784116542   F   F   F
  0.3508732388986628  0.4700605475843143  0.5088278540118660   T   T   T
  0.4337509915792097  0.4576817800214112  0.3021717258060155   T   T   T
  0.5376847595513952  0.4214572719358366  0.5685402749425238   T   T   T
  0.3577594116704363  0.3864173281289416  0.5391702945975095   T   T   T
  0.4625951421883201  0.5516617238622956  0.4875128022361963   F   F   F
  0.6065682544322248  0.3753679618552095  0.5101926100191055   T   T   T
  0.4918730007778133  0.4372670683312215  0.6573625176076041   T   T   T
  0.5873509662290879  0.4678056578097697  0.3061631847706209   T   T   T
  0.4900497958562298  0.4037080615820798  0.4151644571778519   F   F   F
  0.4354929127706890  0.6747648878874767  0.4130146850379898   T   T   T
  0.4695961508042282  0.5357819754213976  0.6603791741086783   T   T   T
  0.5397532608265934  0.5319899791087650  0.3771480104995177   F   F   F
  0.6677821792244927  0.6007725752911618  0.4837571997296358   T   T   T
  0.6659610179012799  0.5192215410239914  0.5503171831490129   T   T   T
  0.3747092283724550  0.3346720418794008  0.3846887235409092   T   T   T
  0.6788784489689352  0.4365258526000406  0.4864460650315902   T   T   T
  0.5398263850955675  0.3189529524525402  0.3912597048963363   T   T   T
  0.3025785840293681  0.5033087217395461  0.4369270324969605   T   T   T
  0.3134815632081908  0.3955638257214886  0.4489727264927676   T   T   T
  0.5120547702941134  0.6248839248501586  0.6162200244340823   T   T   T
  0.4488970565011614  0.3730129554883493  0.5846677594439149   T   T   T
  0.3919571416486398  0.5791490159616953  0.6139152180274077   T   T   T
  0.4049142932226735  0.3047808604865785  0.4996918286865824   T   T   T
  0.4022686388054140  0.3721590160490770  0.2868901788946140   T   T   T
  0.3835278690670932  0.5342419871440778  0.2927641657017085   T   T   T
  0.6928281635299999  0.4604598403102477  0.3871283707444096   T   T   T
  0.3377047604902307  0.5722836014544835  0.5130644824768212   T   T   T
  0.5996467849941224  0.5726969832829260  0.3081088183389421   T   T   T
  0.6124404528049791  0.6141522454335859  0.5758357995270652   T   T   T
  0.4401474777933680  0.6155787627978170  0.3239428924658604   T   T   T
  0.4223656872580428  0.7258656901755379  0.5745196874874470   T   T   T
  0.3566527625723684  0.6872053913441994  0.5606664844673422   T   T   T
  0.3785401363114200  0.7219260060266618  0.5771738934481112   T   T   T
  0.3585825329531334  0.7502274078409168  0.5952418049560624   T   T   T
 
  0.00000000E+00  0.00000000E+00  0.00000000E+00
  0.00000000E+00  0.00000000E+00  0.00000000E+00
  0.00000000E+00  0.00000000E+00  0.00000000E+00
  0.00000000E+00  0.00000000E+00  0.00000000E+00
  0.00000000E+00  0.00000000E+00  0.00000000E+00
  0.00000000E+00  0.00000000E+00  0.00000000E+00
  0.00000000E+00  0.00000000E+00  0.00000000E+00
  0.00000000E+00  0.00000000E+00  0.00000000E+00
  0.00000000E+00  0.00000000E+00  0.00000000E+00
  0.00000000E+00  0.00000000E+00  0.00000000E+00
  0.00000000E+00  0.00000000E+00  0.00000000E+00
  0.00000000E+00  0.00000000E+00  0.00000000E+00
  0.00000000E+00  0.00000000E+00  0.00000000E+00
  0.00000000E+00  0.00000000E+00  0.00000000E+00
  0.00000000E+00  0.00000000E+00  0.00000000E+00
  0.00000000E+00  0.00000000E+00  0.00000000E+00
  0.00000000E+00  0.00000000E+00  0.00000000E+00
  0.00000000E+00  0.00000000E+00  0.00000000E+00
  0.00000000E+00  0.00000000E+00  0.00000000E+00
  0.00000000E+00  0.00000000E+00  0.00000000E+00
  0.00000000E+00  0.00000000E+00  0.00000000E+00
  0.00000000E+00  0.00000000E+00  0.00000000E+00
  0.00000000E+00  0.00000000E+00  0.00000000E+00
  0.00000000E+00  0.00000000E+00  0.00000000E+00
  0.00000000E+00  0.00000000E+00  0.00000000E+00
  0.00000000E+00  0.00000000E+00  0.00000000E+00
  0.00000000E+00  0.00000000E+00  0.00000000E+00
  0.00000000E+00  0.00000000E+00  0.00000000E+00
  0.00000000E+00  0.00000000E+00  0.00000000E+00
  0.00000000E+00  0.00000000E+00  0.00000000E+00
  0.00000000E+00  0.00000000E+00  0.00000000E+00
  0.00000000E+00  0.00000000E+00  0.00000000E+00
  0.00000000E+00  0.00000000E+00  0.00000000E+00
  0.00000000E+00  0.00000000E+00  0.00000000E+00
  0.00000000E+00  0.00000000E+00  0.00000000E+00
  0.00000000E+00  0.00000000E+00  0.00000000E+00
  0.00000000E+00  0.00000000E+00  0.00000000E+00
  0.00000000E+00  0.00000000E+00  0.00000000E+00
  0.00000000E+00  0.00000000E+00  0.00000000E+00
  0.00000000E+00  0.00000000E+00  0.00000000E+00
  0.00000000E+00  0.00000000E+00  0.00000000E+00
  0.00000000E+00  0.00000000E+00  0.00000000E+00
  0.00000000E+00  0.00000000E+00  0.00000000E+00
  0.00000000E+00  0.00000000E+00  0.00000000E+00
  0.00000000E+00  0.00000000E+00  0.00000000E+00
  0.00000000E+00  0.00000000E+00  0.00000000E+00
  0.00000000E+00  0.00000000E+00  0.00000000E+00
  0.00000000E+00  0.00000000E+00  0.00000000E+00
  0.00000000E+00  0.00000000E+00  0.00000000E+00
  0.00000000E+00  0.00000000E+00  0.00000000E+00
  0.00000000E+00  0.00000000E+00  0.00000000E+00
  0.00000000E+00  0.00000000E+00  0.00000000E+00
  0.00000000E+00  0.00000000E+00  0.00000000E+00
  0.00000000E+00  0.00000000E+00  0.00000000E+00
  0.00000000E+00  0.00000000E+00  0.00000000E+00
  0.00000000E+00  0.00000000E+00  0.00000000E+00
  0.00000000E+00  0.00000000E+00  0.00000000E+00
  0.00000000E+00  0.00000000E+00  0.00000000E+00
  0.00000000E+00  0.00000000E+00  0.00000000E+00
  0.00000000E+00  0.00000000E+00  0.00000000E+00
  0.00000000E+00  0.00000000E+00  0.00000000E+00
  0.00000000E+00  0.00000000E+00  0.00000000E+00
  0.00000000E+00  0.00000000E+00  0.00000000E+00
  0.00000000E+00  0.00000000E+00  0.00000000E+00
  0.00000000E+00  0.00000000E+00  0.00000000E+00
  0.00000000E+00  0.00000000E+00  0.00000000E+00
  0.00000000E+00  0.00000000E+00  0.00000000E+00
  0.00000000E+00  0.00000000E+00  0.00000000E+00
  0.00000000E+00  0.00000000E+00  0.00000000E+00
  0.00000000E+00  0.00000000E+00  0.00000000E+00
  0.00000000E+00  0.00000000E+00  0.00000000E+00
  0.00000000E+00  0.00000000E+00  0.00000000E+00
