La Co Ni Sn Bi O  C  H                  
   1.00000000000000     
    29.1044006348000011    0.0000000000000000    0.0000000000000000
     0.4451680315000000   28.3694074727000007    0.0000000000000000
     0.0682082826000000    0.3036559964000000   28.5240018092999996
   La   Co   Ni   Sn   Bi   O    C    H 
    14    13    13    14    14     2     1     1
Selective dynamics
Direct
  0.5920731713456731  0.4205182987812209  0.4074484573430563   T   T   T
  0.6859811298338548  0.5706266921296955  0.3815846843697120   T   T   T
  0.4955297236126738  0.5284077978813068  0.2825710219529281   T   T   T
  0.5629683292642861  0.5203663906578471  0.6020588857165373   T   T   T
  0.5090344853920029  0.3872643176457503  0.3054290592428589   T   T   T
  0.5719026091943584  0.6611080336590802  0.4889790096384499   T   T   T
  0.5077898087959777  0.3377865711943795  0.4995245680051291   T   T   T
  0.5355045372697053  0.6378863848241078  0.3767677450599154   T   T   T
  0.4383649440926997  0.6476620057642857  0.5360837998185113   T   T   T
  0.4373551010143757  0.5015757590148624  0.3842817269995109   F   F   F
  0.4437846394494898  0.4460183835780285  0.5005161578087822   F   F   F
  0.3875250932786671  0.4674934299573530  0.6099250095338441   T   T   T
  0.3444866735295685  0.4447629224546107  0.3469108085103380   T   T   T
  0.3621497370033293  0.5862581284238569  0.3945244500066226   T   T   T
  0.4217425606853311  0.4061295180575186  0.3699802678458894   F   F   F
  0.5011311695957161  0.4887203336762909  0.4395023580252015   F   F   F
  0.4044148221271726  0.6101724300038001  0.4624736492929173   F   F   F
  0.4722931245665194  0.5596737886932672  0.5729988711091565   F   F   F
  0.6552684236953183  0.5165424048424470  0.4543399438695133   F   F   F
  0.5967309916701211  0.5535378348504167  0.5056109707055541   F   F   F
  0.5314074673932367  0.5941153005651714  0.5336729985293047   F   F   F
  0.5796732686089143  0.4997731718447866  0.4507473928409595   F   F   F
  0.4606877845598162  0.3312951481448281  0.3441640578613864   T   T   T
  0.3905180950192175  0.5252419063175111  0.4552418453041511   F   F   F
  0.4540233599010802  0.3246920324871262  0.4235738699183855   T   T   T
  0.5074804872141527  0.4592780196109629  0.3501259710292359   F   F   F
  0.6012877811302459  0.4669891268301640  0.5212355700313438   F   F   F
  0.5384608035519776  0.4312182275275163  0.4821288228790692   F   F   F
  0.4713083414346286  0.4805797151798927  0.5807598339419258   F   F   F
  0.3771163837573610  0.4514853175274567  0.4282230665427278   F   F   F
  0.4059018739390154  0.3822235888080883  0.4561785915149272   F   F   F
  0.5357818896390683  0.5680835373033233  0.4543473312664048   F   F   F
  0.4924712632432886  0.6367287407321953  0.4646113344718685   F   F   F
  0.4677327221812249  0.5829886973614862  0.4038343643763724   F   F   F
  0.5280944416629296  0.5063826634733033  0.5194466411805863   F   F   F
  0.6212454441397384  0.5105019604624417  0.3755946010283822   F   F   F
  0.6054499763524817  0.5821019035045651  0.4188664505762958   F   F   F
  0.4050790883739026  0.5245211222763402  0.5434909784116542   F   F   F
  0.3506890876653080  0.4704657840862669  0.5088427762066309   T   T   T
  0.4341047523911222  0.4579289641511451  0.3022349251018517   T   T   T
  0.5378267411527056  0.4212542672424684  0.5686493623172495   T   T   T
  0.3575583212285544  0.3875893228899465  0.5401748172765298   T   T   T
  0.4625951421883201  0.5516617238622956  0.4875128022361963   F   F   F
  0.6060611088772733  0.3748074123534524  0.5097780367833269   T   T   T
  0.4919800772806948  0.4384528874198151  0.6579071358880088   T   T   T
  0.5874313003976572  0.4680352073993059  0.3061123672922960   T   T   T
  0.4900497958562298  0.4037080615820798  0.4151644571778519   F   F   F
  0.4352021230800501  0.6751117520174753  0.4134514381844219   T   T   T
  0.4684588484911568  0.5365023799091717  0.6602385810377142   T   T   T
  0.5397532608265934  0.5319899791087650  0.3771480104995177   F   F   F
  0.6656837501679752  0.6024801625252755  0.4828800326280510   T   T   T
  0.6663273879152305  0.5195471755186468  0.5497873944069352   T   T   T
  0.3743907037944569  0.3350467253602372  0.3848540656180338   T   T   T
  0.6784621586558186  0.4361215206091593  0.4864168102852336   T   T   T
  0.5392621605961462  0.3184279855801224  0.3918609936485123   T   T   T
  0.3025229140489585  0.5032669183395659  0.4367866440613398   T   T   T
  0.3134443468173881  0.3961011857694760  0.4498935242622590   T   T   T
  0.5136002037327173  0.6235509994305929  0.6176037752954543   T   T   T
  0.4486277823985313  0.3744538811212127  0.5856737542451922   T   T   T
  0.3916277018244239  0.5816230591825150  0.6121109213176695   T   T   T
  0.4038541218148284  0.3056615022866057  0.5007196154980021   T   T   T
  0.4025754637903932  0.3724959388583018  0.2869080993883091   T   T   T
  0.3837037754771389  0.5344689526519565  0.2926618429407978   T   T   T
  0.6923718759524238  0.4598364644307835  0.3871859338823572   T   T   T
  0.3380883964618880  0.5726558032883826  0.5132101543640628   T   T   T
  0.5999537824868776  0.5731114482248060  0.3086768252924807   T   T   T
  0.6129562133653480  0.6130670466019441  0.5764992614382082   T   T   T
  0.4404191119729204  0.6158573277217076  0.3241944455660569   T   T   T
  0.4649099926923060  0.7269888109768713  0.5526578681253020   T   T   T
  0.5395248939876726  0.7294116203077212  0.5292003863521856   T   T   T
  0.5035055784216501  0.7468721922408573  0.5480265590714425   T   T   T
  0.5059890315514214  0.7832172010373214  0.5619058135965846   T   T   T
 
  0.00000000E+00  0.00000000E+00  0.00000000E+00
  0.00000000E+00  0.00000000E+00  0.00000000E+00
  0.00000000E+00  0.00000000E+00  0.00000000E+00
  0.00000000E+00  0.00000000E+00  0.00000000E+00
  0.00000000E+00  0.00000000E+00  0.00000000E+00
  0.00000000E+00  0.00000000E+00  0.00000000E+00
  0.00000000E+00  0.00000000E+00  0.00000000E+00
  0.00000000E+00  0.00000000E+00  0.00000000E+00
  0.00000000E+00  0.00000000E+00  0.00000000E+00
  0.00000000E+00  0.00000000E+00  0.00000000E+00
  0.00000000E+00  0.00000000E+00  0.00000000E+00
  0.00000000E+00  0.00000000E+00  0.00000000E+00
  0.00000000E+00  0.00000000E+00  0.00000000E+00
  0.00000000E+00  0.00000000E+00  0.00000000E+00
  0.00000000E+00  0.00000000E+00  0.00000000E+00
  0.00000000E+00  0.00000000E+00  0.00000000E+00
  0.00000000E+00  0.00000000E+00  0.00000000E+00
  0.00000000E+00  0.00000000E+00  0.00000000E+00
  0.00000000E+00  0.00000000E+00  0.00000000E+00
  0.00000000E+00  0.00000000E+00  0.00000000E+00
  0.00000000E+00  0.00000000E+00  0.00000000E+00
  0.00000000E+00  0.00000000E+00  0.00000000E+00
  0.00000000E+00  0.00000000E+00  0.00000000E+00
  0.00000000E+00  0.00000000E+00  0.00000000E+00
  0.00000000E+00  0.00000000E+00  0.00000000E+00
  0.00000000E+00  0.00000000E+00  0.00000000E+00
  0.00000000E+00  0.00000000E+00  0.00000000E+00
  0.00000000E+00  0.00000000E+00  0.00000000E+00
  0.00000000E+00  0.00000000E+00  0.00000000E+00
  0.00000000E+00  0.00000000E+00  0.00000000E+00
  0.00000000E+00  0.00000000E+00  0.00000000E+00
  0.00000000E+00  0.00000000E+00  0.00000000E+00
  0.00000000E+00  0.00000000E+00  0.00000000E+00
  0.00000000E+00  0.00000000E+00  0.00000000E+00
  0.00000000E+00  0.00000000E+00  0.00000000E+00
  0.00000000E+00  0.00000000E+00  0.00000000E+00
  0.00000000E+00  0.00000000E+00  0.00000000E+00
  0.00000000E+00  0.00000000E+00  0.00000000E+00
  0.00000000E+00  0.00000000E+00  0.00000000E+00
  0.00000000E+00  0.00000000E+00  0.00000000E+00
  0.00000000E+00  0.00000000E+00  0.00000000E+00
  0.00000000E+00  0.00000000E+00  0.00000000E+00
  0.00000000E+00  0.00000000E+00  0.00000000E+00
  0.00000000E+00  0.00000000E+00  0.00000000E+00
  0.00000000E+00  0.00000000E+00  0.00000000E+00
  0.00000000E+00  0.00000000E+00  0.00000000E+00
  0.00000000E+00  0.00000000E+00  0.00000000E+00
  0.00000000E+00  0.00000000E+00  0.00000000E+00
  0.00000000E+00  0.00000000E+00  0.00000000E+00
  0.00000000E+00  0.00000000E+00  0.00000000E+00
  0.00000000E+00  0.00000000E+00  0.00000000E+00
  0.00000000E+00  0.00000000E+00  0.00000000E+00
  0.00000000E+00  0.00000000E+00  0.00000000E+00
  0.00000000E+00  0.00000000E+00  0.00000000E+00
  0.00000000E+00  0.00000000E+00  0.00000000E+00
  0.00000000E+00  0.00000000E+00  0.00000000E+00
  0.00000000E+00  0.00000000E+00  0.00000000E+00
  0.00000000E+00  0.00000000E+00  0.00000000E+00
  0.00000000E+00  0.00000000E+00  0.00000000E+00
  0.00000000E+00  0.00000000E+00  0.00000000E+00
  0.00000000E+00  0.00000000E+00  0.00000000E+00
  0.00000000E+00  0.00000000E+00  0.00000000E+00
  0.00000000E+00  0.00000000E+00  0.00000000E+00
  0.00000000E+00  0.00000000E+00  0.00000000E+00
  0.00000000E+00  0.00000000E+00  0.00000000E+00
  0.00000000E+00  0.00000000E+00  0.00000000E+00
  0.00000000E+00  0.00000000E+00  0.00000000E+00
  0.00000000E+00  0.00000000E+00  0.00000000E+00
  0.00000000E+00  0.00000000E+00  0.00000000E+00
  0.00000000E+00  0.00000000E+00  0.00000000E+00
  0.00000000E+00  0.00000000E+00  0.00000000E+00
  0.00000000E+00  0.00000000E+00  0.00000000E+00
