Bi La Sn O  C  H                        
   1.00000000000000     
    29.0000000000000000    0.0000000000000000    0.0000000000000000
     0.2488180851000000   28.9989325590000000    0.0000000000000000
    -0.0631677343000000   -0.4515975666000000   28.9964147692999994
   Bi   La   Sn   O    C    H 
    22    23    23     2     1     1
Selective dynamics
Direct
  0.7608349628305808  0.4758673206341332  0.3981161198309195   T   T   T
  0.6480964732667529  0.6844555901148149  0.5512281096123517   T   T   T
  0.3597350748323343  0.4584429666144908  0.4282055432551023   T   T   T
  0.5520748035422319  0.7136587454652387  0.5842169671080296   T   T   T
  0.5915029568994470  0.5209714444905416  0.5841479689498996   F   F   F
  0.6409234466545765  0.6803116281875641  0.4453912968035247   T   T   T
  0.6961653486443334  0.5206570910015739  0.6545642442887044   T   T   T
  0.4874592827143824  0.7016115911204013  0.4982371926731043   T   T   T
  0.5004839460855024  0.5502791173970252  0.5477141156400123   F   F   F
  0.3282947636864334  0.4854101851067053  0.5779833308383021   T   T   T
  0.3829956659556569  0.6089171242624715  0.5377372747135104   T   T   T
  0.6667129484492236  0.4827404655721850  0.5105018184570156   F   F   F
  0.5763997220267569  0.4263140504383500  0.5448328182496311   F   F   F
  0.6676354218159540  0.3746727316347126  0.5085658088812695   T   T   T
  0.4608627251891518  0.3360821764370494  0.4964760589894536   T   T   T
  0.6484934028780529  0.5775373212088155  0.4602701624361103   F   F   F
  0.5558299525475556  0.4360457128835922  0.7500103946203545   T   T   T
  0.5934685112171366  0.3498353711474291  0.6691280489593867   T   T   T
  0.4935714764214067  0.3008042690503858  0.4068989886783805   T   T   T
  0.6616391771054018  0.6164017654785016  0.6673659184084320   T   T   T
  0.4950013621997292  0.4093938947593875  0.3109154749016345   T   T   T
  0.6194221112346311  0.3167580004659358  0.5739617383116784   T   T   T
  0.5407561900137984  0.6837893865323754  0.4042316606070217   T   T   T
  0.3898289399055050  0.4148045904996188  0.5258119203859745   T   T   T
  0.6308921712113928  0.5518489738210250  0.2831079877481439   T   T   T
  0.4735954941313096  0.4803389425245204  0.6931163195774173   T   T   T
  0.5683115009887700  0.5094300495444983  0.4784716241115703   F   F   F
  0.4203210565129183  0.5084107200613417  0.5018573595042781   F   F   F
  0.4516247884317372  0.4008156719545862  0.4071339667230431   T   T   T
  0.5720103763756039  0.3467375753112162  0.3542510621707163   T   T   T
  0.4135579146649579  0.5394847325450768  0.6124669228435357   T   T   T
  0.5990565919485841  0.4421996973917970  0.3028970126186221   T   T   T
  0.4557542925008409  0.6000368549158488  0.3635270214792541   T   T   T
  0.4192572480513200  0.4866824960707380  0.3399840773694758   T   T   T
  0.6606223190295739  0.4268493515374022  0.6053204594608929   T   T   T
  0.6742392357127915  0.5783107937509547  0.5643414264237062   T   T   T
  0.5269817496876866  0.5105965752735081  0.3275066646169644   T   T   T
  0.5645142285297395  0.3572394766520790  0.4698313918086914   T   T   T
  0.3168497291278753  0.5401185055592641  0.4932185443379501   T   T   T
  0.6596998511149500  0.4274996283022778  0.4135975628684157   T   T   T
  0.5660841929594156  0.6261437171197244  0.5094829013827464   F   F   F
  0.5962013131635839  0.5272345129819537  0.6899707621181613   T   T   T
  0.4711374994147794  0.6431011257525527  0.5874276513514440   T   T   T
  0.4621518854607481  0.6038216114995629  0.4640021497419831   T   T   T
  0.7168714850229075  0.5722453141806736  0.3838472327170297   T   T   T
  0.5499310510395361  0.5822218838566187  0.4076968008106903   F   F   F
  0.4794126430662260  0.5072205383607624  0.4190535757241776   F   F   F
  0.6965421450266166  0.4804756649693393  0.3236922698001516   T   T   T
  0.7513296663678164  0.4283814161466666  0.4874512983191531   T   T   T
  0.7485714750458055  0.5368967487479300  0.4845948458340430   T   T   T
  0.7486278259960402  0.4894494182027326  0.5717707312237758   T   T   T
  0.6452016447055742  0.4322571114452305  0.7091820130280914   T   T   T
  0.5779245541402196  0.7438522416549332  0.4931573116834347   T   T   T
  0.6192554540844384  0.5183157687966542  0.3801816896793397   F   F   F
  0.5076885352207021  0.5653572942093908  0.6503084880413323   T   T   T
  0.4922009500451665  0.4366758245867572  0.4933013002826740   F   F   F
  0.5608844484509063  0.4404139570509003  0.6454865549417619   F   F   F
  0.5800192311581450  0.6173327187662369  0.6127688788138990   T   T   T
  0.5458742059700376  0.6173609870943999  0.3120798458402677   T   T   T
  0.6285832686627183  0.6244714994039350  0.3607246568725133   T   T   T
  0.3762903498122703  0.5570598990756561  0.4125212064949280   T   T   T
  0.4723078164089713  0.4557257050327763  0.5877273803360978   F   F   F
  0.7276197219725526  0.6348730975780014  0.4836304140244508   T   T   T
  0.4929160374484128  0.3774021421164404  0.6779450177908990   T   T   T
  0.3875701954698711  0.4370644691696323  0.6405385076143012   T   T   T
  0.5544592502646992  0.4379899399457940  0.4037542370104745   F   F   F
  0.4295599428034785  0.3554921408084981  0.6032739986798317   T   T   T
  0.5248049195104844  0.3501470825662614  0.5763888509818295   T   T   T
  0.6540257285633998  0.3570386050437959  0.3715378972063731   T   T   T
  0.6324816571853902  0.3691390715508751  0.2957307524646136   T   T   T
  0.6637442788175272  0.3776829686237794  0.3299949562079416   T   T   T
  0.6999347744227967  0.3745192704462686  0.3193791038524151   T   T   T
 
  0.00000000E+00  0.00000000E+00  0.00000000E+00
  0.00000000E+00  0.00000000E+00  0.00000000E+00
  0.00000000E+00  0.00000000E+00  0.00000000E+00
  0.00000000E+00  0.00000000E+00  0.00000000E+00
  0.00000000E+00  0.00000000E+00  0.00000000E+00
  0.00000000E+00  0.00000000E+00  0.00000000E+00
  0.00000000E+00  0.00000000E+00  0.00000000E+00
  0.00000000E+00  0.00000000E+00  0.00000000E+00
  0.00000000E+00  0.00000000E+00  0.00000000E+00
  0.00000000E+00  0.00000000E+00  0.00000000E+00
  0.00000000E+00  0.00000000E+00  0.00000000E+00
  0.00000000E+00  0.00000000E+00  0.00000000E+00
  0.00000000E+00  0.00000000E+00  0.00000000E+00
  0.00000000E+00  0.00000000E+00  0.00000000E+00
  0.00000000E+00  0.00000000E+00  0.00000000E+00
  0.00000000E+00  0.00000000E+00  0.00000000E+00
  0.00000000E+00  0.00000000E+00  0.00000000E+00
  0.00000000E+00  0.00000000E+00  0.00000000E+00
  0.00000000E+00  0.00000000E+00  0.00000000E+00
  0.00000000E+00  0.00000000E+00  0.00000000E+00
  0.00000000E+00  0.00000000E+00  0.00000000E+00
  0.00000000E+00  0.00000000E+00  0.00000000E+00
  0.00000000E+00  0.00000000E+00  0.00000000E+00
  0.00000000E+00  0.00000000E+00  0.00000000E+00
  0.00000000E+00  0.00000000E+00  0.00000000E+00
  0.00000000E+00  0.00000000E+00  0.00000000E+00
  0.00000000E+00  0.00000000E+00  0.00000000E+00
  0.00000000E+00  0.00000000E+00  0.00000000E+00
  0.00000000E+00  0.00000000E+00  0.00000000E+00
  0.00000000E+00  0.00000000E+00  0.00000000E+00
  0.00000000E+00  0.00000000E+00  0.00000000E+00
  0.00000000E+00  0.00000000E+00  0.00000000E+00
  0.00000000E+00  0.00000000E+00  0.00000000E+00
  0.00000000E+00  0.00000000E+00  0.00000000E+00
  0.00000000E+00  0.00000000E+00  0.00000000E+00
  0.00000000E+00  0.00000000E+00  0.00000000E+00
  0.00000000E+00  0.00000000E+00  0.00000000E+00
  0.00000000E+00  0.00000000E+00  0.00000000E+00
  0.00000000E+00  0.00000000E+00  0.00000000E+00
  0.00000000E+00  0.00000000E+00  0.00000000E+00
  0.00000000E+00  0.00000000E+00  0.00000000E+00
  0.00000000E+00  0.00000000E+00  0.00000000E+00
  0.00000000E+00  0.00000000E+00  0.00000000E+00
  0.00000000E+00  0.00000000E+00  0.00000000E+00
  0.00000000E+00  0.00000000E+00  0.00000000E+00
  0.00000000E+00  0.00000000E+00  0.00000000E+00
  0.00000000E+00  0.00000000E+00  0.00000000E+00
  0.00000000E+00  0.00000000E+00  0.00000000E+00
  0.00000000E+00  0.00000000E+00  0.00000000E+00
  0.00000000E+00  0.00000000E+00  0.00000000E+00
  0.00000000E+00  0.00000000E+00  0.00000000E+00
  0.00000000E+00  0.00000000E+00  0.00000000E+00
  0.00000000E+00  0.00000000E+00  0.00000000E+00
  0.00000000E+00  0.00000000E+00  0.00000000E+00
  0.00000000E+00  0.00000000E+00  0.00000000E+00
  0.00000000E+00  0.00000000E+00  0.00000000E+00
  0.00000000E+00  0.00000000E+00  0.00000000E+00
  0.00000000E+00  0.00000000E+00  0.00000000E+00
  0.00000000E+00  0.00000000E+00  0.00000000E+00
  0.00000000E+00  0.00000000E+00  0.00000000E+00
  0.00000000E+00  0.00000000E+00  0.00000000E+00
  0.00000000E+00  0.00000000E+00  0.00000000E+00
  0.00000000E+00  0.00000000E+00  0.00000000E+00
  0.00000000E+00  0.00000000E+00  0.00000000E+00
  0.00000000E+00  0.00000000E+00  0.00000000E+00
  0.00000000E+00  0.00000000E+00  0.00000000E+00
  0.00000000E+00  0.00000000E+00  0.00000000E+00
  0.00000000E+00  0.00000000E+00  0.00000000E+00
  0.00000000E+00  0.00000000E+00  0.00000000E+00
  0.00000000E+00  0.00000000E+00  0.00000000E+00
  0.00000000E+00  0.00000000E+00  0.00000000E+00
  0.00000000E+00  0.00000000E+00  0.00000000E+00
