Bi La Sn O  C  H                        
   1.00000000000000     
    29.0000000000000000    0.0000000000000000    0.0000000000000000
     0.2488180851000000   28.9989325590000000    0.0000000000000000
    -0.0631677343000000   -0.4515975666000000   28.9964147692999994
   Bi   La   Sn   O    C    H 
    22    23    23     2     1     1
Selective dynamics
Direct
  0.7591915224159930  0.4789528507289463  0.3994435886919198   T   T   T
  0.6459289843326096  0.6844421319146529  0.5528274651635117   T   T   T
  0.3585606618234843  0.4585907959913778  0.4300757693290677   T   T   T
  0.5496893166526801  0.7125282210056727  0.5852805872474667   T   T   T
  0.5915029568994470  0.5209714444905416  0.5841479689498996   F   F   F
  0.6393087934422109  0.6804711415566915  0.4459222513317553   T   T   T
  0.6974197164951519  0.5242573441206225  0.6550893859781095   T   T   T
  0.4855418938251306  0.7002787264743823  0.5009157119101070   T   T   T
  0.5004839460855024  0.5502791173970252  0.5477141156400123   F   F   F
  0.3236938736850645  0.4867428304661550  0.5693159800595492   T   T   T
  0.3820590767768978  0.6124024531729373  0.5336093350118942   T   T   T
  0.6667129484492236  0.4827404655721850  0.5105018184570156   F   F   F
  0.5763997220267569  0.4263140504383500  0.5448328182496311   F   F   F
  0.6684781919416422  0.3752529701784720  0.5090140096314019   T   T   T
  0.4635443556114258  0.3380508638187653  0.4983873824208253   T   T   T
  0.6484934028780529  0.5775373212088155  0.4602701624361103   F   F   F
  0.5590832811095559  0.4350185283644618  0.7490318855160204   T   T   T
  0.6102416054651660  0.3516632013901760  0.6644030020785066   T   T   T
  0.4925868818013007  0.2995035193046983  0.4089672311194222   T   T   T
  0.6591059060465876  0.6192758149439013  0.6655716671702415   T   T   T
  0.4922253363645054  0.4099961546986033  0.3072170796858212   T   T   T
  0.6172703235527236  0.3140889964624227  0.5683674872687385   T   T   T
  0.5376977034531640  0.6835879855103753  0.4050401251020646   T   T   T
  0.3917185008472706  0.4138825652265503  0.5293758114454409   T   T   T
  0.6287403150211635  0.5528659458886516  0.2829521831299863   T   T   T
  0.4680427933953383  0.4614074100434534  0.6931621614884452   T   T   T
  0.5683115009887700  0.5094300495444983  0.4784716241115703   F   F   F
  0.4203210565129183  0.5084107200613417  0.5018573595042781   F   F   F
  0.4513222157518998  0.4009983999701665  0.4066790544385396   T   T   T
  0.5641552272882476  0.3484072265212155  0.3536154306745253   T   T   T
  0.4090941754714923  0.5408630155191525  0.6071702784197927   T   T   T
  0.5985711289076645  0.4425001261236999  0.3046029195929305   T   T   T
  0.4550763026313330  0.6000762565354513  0.3632427855496381   T   T   T
  0.4179995012926992  0.4859298052240903  0.3409659075413147   T   T   T
  0.6616884379899707  0.4313300662985158  0.6052663575649890   T   T   T
  0.6727793876074110  0.5786315082020981  0.5639769972515788   T   T   T
  0.5259404794592681  0.5098134787999061  0.3280088093832523   T   T   T
  0.5665495293650986  0.3576064184491968  0.4680732610997844   T   T   T
  0.3142479425743662  0.5456939843782765  0.4891650441706333   T   T   T
  0.6604678520548921  0.4291469672141708  0.4160829523185672   T   T   T
  0.5660841929594156  0.6261437171197244  0.5094829013827464   F   F   F
  0.5964535906507249  0.5283934318234644  0.6893616387482339   T   T   T
  0.4696269798917400  0.6402675850086119  0.5894791423406932   T   T   T
  0.4630943827677698  0.6028148313857269  0.4638056241111458   T   T   T
  0.7161526674472912  0.5745356992693778  0.3831415397049349   T   T   T
  0.5499310510395361  0.5822218838566187  0.4076968008106903   F   F   F
  0.4794126430662260  0.5072205383607624  0.4190535757241776   F   F   F
  0.6947645971984540  0.4804804152379227  0.3248297659741893   T   T   T
  0.7523308506038806  0.4306998059193841  0.4888110764102930   T   T   T
  0.7483607242514443  0.5388507291993601  0.4854809968963003   T   T   T
  0.7491354551753333  0.4922559451943435  0.5730093609805821   T   T   T
  0.6490833977192433  0.4371495134655981  0.7101769308128463   T   T   T
  0.5758153449491128  0.7428135777432979  0.4937608109454464   T   T   T
  0.6192554540844384  0.5183157687966542  0.3801816896793397   F   F   F
  0.5039102864166368  0.5527854143712932  0.6493594223367860   T   T   T
  0.4922009500451665  0.4366758245867572  0.4933013002826740   F   F   F
  0.5608844484509063  0.4404139570509003  0.6454865549417619   F   F   F
  0.5750679822654341  0.6150201320734565  0.6145544134539259   T   T   T
  0.5440418399571635  0.6177829083420844  0.3120728212756235   T   T   T
  0.6266376077649456  0.6258103034146473  0.3608732323654519   T   T   T
  0.3776257801656118  0.5564683983208695  0.4119963479844585   T   T   T
  0.4723078164089713  0.4557257050327763  0.5877273803360978   F   F   F
  0.7265242282996575  0.6354989302276355  0.4849509752302878   T   T   T
  0.5112636414819164  0.3621364242639161  0.6836141320748422   T   T   T
  0.3764311912220604  0.4452631295275227  0.6384166669536542   T   T   T
  0.5544592502646992  0.4379899399457940  0.4037542370104745   F   F   F
  0.4327030625077380  0.3672256660706235  0.6205704255177878   T   T   T
  0.5246589907344916  0.3512594225532206  0.5791495635855789   T   T   T
  0.4222612974981059  0.4118769100671517  0.7382794756871692   T   T   T
  0.3948998298319256  0.3481321577821445  0.7004822849657165   T   T   T
  0.3981049199894984  0.3747293013992526  0.7348692550853813   T   T   T
  0.3780822712362302  0.3659656618557788  0.7661900535956304   T   T   T
 
  0.00000000E+00  0.00000000E+00  0.00000000E+00
  0.00000000E+00  0.00000000E+00  0.00000000E+00
  0.00000000E+00  0.00000000E+00  0.00000000E+00
  0.00000000E+00  0.00000000E+00  0.00000000E+00
  0.00000000E+00  0.00000000E+00  0.00000000E+00
  0.00000000E+00  0.00000000E+00  0.00000000E+00
  0.00000000E+00  0.00000000E+00  0.00000000E+00
  0.00000000E+00  0.00000000E+00  0.00000000E+00
  0.00000000E+00  0.00000000E+00  0.00000000E+00
  0.00000000E+00  0.00000000E+00  0.00000000E+00
  0.00000000E+00  0.00000000E+00  0.00000000E+00
  0.00000000E+00  0.00000000E+00  0.00000000E+00
  0.00000000E+00  0.00000000E+00  0.00000000E+00
  0.00000000E+00  0.00000000E+00  0.00000000E+00
  0.00000000E+00  0.00000000E+00  0.00000000E+00
  0.00000000E+00  0.00000000E+00  0.00000000E+00
  0.00000000E+00  0.00000000E+00  0.00000000E+00
  0.00000000E+00  0.00000000E+00  0.00000000E+00
  0.00000000E+00  0.00000000E+00  0.00000000E+00
  0.00000000E+00  0.00000000E+00  0.00000000E+00
  0.00000000E+00  0.00000000E+00  0.00000000E+00
  0.00000000E+00  0.00000000E+00  0.00000000E+00
  0.00000000E+00  0.00000000E+00  0.00000000E+00
  0.00000000E+00  0.00000000E+00  0.00000000E+00
  0.00000000E+00  0.00000000E+00  0.00000000E+00
  0.00000000E+00  0.00000000E+00  0.00000000E+00
  0.00000000E+00  0.00000000E+00  0.00000000E+00
  0.00000000E+00  0.00000000E+00  0.00000000E+00
  0.00000000E+00  0.00000000E+00  0.00000000E+00
  0.00000000E+00  0.00000000E+00  0.00000000E+00
  0.00000000E+00  0.00000000E+00  0.00000000E+00
  0.00000000E+00  0.00000000E+00  0.00000000E+00
  0.00000000E+00  0.00000000E+00  0.00000000E+00
  0.00000000E+00  0.00000000E+00  0.00000000E+00
  0.00000000E+00  0.00000000E+00  0.00000000E+00
  0.00000000E+00  0.00000000E+00  0.00000000E+00
  0.00000000E+00  0.00000000E+00  0.00000000E+00
  0.00000000E+00  0.00000000E+00  0.00000000E+00
  0.00000000E+00  0.00000000E+00  0.00000000E+00
  0.00000000E+00  0.00000000E+00  0.00000000E+00
  0.00000000E+00  0.00000000E+00  0.00000000E+00
  0.00000000E+00  0.00000000E+00  0.00000000E+00
  0.00000000E+00  0.00000000E+00  0.00000000E+00
  0.00000000E+00  0.00000000E+00  0.00000000E+00
  0.00000000E+00  0.00000000E+00  0.00000000E+00
  0.00000000E+00  0.00000000E+00  0.00000000E+00
  0.00000000E+00  0.00000000E+00  0.00000000E+00
  0.00000000E+00  0.00000000E+00  0.00000000E+00
  0.00000000E+00  0.00000000E+00  0.00000000E+00
  0.00000000E+00  0.00000000E+00  0.00000000E+00
  0.00000000E+00  0.00000000E+00  0.00000000E+00
  0.00000000E+00  0.00000000E+00  0.00000000E+00
  0.00000000E+00  0.00000000E+00  0.00000000E+00
  0.00000000E+00  0.00000000E+00  0.00000000E+00
  0.00000000E+00  0.00000000E+00  0.00000000E+00
  0.00000000E+00  0.00000000E+00  0.00000000E+00
  0.00000000E+00  0.00000000E+00  0.00000000E+00
  0.00000000E+00  0.00000000E+00  0.00000000E+00
  0.00000000E+00  0.00000000E+00  0.00000000E+00
  0.00000000E+00  0.00000000E+00  0.00000000E+00
  0.00000000E+00  0.00000000E+00  0.00000000E+00
  0.00000000E+00  0.00000000E+00  0.00000000E+00
  0.00000000E+00  0.00000000E+00  0.00000000E+00
  0.00000000E+00  0.00000000E+00  0.00000000E+00
  0.00000000E+00  0.00000000E+00  0.00000000E+00
  0.00000000E+00  0.00000000E+00  0.00000000E+00
  0.00000000E+00  0.00000000E+00  0.00000000E+00
  0.00000000E+00  0.00000000E+00  0.00000000E+00
  0.00000000E+00  0.00000000E+00  0.00000000E+00
  0.00000000E+00  0.00000000E+00  0.00000000E+00
  0.00000000E+00  0.00000000E+00  0.00000000E+00
  0.00000000E+00  0.00000000E+00  0.00000000E+00
