Bi La Sn O  C  H                        
   1.00000000000000     
    29.0000000000000000    0.0000000000000000    0.0000000000000000
     0.2488180851000000   28.9989325590000000    0.0000000000000000
    -0.0631677343000000   -0.4515975666000000   28.9964147692999994
   Bi   La   Sn   O    C    H 
    22    23    23     2     1     1
Selective dynamics
Direct
  0.7597625063735056  0.4786112220766319  0.3992387653909835   T   T   T
  0.6483897497367057  0.6847328052232102  0.5498685277709968   T   T   T
  0.3619532328272850  0.4571881899349273  0.4273159599534632   T   T   T
  0.5525313681123762  0.7137835375533508  0.5837994185662794   T   T   T
  0.5915029568994470  0.5209714444905416  0.5841479689498996   F   F   F
  0.6402473478857370  0.6801189370018031  0.4448137640167640   T   T   T
  0.6956268798136330  0.5194014546833566  0.6534471756563226   T   T   T
  0.4871168827290800  0.7014212696995529  0.4987036409155081   T   T   T
  0.5004839460855024  0.5502791173970252  0.5477141156400123   F   F   F
  0.3300068491171440  0.4838794557993580  0.5795148705852444   T   T   T
  0.3842639973392333  0.6077940296954203  0.5386573100536133   T   T   T
  0.6667129484492236  0.4827404655721850  0.5105018184570156   F   F   F
  0.5763997220267569  0.4263140504383500  0.5448328182496311   F   F   F
  0.6690635167574198  0.3737333333811415  0.5062750209419736   T   T   T
  0.4619092953599705  0.3376087084276361  0.4945019181561490   T   T   T
  0.6484934028780529  0.5775373212088155  0.4602701624361103   F   F   F
  0.5549174021140564  0.4331134710796808  0.7494812006966508   T   T   T
  0.5911456272278623  0.3483768594487697  0.6667824770863058   T   T   T
  0.4943747488590654  0.2994697825557608  0.4055969466690020   T   T   T
  0.6615940366163027  0.6151146016832776  0.6681254685688428   T   T   T
  0.4927529982575812  0.4104797760861780  0.3043149594544631   T   T   T
  0.6203729886034163  0.3168426365786380  0.5721504201290941   T   T   T
  0.5394958459913951  0.6838125084834608  0.4041478477425738   T   T   T
  0.3903543835483296  0.4146795167976634  0.5258004200971307   T   T   T
  0.6279649499899767  0.5521193612431962  0.2823928267928477   T   T   T
  0.4739883690547201  0.4815725743662285  0.6930324539887347   T   T   T
  0.5683115009887700  0.5094300495444983  0.4784716241115703   F   F   F
  0.4203210565129183  0.5084107200613417  0.5018573595042781   F   F   F
  0.4537510834207505  0.4011498480402287  0.4040831262804748   T   T   T
  0.5651727916091001  0.3498207467283994  0.3518140848014613   T   T   T
  0.4143434758174400  0.5392283458363628  0.6135499977697204   T   T   T
  0.5995245248327339  0.4424441882997876  0.3045799941733692   T   T   T
  0.4542837668885800  0.5996070599809596  0.3635458419641630   T   T   T
  0.4191361422014261  0.4874321110317568  0.3390088118677264   T   T   T
  0.6605828088872291  0.4257846208743515  0.6043402290234544   T   T   T
  0.6743558905499567  0.5784524971658839  0.5641413458094157   T   T   T
  0.5259285554953543  0.5094253448502192  0.3280839814392017   T   T   T
  0.5660559708345004  0.3567270075857741  0.4689556832291145   T   T   T
  0.3127157164532048  0.5392453930394229  0.4943820595436712   T   T   T
  0.6602055263903513  0.4294126476938362  0.4153961342160772   T   T   T
  0.5660841929594156  0.6261437171197244  0.5094829013827464   F   F   F
  0.5962977064135095  0.5263522395682604  0.6903393092714507   T   T   T
  0.4716525064654526  0.6431877941297391  0.5878795456942825   T   T   T
  0.4620877169608715  0.6035537490594196  0.4638524773846505   T   T   T
  0.7164751723847331  0.5740991251107119  0.3833981252795171   T   T   T
  0.5499310510395361  0.5822218838566187  0.4076968008106903   F   F   F
  0.4794126430662260  0.5072205383607624  0.4190535757241776   F   F   F
  0.6953566336093221  0.4812147496181287  0.3243869987912779   T   T   T
  0.7517628748300476  0.4286305461068006  0.4871600145142858   T   T   T
  0.7487148858225862  0.5380413626478485  0.4855463833631117   T   T   T
  0.7491804543935680  0.4886954860867204  0.5718173483881972   T   T   T
  0.6443209587008976  0.4300525419361028  0.7083451391600506   T   T   T
  0.5774638819515727  0.7436722124212692  0.4924108911531265   T   T   T
  0.6192554540844384  0.5183157687966542  0.3801816896793397   F   F   F
  0.5088262032367832  0.5658804467647571  0.6504440090452596   T   T   T
  0.4922009500451665  0.4366758245867572  0.4933013002826740   F   F   F
  0.5608844484509063  0.4404139570509003  0.6454865549417619   F   F   F
  0.5806955492582089  0.6178407527476353  0.6129103713215454   T   T   T
  0.5438154923328947  0.6172461229264991  0.3125827977917800   T   T   T
  0.6273406248397493  0.6248535399432855  0.3601214042907844   T   T   T
  0.3762771105937536  0.5557117779953007  0.4134647192326769   T   T   T
  0.4723078164089713  0.4557257050327763  0.5877273803360978   F   F   F
  0.7277717639359335  0.6348813873892724  0.4839371521323706   T   T   T
  0.4915699674417167  0.3784421766042784  0.6775363421801015   T   T   T
  0.3889682468875947  0.4361752453009725  0.6418872404600917   T   T   T
  0.5544592502646992  0.4379899399457940  0.4037542370104745   F   F   F
  0.4307220553219407  0.3550804043438405  0.6019391553795032   T   T   T
  0.5252340494242116  0.3496472403802699  0.5753746175985430   T   T   T
  0.2314354646902880  0.5124899259096525  0.4900286101669016   T   T   T
  0.2435859148682956  0.5881244832112094  0.5034724349388725   T   T   T
  0.2168982969964965  0.5530854507731413  0.5003014020411533   T   T   T
  0.1795377406739584  0.5582750916466283  0.5073047283120928   T   T   T
 
  0.00000000E+00  0.00000000E+00  0.00000000E+00
  0.00000000E+00  0.00000000E+00  0.00000000E+00
  0.00000000E+00  0.00000000E+00  0.00000000E+00
  0.00000000E+00  0.00000000E+00  0.00000000E+00
  0.00000000E+00  0.00000000E+00  0.00000000E+00
  0.00000000E+00  0.00000000E+00  0.00000000E+00
  0.00000000E+00  0.00000000E+00  0.00000000E+00
  0.00000000E+00  0.00000000E+00  0.00000000E+00
  0.00000000E+00  0.00000000E+00  0.00000000E+00
  0.00000000E+00  0.00000000E+00  0.00000000E+00
  0.00000000E+00  0.00000000E+00  0.00000000E+00
  0.00000000E+00  0.00000000E+00  0.00000000E+00
  0.00000000E+00  0.00000000E+00  0.00000000E+00
  0.00000000E+00  0.00000000E+00  0.00000000E+00
  0.00000000E+00  0.00000000E+00  0.00000000E+00
  0.00000000E+00  0.00000000E+00  0.00000000E+00
  0.00000000E+00  0.00000000E+00  0.00000000E+00
  0.00000000E+00  0.00000000E+00  0.00000000E+00
  0.00000000E+00  0.00000000E+00  0.00000000E+00
  0.00000000E+00  0.00000000E+00  0.00000000E+00
  0.00000000E+00  0.00000000E+00  0.00000000E+00
  0.00000000E+00  0.00000000E+00  0.00000000E+00
  0.00000000E+00  0.00000000E+00  0.00000000E+00
  0.00000000E+00  0.00000000E+00  0.00000000E+00
  0.00000000E+00  0.00000000E+00  0.00000000E+00
  0.00000000E+00  0.00000000E+00  0.00000000E+00
  0.00000000E+00  0.00000000E+00  0.00000000E+00
  0.00000000E+00  0.00000000E+00  0.00000000E+00
  0.00000000E+00  0.00000000E+00  0.00000000E+00
  0.00000000E+00  0.00000000E+00  0.00000000E+00
  0.00000000E+00  0.00000000E+00  0.00000000E+00
  0.00000000E+00  0.00000000E+00  0.00000000E+00
  0.00000000E+00  0.00000000E+00  0.00000000E+00
  0.00000000E+00  0.00000000E+00  0.00000000E+00
  0.00000000E+00  0.00000000E+00  0.00000000E+00
  0.00000000E+00  0.00000000E+00  0.00000000E+00
  0.00000000E+00  0.00000000E+00  0.00000000E+00
  0.00000000E+00  0.00000000E+00  0.00000000E+00
  0.00000000E+00  0.00000000E+00  0.00000000E+00
  0.00000000E+00  0.00000000E+00  0.00000000E+00
  0.00000000E+00  0.00000000E+00  0.00000000E+00
  0.00000000E+00  0.00000000E+00  0.00000000E+00
  0.00000000E+00  0.00000000E+00  0.00000000E+00
  0.00000000E+00  0.00000000E+00  0.00000000E+00
  0.00000000E+00  0.00000000E+00  0.00000000E+00
  0.00000000E+00  0.00000000E+00  0.00000000E+00
  0.00000000E+00  0.00000000E+00  0.00000000E+00
  0.00000000E+00  0.00000000E+00  0.00000000E+00
  0.00000000E+00  0.00000000E+00  0.00000000E+00
  0.00000000E+00  0.00000000E+00  0.00000000E+00
  0.00000000E+00  0.00000000E+00  0.00000000E+00
  0.00000000E+00  0.00000000E+00  0.00000000E+00
  0.00000000E+00  0.00000000E+00  0.00000000E+00
  0.00000000E+00  0.00000000E+00  0.00000000E+00
  0.00000000E+00  0.00000000E+00  0.00000000E+00
  0.00000000E+00  0.00000000E+00  0.00000000E+00
  0.00000000E+00  0.00000000E+00  0.00000000E+00
  0.00000000E+00  0.00000000E+00  0.00000000E+00
  0.00000000E+00  0.00000000E+00  0.00000000E+00
  0.00000000E+00  0.00000000E+00  0.00000000E+00
  0.00000000E+00  0.00000000E+00  0.00000000E+00
  0.00000000E+00  0.00000000E+00  0.00000000E+00
  0.00000000E+00  0.00000000E+00  0.00000000E+00
  0.00000000E+00  0.00000000E+00  0.00000000E+00
  0.00000000E+00  0.00000000E+00  0.00000000E+00
  0.00000000E+00  0.00000000E+00  0.00000000E+00
  0.00000000E+00  0.00000000E+00  0.00000000E+00
  0.00000000E+00  0.00000000E+00  0.00000000E+00
  0.00000000E+00  0.00000000E+00  0.00000000E+00
  0.00000000E+00  0.00000000E+00  0.00000000E+00
  0.00000000E+00  0.00000000E+00  0.00000000E+00
  0.00000000E+00  0.00000000E+00  0.00000000E+00
