Bi La Sn O  C  H                        
   1.00000000000000     
    29.0000000000000000    0.0000000000000000    0.0000000000000000
     0.2488180851000000   28.9989325590000000    0.0000000000000000
    -0.0631677343000000   -0.4515975666000000   28.9964147692999994
   Bi   La   Sn   O    C    H 
    22    23    23     2     1     1
Selective dynamics
Direct
  0.7598562966466420  0.4778008372904947  0.3984023436637452   T   T   T
  0.6481843748833630  0.6841061290384522  0.5501779861807219   T   T   T
  0.3599459219398534  0.4584718779709600  0.4272676558314141   T   T   T
  0.5521566372193828  0.7133939483791465  0.5835453538443991   T   T   T
  0.5915029568994470  0.5209714444905416  0.5841479689498996   F   F   F
  0.6405990884098445  0.6799975153024491  0.4451753813601834   T   T   T
  0.6937752605156791  0.5189978175538325  0.6554635569202695   T   T   T
  0.4870631822226029  0.7018581338449313  0.4982705246450394   T   T   T
  0.5004839460855024  0.5502791173970252  0.5477141156400123   F   F   F
  0.3277045210198988  0.4844797524921619  0.5781529200672941   T   T   T
  0.3824660825884353  0.6085595283497348  0.5373580798844738   T   T   T
  0.6667129484492236  0.4827404655721850  0.5105018184570156   F   F   F
  0.5763997220267569  0.4263140504383500  0.5448328182496311   F   F   F
  0.6678228985643273  0.3737855497552471  0.5066745406415873   T   T   T
  0.4601698337606064  0.3372465294162851  0.4936234106984757   T   T   T
  0.6484934028780529  0.5775373212088155  0.4602701624361103   F   F   F
  0.5524587782683791  0.4345624580202873  0.7495613834254710   T   T   T
  0.5900685143029089  0.3480654987339624  0.6657438834552392   T   T   T
  0.4926528332197288  0.3005705495505019  0.4039950259046775   T   T   T
  0.6606322242817125  0.6147377077636756  0.6687600970125153   T   T   T
  0.4920661411334754  0.4108406076765951  0.3044604409336846   T   T   T
  0.6184431709652080  0.3157795144149769  0.5711532826322192   T   T   T
  0.5398322878339279  0.6836799017519787  0.4042688816000246   T   T   T
  0.3893428425776486  0.4154077560051989  0.5247242141407830   T   T   T
  0.6274150562296070  0.5519245507101299  0.2824221354098273   T   T   T
  0.4727154114394928  0.4815775023161492  0.6924729252829637   T   T   T
  0.5683115009887700  0.5094300495444983  0.4784716241115703   F   F   F
  0.4203210565129183  0.5084107200613417  0.5018573595042781   F   F   F
  0.4524705438159693  0.4020900652506160  0.4042933663687668   T   T   T
  0.5648944793693229  0.3501933095961340  0.3515634658000456   T   T   T
  0.4128423927297817  0.5389560037518599  0.6120313055222255   T   T   T
  0.5988971719293602  0.4423609258578529  0.3045821291442773   T   T   T
  0.4544776265056748  0.6002259571327037  0.3640358854341701   T   T   T
  0.4187803598960056  0.4880618681538863  0.3395937135778292   T   T   T
  0.6625244184821786  0.4239910905486888  0.6053222433969145   T   T   T
  0.6749729338720457  0.5783509747446683  0.5648591334564573   T   T   T
  0.5256609951282499  0.5097718469968914  0.3279516529567251   T   T   T
  0.5645886259824039  0.3565823896871462  0.4687829836817733   T   T   T
  0.3158078518597214  0.5394496419100413  0.4937157957482988   T   T   T
  0.6601507978143591  0.4294394281317720  0.4153754596319386   T   T   T
  0.5660841929594156  0.6261437171197244  0.5094829013827464   F   F   F
  0.5942706949435606  0.5265907610187117  0.6904467169115228   T   T   T
  0.4705285769938775  0.6433203553863932  0.5869221870404985   T   T   T
  0.4625665772352671  0.6035365348905722  0.4640323369186861   T   T   T
  0.7162365409624205  0.5737674110852341  0.3829375097780458   T   T   T
  0.5499310510395361  0.5822218838566187  0.4076968008106903   F   F   F
  0.4794126430662260  0.5072205383607624  0.4190535757241776   F   F   F
  0.6950087213070421  0.4810272298678758  0.3243471291688924   T   T   T
  0.7512492640111916  0.4293471239452044  0.4879692596341135   T   T   T
  0.7475293941172496  0.5372089612212828  0.4839575998164222   T   T   T
  0.7496592316616126  0.4891035939940807  0.5727415793766445   T   T   T
  0.6419870754410403  0.4297374798572607  0.7095381439564270   T   T   T
  0.5775629337734129  0.7436885576732198  0.4923726139296430   T   T   T
  0.6192554540844384  0.5183157687966542  0.3801816896793397   F   F   F
  0.5070050298022324  0.5661824870620016  0.6499589221977516   T   T   T
  0.4922009500451665  0.4366758245867572  0.4933013002826740   F   F   F
  0.5608844484509063  0.4404139570509003  0.6454865549417619   F   F   F
  0.5799439838532415  0.6172048685151091  0.6127749688458423   T   T   T
  0.5435816458158759  0.6176032015699831  0.3122731764469180   T   T   T
  0.6269689919283107  0.6250459317800378  0.3599474205244900   T   T   T
  0.3759246941954858  0.5572631988318236  0.4136807568400596   T   T   T
  0.4723078164089713  0.4557257050327763  0.5877273803360978   F   F   F
  0.7283253512833010  0.6343297024231812  0.4833534821762312   T   T   T
  0.4902201983110735  0.3787676086215175  0.6743527546394936   T   T   T
  0.3881183611887298  0.4359790813539658  0.6399201474939171   T   T   T
  0.5544592502646992  0.4379899399457940  0.4037542370104745   F   F   F
  0.4286266833950054  0.3540431882937193  0.5996876968656444   T   T   T
  0.5236783128795999  0.3498623652323110  0.5738558570908914   T   T   T
  0.7823466272400272  0.4495825719398951  0.6481346187244460   T   T   T
  0.7315212551471840  0.3918876674620778  0.6335368924177764   T   T   T
  0.7680474818635429  0.4090930510612775  0.6523219543547405   T   T   T
  0.7880640315758962  0.3851151037652472  0.6744333637825503   T   T   T
 
  0.00000000E+00  0.00000000E+00  0.00000000E+00
  0.00000000E+00  0.00000000E+00  0.00000000E+00
  0.00000000E+00  0.00000000E+00  0.00000000E+00
  0.00000000E+00  0.00000000E+00  0.00000000E+00
  0.00000000E+00  0.00000000E+00  0.00000000E+00
  0.00000000E+00  0.00000000E+00  0.00000000E+00
  0.00000000E+00  0.00000000E+00  0.00000000E+00
  0.00000000E+00  0.00000000E+00  0.00000000E+00
  0.00000000E+00  0.00000000E+00  0.00000000E+00
  0.00000000E+00  0.00000000E+00  0.00000000E+00
  0.00000000E+00  0.00000000E+00  0.00000000E+00
  0.00000000E+00  0.00000000E+00  0.00000000E+00
  0.00000000E+00  0.00000000E+00  0.00000000E+00
  0.00000000E+00  0.00000000E+00  0.00000000E+00
  0.00000000E+00  0.00000000E+00  0.00000000E+00
  0.00000000E+00  0.00000000E+00  0.00000000E+00
  0.00000000E+00  0.00000000E+00  0.00000000E+00
  0.00000000E+00  0.00000000E+00  0.00000000E+00
  0.00000000E+00  0.00000000E+00  0.00000000E+00
  0.00000000E+00  0.00000000E+00  0.00000000E+00
  0.00000000E+00  0.00000000E+00  0.00000000E+00
  0.00000000E+00  0.00000000E+00  0.00000000E+00
  0.00000000E+00  0.00000000E+00  0.00000000E+00
  0.00000000E+00  0.00000000E+00  0.00000000E+00
  0.00000000E+00  0.00000000E+00  0.00000000E+00
  0.00000000E+00  0.00000000E+00  0.00000000E+00
  0.00000000E+00  0.00000000E+00  0.00000000E+00
  0.00000000E+00  0.00000000E+00  0.00000000E+00
  0.00000000E+00  0.00000000E+00  0.00000000E+00
  0.00000000E+00  0.00000000E+00  0.00000000E+00
  0.00000000E+00  0.00000000E+00  0.00000000E+00
  0.00000000E+00  0.00000000E+00  0.00000000E+00
  0.00000000E+00  0.00000000E+00  0.00000000E+00
  0.00000000E+00  0.00000000E+00  0.00000000E+00
  0.00000000E+00  0.00000000E+00  0.00000000E+00
  0.00000000E+00  0.00000000E+00  0.00000000E+00
  0.00000000E+00  0.00000000E+00  0.00000000E+00
  0.00000000E+00  0.00000000E+00  0.00000000E+00
  0.00000000E+00  0.00000000E+00  0.00000000E+00
  0.00000000E+00  0.00000000E+00  0.00000000E+00
  0.00000000E+00  0.00000000E+00  0.00000000E+00
  0.00000000E+00  0.00000000E+00  0.00000000E+00
  0.00000000E+00  0.00000000E+00  0.00000000E+00
  0.00000000E+00  0.00000000E+00  0.00000000E+00
  0.00000000E+00  0.00000000E+00  0.00000000E+00
  0.00000000E+00  0.00000000E+00  0.00000000E+00
  0.00000000E+00  0.00000000E+00  0.00000000E+00
  0.00000000E+00  0.00000000E+00  0.00000000E+00
  0.00000000E+00  0.00000000E+00  0.00000000E+00
  0.00000000E+00  0.00000000E+00  0.00000000E+00
  0.00000000E+00  0.00000000E+00  0.00000000E+00
  0.00000000E+00  0.00000000E+00  0.00000000E+00
  0.00000000E+00  0.00000000E+00  0.00000000E+00
  0.00000000E+00  0.00000000E+00  0.00000000E+00
  0.00000000E+00  0.00000000E+00  0.00000000E+00
  0.00000000E+00  0.00000000E+00  0.00000000E+00
  0.00000000E+00  0.00000000E+00  0.00000000E+00
  0.00000000E+00  0.00000000E+00  0.00000000E+00
  0.00000000E+00  0.00000000E+00  0.00000000E+00
  0.00000000E+00  0.00000000E+00  0.00000000E+00
  0.00000000E+00  0.00000000E+00  0.00000000E+00
  0.00000000E+00  0.00000000E+00  0.00000000E+00
  0.00000000E+00  0.00000000E+00  0.00000000E+00
  0.00000000E+00  0.00000000E+00  0.00000000E+00
  0.00000000E+00  0.00000000E+00  0.00000000E+00
  0.00000000E+00  0.00000000E+00  0.00000000E+00
  0.00000000E+00  0.00000000E+00  0.00000000E+00
  0.00000000E+00  0.00000000E+00  0.00000000E+00
  0.00000000E+00  0.00000000E+00  0.00000000E+00
  0.00000000E+00  0.00000000E+00  0.00000000E+00
  0.00000000E+00  0.00000000E+00  0.00000000E+00
  0.00000000E+00  0.00000000E+00  0.00000000E+00
