Bi La Sn O  C  H                        
   1.00000000000000     
    29.0000000000000000    0.0000000000000000    0.0000000000000000
     0.2488180851000000   28.9989325590000000    0.0000000000000000
    -0.0631677343000000   -0.4515975666000000   28.9964147692999994
   Bi   La   Sn   O    C    H 
    22    23    23     2     1     1
Selective dynamics
Direct
  0.7597888501655803  0.4781343085669724  0.3989994630812960   T   T   T
  0.6466618641907338  0.6845596652285437  0.5512554917728435   T   T   T
  0.3602050780886603  0.4581760726093486  0.4286550245905391   T   T   T
  0.5507736552253399  0.7137009441273230  0.5843834835279944   T   T   T
  0.5915029568994470  0.5209714444905416  0.5841479689498996   F   F   F
  0.6393353275969784  0.6797619279338268  0.4452228644842268   T   T   T
  0.6979147627136535  0.5221110914115829  0.6539059600869350   T   T   T
  0.4860399544715683  0.7001727678912393  0.5007572761228194   T   T   T
  0.5004839460855024  0.5502791173970252  0.5477141156400123   F   F   F
  0.3253206850302318  0.4864536631658065  0.5736882461127136   T   T   T
  0.3830727852630253  0.6112646251311122  0.5344140428711199   T   T   T
  0.6667129484492236  0.4827404655721850  0.5105018184570156   F   F   F
  0.5763997220267569  0.4263140504383500  0.5448328182496311   F   F   F
  0.6689343107313429  0.3745564107809893  0.5068176629579606   T   T   T
  0.4640718557934549  0.3386798365656122  0.5003742194642989   T   T   T
  0.6484934028780529  0.5775373212088155  0.4602701624361103   F   F   F
  0.5588105209395189  0.4376455785948535  0.7495699709166149   T   T   T
  0.6055600548192536  0.3508514208055011  0.6680039011960464   T   T   T
  0.4922886040468096  0.2984830097003200  0.4105724932542038   T   T   T
  0.6611892559868625  0.6177770192615142  0.6664764855941401   T   T   T
  0.4921958600945311  0.4095930128836789  0.3063650878357355   T   T   T
  0.6224030318049543  0.3159180647673701  0.5721506088943787   T   T   T
  0.5380247459991576  0.6834345488822354  0.4044355256726760   T   T   T
  0.3909101564433362  0.4148491760813323  0.5276747367036532   T   T   T
  0.6280206550432766  0.5513911466568495  0.2825800576443124   T   T   T
  0.4713363968465230  0.4684910007949551  0.6920636468653925   T   T   T
  0.5683115009887700  0.5094300495444983  0.4784716241115703   F   F   F
  0.4203210565129183  0.5084107200613417  0.5018573595042781   F   F   F
  0.4523570159943822  0.4003661959495866  0.4065143103763660   T   T   T
  0.5626242272940245  0.3482826650419014  0.3544810306308894   T   T   T
  0.4092332825427054  0.5426318966970732  0.6111632310227859   T   T   T
  0.5996555970895437  0.4407762756737838  0.3049831683950801   T   T   T
  0.4550342940508663  0.5996643048683732  0.3626072225291187   T   T   T
  0.4187504977109390  0.4864103811368989  0.3400664994648551   T   T   T
  0.6611767749255026  0.4289870020952813  0.6045914062815453   T   T   T
  0.6737874118891214  0.5787109855142234  0.5638353813700822   T   T   T
  0.5260764782350897  0.5092378890946722  0.3280460993524864   T   T   T
  0.5663041245867393  0.3575925523387957  0.4687319523601368   T   T   T
  0.3163664869930788  0.5429966343162875  0.4909631941304808   T   T   T
  0.6606132583855866  0.4295456689739710  0.4156632639790199   T   T   T
  0.5660841929594156  0.6261437171197244  0.5094829013827464   F   F   F
  0.5978932161003850  0.5280344154977912  0.6896576750691871   T   T   T
  0.4699332510866406  0.6418724695053043  0.5914840013498136   T   T   T
  0.4628259455793307  0.6028909867447906  0.4633298631668710   T   T   T
  0.7162883215534990  0.5737156561039742  0.3829993169941292   T   T   T
  0.5499310510395361  0.5822218838566187  0.4076968008106903   F   F   F
  0.4794126430662260  0.5072205383607624  0.4190535757241776   F   F   F
  0.6951576233535196  0.4804441642046621  0.3244517564743993   T   T   T
  0.7526138409551186  0.4293703756067617  0.4880371193884622   T   T   T
  0.7485707238844634  0.5377293997154005  0.4847882365371300   T   T   T
  0.7495032308594741  0.4909096878291681  0.5719216777426442   T   T   T
  0.6489089573209862  0.4357067444304004  0.7093874114370156   T   T   T
  0.5763797299555573  0.7431718290281805  0.4926898113485060   T   T   T
  0.6192554540844384  0.5183157687966542  0.3801816896793397   F   F   F
  0.5076341767011293  0.5550578052027789  0.6478945601678906   T   T   T
  0.4922009500451665  0.4366758245867572  0.4933013002826740   F   F   F
  0.5608844484509063  0.4404139570509003  0.6454865549417619   F   F   F
  0.5780214926766237  0.6165605200193540  0.6138164242245232   T   T   T
  0.5442656433433356  0.6171296638664719  0.3118277977264997   T   T   T
  0.6272008888702565  0.6250526660221257  0.3598833008854025   T   T   T
  0.3770183608027751  0.5564291948889497  0.4116528556292577   T   T   T
  0.4723078164089713  0.4557257050327763  0.5877273803360978   F   F   F
  0.7271643733753455  0.6346079954881153  0.4840208725940811   T   T   T
  0.5061961229225709  0.3666772451662162  0.6856924276886969   T   T   T
  0.3813199284279858  0.4421362650954815  0.6394680597022646   T   T   T
  0.5544592502646992  0.4379899399457940  0.4037542370104745   F   F   F
  0.4356851510587720  0.3646433545665398  0.6121500145623550   T   T   T
  0.5288948555350990  0.3489884243208383  0.5802553835542464   T   T   T
  0.3840507364061872  0.5948195464567727  0.6730612550076980   T   T   T
  0.4232208071651908  0.6602799185252821  0.6589167738882492   T   T   T
  0.3932904492431570  0.6371064839107102  0.6804266123926455   T   T   T
  0.3734342201793056  0.6554501610363722  0.7079595921284975   T   T   T
 
  0.00000000E+00  0.00000000E+00  0.00000000E+00
  0.00000000E+00  0.00000000E+00  0.00000000E+00
  0.00000000E+00  0.00000000E+00  0.00000000E+00
  0.00000000E+00  0.00000000E+00  0.00000000E+00
  0.00000000E+00  0.00000000E+00  0.00000000E+00
  0.00000000E+00  0.00000000E+00  0.00000000E+00
  0.00000000E+00  0.00000000E+00  0.00000000E+00
  0.00000000E+00  0.00000000E+00  0.00000000E+00
  0.00000000E+00  0.00000000E+00  0.00000000E+00
  0.00000000E+00  0.00000000E+00  0.00000000E+00
  0.00000000E+00  0.00000000E+00  0.00000000E+00
  0.00000000E+00  0.00000000E+00  0.00000000E+00
  0.00000000E+00  0.00000000E+00  0.00000000E+00
  0.00000000E+00  0.00000000E+00  0.00000000E+00
  0.00000000E+00  0.00000000E+00  0.00000000E+00
  0.00000000E+00  0.00000000E+00  0.00000000E+00
  0.00000000E+00  0.00000000E+00  0.00000000E+00
  0.00000000E+00  0.00000000E+00  0.00000000E+00
  0.00000000E+00  0.00000000E+00  0.00000000E+00
  0.00000000E+00  0.00000000E+00  0.00000000E+00
  0.00000000E+00  0.00000000E+00  0.00000000E+00
  0.00000000E+00  0.00000000E+00  0.00000000E+00
  0.00000000E+00  0.00000000E+00  0.00000000E+00
  0.00000000E+00  0.00000000E+00  0.00000000E+00
  0.00000000E+00  0.00000000E+00  0.00000000E+00
  0.00000000E+00  0.00000000E+00  0.00000000E+00
  0.00000000E+00  0.00000000E+00  0.00000000E+00
  0.00000000E+00  0.00000000E+00  0.00000000E+00
  0.00000000E+00  0.00000000E+00  0.00000000E+00
  0.00000000E+00  0.00000000E+00  0.00000000E+00
  0.00000000E+00  0.00000000E+00  0.00000000E+00
  0.00000000E+00  0.00000000E+00  0.00000000E+00
  0.00000000E+00  0.00000000E+00  0.00000000E+00
  0.00000000E+00  0.00000000E+00  0.00000000E+00
  0.00000000E+00  0.00000000E+00  0.00000000E+00
  0.00000000E+00  0.00000000E+00  0.00000000E+00
  0.00000000E+00  0.00000000E+00  0.00000000E+00
  0.00000000E+00  0.00000000E+00  0.00000000E+00
  0.00000000E+00  0.00000000E+00  0.00000000E+00
  0.00000000E+00  0.00000000E+00  0.00000000E+00
  0.00000000E+00  0.00000000E+00  0.00000000E+00
  0.00000000E+00  0.00000000E+00  0.00000000E+00
  0.00000000E+00  0.00000000E+00  0.00000000E+00
  0.00000000E+00  0.00000000E+00  0.00000000E+00
  0.00000000E+00  0.00000000E+00  0.00000000E+00
  0.00000000E+00  0.00000000E+00  0.00000000E+00
  0.00000000E+00  0.00000000E+00  0.00000000E+00
  0.00000000E+00  0.00000000E+00  0.00000000E+00
  0.00000000E+00  0.00000000E+00  0.00000000E+00
  0.00000000E+00  0.00000000E+00  0.00000000E+00
  0.00000000E+00  0.00000000E+00  0.00000000E+00
  0.00000000E+00  0.00000000E+00  0.00000000E+00
  0.00000000E+00  0.00000000E+00  0.00000000E+00
  0.00000000E+00  0.00000000E+00  0.00000000E+00
  0.00000000E+00  0.00000000E+00  0.00000000E+00
  0.00000000E+00  0.00000000E+00  0.00000000E+00
  0.00000000E+00  0.00000000E+00  0.00000000E+00
  0.00000000E+00  0.00000000E+00  0.00000000E+00
  0.00000000E+00  0.00000000E+00  0.00000000E+00
  0.00000000E+00  0.00000000E+00  0.00000000E+00
  0.00000000E+00  0.00000000E+00  0.00000000E+00
  0.00000000E+00  0.00000000E+00  0.00000000E+00
  0.00000000E+00  0.00000000E+00  0.00000000E+00
  0.00000000E+00  0.00000000E+00  0.00000000E+00
  0.00000000E+00  0.00000000E+00  0.00000000E+00
  0.00000000E+00  0.00000000E+00  0.00000000E+00
  0.00000000E+00  0.00000000E+00  0.00000000E+00
  0.00000000E+00  0.00000000E+00  0.00000000E+00
  0.00000000E+00  0.00000000E+00  0.00000000E+00
  0.00000000E+00  0.00000000E+00  0.00000000E+00
  0.00000000E+00  0.00000000E+00  0.00000000E+00
  0.00000000E+00  0.00000000E+00  0.00000000E+00
