Bi La Sn O  C  H                        
   1.00000000000000     
    29.0000000000000000    0.0000000000000000    0.0000000000000000
     0.2488180851000000   28.9989325590000000    0.0000000000000000
    -0.0631677343000000   -0.4515975666000000   28.9964147692999994
   Bi   La   Sn   O    C    H 
    22    23    23     2     1     1
Selective dynamics
Direct
  0.7587175151595676  0.4800204529564064  0.3999157626956409   T   T   T
  0.6471622326531422  0.6852674872502321  0.5499987887072936   T   T   T
  0.3605344650317462  0.4577712007431196  0.4279359063332832   T   T   T
  0.5500363032767759  0.7133264705640742  0.5857454469436023   T   T   T
  0.5915029568994470  0.5209714444905416  0.5841479689498996   F   F   F
  0.6385844148903530  0.6797811665786475  0.4444975613203265   T   T   T
  0.6982555867309161  0.5191124268190067  0.6523449179188018   T   T   T
  0.4851432429116498  0.6994597115792027  0.5027388079672942   T   T   T
  0.5004839460855024  0.5502791173970252  0.5477141156400123   F   F   F
  0.3298732931344577  0.4840394527462687  0.5795794142728821   T   T   T
  0.3838588005056657  0.6098226340988027  0.5380500728546516   T   T   T
  0.6667129484492236  0.4827404655721850  0.5105018184570156   F   F   F
  0.5763997220267569  0.4263140504383500  0.5448328182496311   F   F   F
  0.6683989605365238  0.3741804973482457  0.5056476113746798   T   T   T
  0.4609416809630642  0.3368678720758351  0.4936814272025750   T   T   T
  0.6484934028780529  0.5775373212088155  0.4602701624361103   F   F   F
  0.5547700515326697  0.4330653528795172  0.7497704433775325   T   T   T
  0.5892894053347150  0.3468230544476833  0.6664271869304186   T   T   T
  0.4940773796232976  0.3002533849448441  0.4041373652315414   T   T   T
  0.6624008027362001  0.6140418052654534  0.6692573325094304   T   T   T
  0.4921927127715033  0.4110768073114345  0.3043571280204749   T   T   T
  0.6205191054971684  0.3174339153463036  0.5721500921066656   T   T   T
  0.5367593363715121  0.6835214340874267  0.4058477688021090   T   T   T
  0.3903367855980839  0.4145360701840869  0.5253529381973732   T   T   T
  0.6268882124174263  0.5528081081696474  0.2824529372090968   T   T   T
  0.4732044101985420  0.4814926837353835  0.6957965445313614   T   T   T
  0.5683115009887700  0.5094300495444983  0.4784716241115703   F   F   F
  0.4203210565129183  0.5084107200613417  0.5018573595042781   F   F   F
  0.4529262957029255  0.4016916691204141  0.4044432832611722   T   T   T
  0.5649848207025994  0.3508696560954231  0.3509841117658652   T   T   T
  0.4134046237725731  0.5406057277199887  0.6140330973700603   T   T   T
  0.6000573726037107  0.4417079644961039  0.3047234477718238   T   T   T
  0.4542866829449845  0.5996392397560477  0.3639373837460233   T   T   T
  0.4186628553571379  0.4875216131711584  0.3398406104679308   T   T   T
  0.6601904161724717  0.4254395396393830  0.6048505719286633   T   T   T
  0.6747191468920620  0.5790632284890889  0.5643089890627779   T   T   T
  0.5257161364581799  0.5101849371013928  0.3280097888908815   T   T   T
  0.5651167977016825  0.3567552608395083  0.4689782692689400   T   T   T
  0.3181900253400655  0.5401283092604777  0.4953800737966131   T   T   T
  0.6601661623357070  0.4295480743909021  0.4147775237980140   T   T   T
  0.5660841929594156  0.6261437171197244  0.5094829013827464   F   F   F
  0.6001530423620147  0.5233205294631851  0.6910849251264146   T   T   T
  0.4704670172215916  0.6404224735233239  0.5935303893390570   T   T   T
  0.4619291364187047  0.6027864324445734  0.4644456249579572   T   T   T
  0.7160724601038733  0.5755984614069044  0.3835402802180892   T   T   T
  0.5499310510395361  0.5822218838566187  0.4076968008106903   F   F   F
  0.4794126430662260  0.5072205383607624  0.4190535757241776   F   F   F
  0.6952714660608201  0.4829828338091419  0.3239058243174542   T   T   T
  0.7522126542975643  0.4282420890034347  0.4864010933170937   T   T   T
  0.7485826857346398  0.5391939253909590  0.4862268466331357   T   T   T
  0.7497151664184376  0.4878631259516688  0.5708262444337117   T   T   T
  0.6438268469635824  0.4248088473207159  0.7093646069661037   T   T   T
  0.5756696290297396  0.7426101151540919  0.4938472744383286   T   T   T
  0.6192554540844384  0.5183157687966542  0.3801816896793397   F   F   F
  0.5145673825770108  0.5581367174346566  0.6461330953253858   T   T   T
  0.4922009500451665  0.4366758245867572  0.4933013002826740   F   F   F
  0.5608844484509063  0.4404139570509003  0.6454865549417619   F   F   F
  0.5819075810099273  0.6190100299042203  0.6131133065915244   T   T   T
  0.5429871376648288  0.6182646736056662  0.3126981343560928   T   T   T
  0.6264654935687598  0.6257984561054571  0.3595703958273160   T   T   T
  0.3755801402636662  0.5563908843931108  0.4132532755479432   T   T   T
  0.4723078164089713  0.4557257050327763  0.5877273803360978   F   F   F
  0.7265759817286238  0.6359758079543943  0.4838175773439288   T   T   T
  0.4905562723328638  0.3790293014811537  0.6755627142706526   T   T   T
  0.3901862759465565  0.4349097760505486  0.6412289285637657   T   T   T
  0.5544592502646992  0.4379899399457940  0.4037542370104745   F   F   F
  0.4302540116734950  0.3529601639081414  0.6002923577120358   T   T   T
  0.5248218929227050  0.3493791551612593  0.5741274339034976   T   T   T
  0.4203181266184203  0.6173053690953598  0.6657836849300542   T   T   T
  0.4179164357567691  0.5512396974004226  0.7057581358234876   T   T   T
  0.4165849209300230  0.5953397482812149  0.7033496520105958   T   T   T
  0.4120039604106545  0.6152871162342316  0.7359047296036593   T   T   T
 
  0.00000000E+00  0.00000000E+00  0.00000000E+00
  0.00000000E+00  0.00000000E+00  0.00000000E+00
  0.00000000E+00  0.00000000E+00  0.00000000E+00
  0.00000000E+00  0.00000000E+00  0.00000000E+00
  0.00000000E+00  0.00000000E+00  0.00000000E+00
  0.00000000E+00  0.00000000E+00  0.00000000E+00
  0.00000000E+00  0.00000000E+00  0.00000000E+00
  0.00000000E+00  0.00000000E+00  0.00000000E+00
  0.00000000E+00  0.00000000E+00  0.00000000E+00
  0.00000000E+00  0.00000000E+00  0.00000000E+00
  0.00000000E+00  0.00000000E+00  0.00000000E+00
  0.00000000E+00  0.00000000E+00  0.00000000E+00
  0.00000000E+00  0.00000000E+00  0.00000000E+00
  0.00000000E+00  0.00000000E+00  0.00000000E+00
  0.00000000E+00  0.00000000E+00  0.00000000E+00
  0.00000000E+00  0.00000000E+00  0.00000000E+00
  0.00000000E+00  0.00000000E+00  0.00000000E+00
  0.00000000E+00  0.00000000E+00  0.00000000E+00
  0.00000000E+00  0.00000000E+00  0.00000000E+00
  0.00000000E+00  0.00000000E+00  0.00000000E+00
  0.00000000E+00  0.00000000E+00  0.00000000E+00
  0.00000000E+00  0.00000000E+00  0.00000000E+00
  0.00000000E+00  0.00000000E+00  0.00000000E+00
  0.00000000E+00  0.00000000E+00  0.00000000E+00
  0.00000000E+00  0.00000000E+00  0.00000000E+00
  0.00000000E+00  0.00000000E+00  0.00000000E+00
  0.00000000E+00  0.00000000E+00  0.00000000E+00
  0.00000000E+00  0.00000000E+00  0.00000000E+00
  0.00000000E+00  0.00000000E+00  0.00000000E+00
  0.00000000E+00  0.00000000E+00  0.00000000E+00
  0.00000000E+00  0.00000000E+00  0.00000000E+00
  0.00000000E+00  0.00000000E+00  0.00000000E+00
  0.00000000E+00  0.00000000E+00  0.00000000E+00
  0.00000000E+00  0.00000000E+00  0.00000000E+00
  0.00000000E+00  0.00000000E+00  0.00000000E+00
  0.00000000E+00  0.00000000E+00  0.00000000E+00
  0.00000000E+00  0.00000000E+00  0.00000000E+00
  0.00000000E+00  0.00000000E+00  0.00000000E+00
  0.00000000E+00  0.00000000E+00  0.00000000E+00
  0.00000000E+00  0.00000000E+00  0.00000000E+00
  0.00000000E+00  0.00000000E+00  0.00000000E+00
  0.00000000E+00  0.00000000E+00  0.00000000E+00
  0.00000000E+00  0.00000000E+00  0.00000000E+00
  0.00000000E+00  0.00000000E+00  0.00000000E+00
  0.00000000E+00  0.00000000E+00  0.00000000E+00
  0.00000000E+00  0.00000000E+00  0.00000000E+00
  0.00000000E+00  0.00000000E+00  0.00000000E+00
  0.00000000E+00  0.00000000E+00  0.00000000E+00
  0.00000000E+00  0.00000000E+00  0.00000000E+00
  0.00000000E+00  0.00000000E+00  0.00000000E+00
  0.00000000E+00  0.00000000E+00  0.00000000E+00
  0.00000000E+00  0.00000000E+00  0.00000000E+00
  0.00000000E+00  0.00000000E+00  0.00000000E+00
  0.00000000E+00  0.00000000E+00  0.00000000E+00
  0.00000000E+00  0.00000000E+00  0.00000000E+00
  0.00000000E+00  0.00000000E+00  0.00000000E+00
  0.00000000E+00  0.00000000E+00  0.00000000E+00
  0.00000000E+00  0.00000000E+00  0.00000000E+00
  0.00000000E+00  0.00000000E+00  0.00000000E+00
  0.00000000E+00  0.00000000E+00  0.00000000E+00
  0.00000000E+00  0.00000000E+00  0.00000000E+00
  0.00000000E+00  0.00000000E+00  0.00000000E+00
  0.00000000E+00  0.00000000E+00  0.00000000E+00
  0.00000000E+00  0.00000000E+00  0.00000000E+00
  0.00000000E+00  0.00000000E+00  0.00000000E+00
  0.00000000E+00  0.00000000E+00  0.00000000E+00
  0.00000000E+00  0.00000000E+00  0.00000000E+00
  0.00000000E+00  0.00000000E+00  0.00000000E+00
  0.00000000E+00  0.00000000E+00  0.00000000E+00
  0.00000000E+00  0.00000000E+00  0.00000000E+00
  0.00000000E+00  0.00000000E+00  0.00000000E+00
  0.00000000E+00  0.00000000E+00  0.00000000E+00
