Bi La Sn O  C  H                        
   1.00000000000000     
    29.0000000000000000    0.0000000000000000    0.0000000000000000
     0.2488180851000000   28.9989325590000000    0.0000000000000000
    -0.0631677343000000   -0.4515975666000000   28.9964147692999994
   Bi   La   Sn   O    C    H 
    22    23    23     2     1     1
Selective dynamics
Direct
  0.7603141405966553  0.4787357864311836  0.3999523757520540   T   T   T
  0.6461012468192174  0.6842972999679682  0.5535220013888672   T   T   T
  0.3565866036600298  0.4595078015889442  0.4313909810665666   T   T   T
  0.5499566067661277  0.7130990843234084  0.5853084322916408   T   T   T
  0.5915029568994470  0.5209714444905416  0.5841479689498996   F   F   F
  0.6401451953962473  0.6813952242510237  0.4469153613196870   T   T   T
  0.6956650196596321  0.5230343661016881  0.6549813993266281   T   T   T
  0.4856405917887953  0.7005726761855193  0.5003782325787514   T   T   T
  0.5004839460855024  0.5502791173970252  0.5477141156400123   F   F   F
  0.3244436578607127  0.4860916266986240  0.5722978703857011   T   T   T
  0.3827308343806115  0.6115702053081635  0.5344620521380695   T   T   T
  0.6667129484492236  0.4827404655721850  0.5105018184570156   F   F   F
  0.5763997220267569  0.4263140504383500  0.5448328182496311   F   F   F
  0.6697287354980116  0.3744387259424563  0.5059010347385273   T   T   T
  0.4645846974222302  0.3375830236632074  0.5010795937016564   T   T   T
  0.6484934028780529  0.5775373212088155  0.4602701624361103   F   F   F
  0.5579186933627950  0.4377390330662219  0.7499081571759100   T   T   T
  0.6072666744085335  0.3517044480734625  0.6692599068883588   T   T   T
  0.4939089667861029  0.2986038276700911  0.4112060806510917   T   T   T
  0.6592230471702163  0.6190906050677994  0.6660084591886736   T   T   T
  0.4991113986872743  0.4089964750532074  0.3128817438873449   T   T   T
  0.6227752032481533  0.3171650993469297  0.5726659883727175   T   T   T
  0.5387892425186561  0.6837991069516459  0.4053480798202926   T   T   T
  0.3913971453463701  0.4144752801636206  0.5282646126237420   T   T   T
  0.6316521354065157  0.5539860088740415  0.2834836731303176   T   T   T
  0.4705377661852044  0.4687175598284912  0.6910501008972267   T   T   T
  0.5683115009887700  0.5094300495444983  0.4784716241115703   F   F   F
  0.4203210565129183  0.5084107200613417  0.5018573595042781   F   F   F
  0.4498305291797899  0.3987235693291084  0.4082445693422423   T   T   T
  0.5687371208775558  0.3460609893164553  0.3583251738025036   T   T   T
  0.4098293624004579  0.5404327126211684  0.6087400323583245   T   T   T
  0.6010679737665747  0.4437392590736571  0.3046028441563416   T   T   T
  0.4557848062728814  0.5992948190473146  0.3617991521170430   T   T   T
  0.4146250148418445  0.4812305044896574  0.3408904291537824   T   T   T
  0.6612592090150339  0.4289286640957631  0.6043330171983038   T   T   T
  0.6729050259705004  0.5786130399917001  0.5640938121508490   T   T   T
  0.5269857652651371  0.5104490390698717  0.3274358652323507   T   T   T
  0.5668940377886094  0.3582821469889992  0.4690229411991906   T   T   T
  0.3150838573754585  0.5446045976382744  0.4909464088509746   T   T   T
  0.6608703648672407  0.4299318434012739  0.4153319692966981   T   T   T
  0.5660841929594156  0.6261437171197244  0.5094829013827464   F   F   F
  0.5949304458722017  0.5293924281533520  0.6897367028819100   T   T   T
  0.4698636388048182  0.6412051504754193  0.5889339064273738   T   T   T
  0.4629590931112813  0.6033379040576929  0.4630529388322181   T   T   T
  0.7172280414927090  0.5744969869572020  0.3839917697662044   T   T   T
  0.5499310510395361  0.5822218838566187  0.4076968008106903   F   F   F
  0.4794126430662260  0.5072205383607624  0.4190535757241776   F   F   F
  0.6969324529692388  0.4811029330712470  0.3252570855515972   T   T   T
  0.7527519942852197  0.4304046439379431  0.4891946199503947   T   T   T
  0.7483529988075416  0.5386138365730724  0.4861228614078147   T   T   T
  0.7485053780110167  0.4920298159112027  0.5734906077385046   T   T   T
  0.6483830806977096  0.4386524957902245  0.7093993864797148   T   T   T
  0.5757336897502051  0.7430531152370941  0.4939843428739483   T   T   T
  0.6192554540844384  0.5183157687966542  0.3801816896793397   F   F   F
  0.5036496923805235  0.5583712878069591  0.6502621883445396   T   T   T
  0.4922009500451665  0.4366758245867572  0.4933013002826740   F   F   F
  0.5608844484509063  0.4404139570509003  0.6454865549417619   F   F   F
  0.5762141400368493  0.6156158481853301  0.6138215366564066   T   T   T
  0.5463456806034983  0.6182027116939510  0.3125242555812431   T   T   T
  0.6280885919301138  0.6258954801495545  0.3623163553983370   T   T   T
  0.3775233995551701  0.5558158882399253  0.4115838205290050   T   T   T
  0.4723078164089713  0.4557257050327763  0.5877273803360978   F   F   F
  0.7267529076529550  0.6354345726942988  0.4854793486605790   T   T   T
  0.5075638013055310  0.3672999642235084  0.6860556273755291   T   T   T
  0.3791161555812450  0.4425292438169975  0.6396697936223448   T   T   T
  0.5544592502646992  0.4379899399457940  0.4037542370104745   F   F   F
  0.4360440488850937  0.3662670662306619  0.6141853572047284   T   T   T
  0.5290453502334975  0.3491575326312612  0.5810511015681211   T   T   T
  0.3788880605770273  0.4295320128918410  0.2806219369775541   T   T   T
  0.3913124347065716  0.3901586217906834  0.3457317277786666   T   T   T
  0.3776135315674212  0.3927052280753938  0.3037025742885950   T   T   T
  0.3643646975064196  0.3607431435864774  0.2871776970578322   T   T   T
 
  0.00000000E+00  0.00000000E+00  0.00000000E+00
  0.00000000E+00  0.00000000E+00  0.00000000E+00
  0.00000000E+00  0.00000000E+00  0.00000000E+00
  0.00000000E+00  0.00000000E+00  0.00000000E+00
  0.00000000E+00  0.00000000E+00  0.00000000E+00
  0.00000000E+00  0.00000000E+00  0.00000000E+00
  0.00000000E+00  0.00000000E+00  0.00000000E+00
  0.00000000E+00  0.00000000E+00  0.00000000E+00
  0.00000000E+00  0.00000000E+00  0.00000000E+00
  0.00000000E+00  0.00000000E+00  0.00000000E+00
  0.00000000E+00  0.00000000E+00  0.00000000E+00
  0.00000000E+00  0.00000000E+00  0.00000000E+00
  0.00000000E+00  0.00000000E+00  0.00000000E+00
  0.00000000E+00  0.00000000E+00  0.00000000E+00
  0.00000000E+00  0.00000000E+00  0.00000000E+00
  0.00000000E+00  0.00000000E+00  0.00000000E+00
  0.00000000E+00  0.00000000E+00  0.00000000E+00
  0.00000000E+00  0.00000000E+00  0.00000000E+00
  0.00000000E+00  0.00000000E+00  0.00000000E+00
  0.00000000E+00  0.00000000E+00  0.00000000E+00
  0.00000000E+00  0.00000000E+00  0.00000000E+00
  0.00000000E+00  0.00000000E+00  0.00000000E+00
  0.00000000E+00  0.00000000E+00  0.00000000E+00
  0.00000000E+00  0.00000000E+00  0.00000000E+00
  0.00000000E+00  0.00000000E+00  0.00000000E+00
  0.00000000E+00  0.00000000E+00  0.00000000E+00
  0.00000000E+00  0.00000000E+00  0.00000000E+00
  0.00000000E+00  0.00000000E+00  0.00000000E+00
  0.00000000E+00  0.00000000E+00  0.00000000E+00
  0.00000000E+00  0.00000000E+00  0.00000000E+00
  0.00000000E+00  0.00000000E+00  0.00000000E+00
  0.00000000E+00  0.00000000E+00  0.00000000E+00
  0.00000000E+00  0.00000000E+00  0.00000000E+00
  0.00000000E+00  0.00000000E+00  0.00000000E+00
  0.00000000E+00  0.00000000E+00  0.00000000E+00
  0.00000000E+00  0.00000000E+00  0.00000000E+00
  0.00000000E+00  0.00000000E+00  0.00000000E+00
  0.00000000E+00  0.00000000E+00  0.00000000E+00
  0.00000000E+00  0.00000000E+00  0.00000000E+00
  0.00000000E+00  0.00000000E+00  0.00000000E+00
  0.00000000E+00  0.00000000E+00  0.00000000E+00
  0.00000000E+00  0.00000000E+00  0.00000000E+00
  0.00000000E+00  0.00000000E+00  0.00000000E+00
  0.00000000E+00  0.00000000E+00  0.00000000E+00
  0.00000000E+00  0.00000000E+00  0.00000000E+00
  0.00000000E+00  0.00000000E+00  0.00000000E+00
  0.00000000E+00  0.00000000E+00  0.00000000E+00
  0.00000000E+00  0.00000000E+00  0.00000000E+00
  0.00000000E+00  0.00000000E+00  0.00000000E+00
  0.00000000E+00  0.00000000E+00  0.00000000E+00
  0.00000000E+00  0.00000000E+00  0.00000000E+00
  0.00000000E+00  0.00000000E+00  0.00000000E+00
  0.00000000E+00  0.00000000E+00  0.00000000E+00
  0.00000000E+00  0.00000000E+00  0.00000000E+00
  0.00000000E+00  0.00000000E+00  0.00000000E+00
  0.00000000E+00  0.00000000E+00  0.00000000E+00
  0.00000000E+00  0.00000000E+00  0.00000000E+00
  0.00000000E+00  0.00000000E+00  0.00000000E+00
  0.00000000E+00  0.00000000E+00  0.00000000E+00
  0.00000000E+00  0.00000000E+00  0.00000000E+00
  0.00000000E+00  0.00000000E+00  0.00000000E+00
  0.00000000E+00  0.00000000E+00  0.00000000E+00
  0.00000000E+00  0.00000000E+00  0.00000000E+00
  0.00000000E+00  0.00000000E+00  0.00000000E+00
  0.00000000E+00  0.00000000E+00  0.00000000E+00
  0.00000000E+00  0.00000000E+00  0.00000000E+00
  0.00000000E+00  0.00000000E+00  0.00000000E+00
  0.00000000E+00  0.00000000E+00  0.00000000E+00
  0.00000000E+00  0.00000000E+00  0.00000000E+00
  0.00000000E+00  0.00000000E+00  0.00000000E+00
  0.00000000E+00  0.00000000E+00  0.00000000E+00
  0.00000000E+00  0.00000000E+00  0.00000000E+00
