Bi La Sn O  C  H                        
   1.00000000000000     
    29.0000000000000000    0.0000000000000000    0.0000000000000000
     0.2488180851000000   28.9989325590000000    0.0000000000000000
    -0.0631677343000000   -0.4515975666000000   28.9964147692999994
   Bi   La   Sn   O    C    H 
    22    23    23     2     1     1
Selective dynamics
Direct
  0.7611593461345398  0.4746163352090171  0.3992760109005912   T   T   T
  0.6470450572126244  0.6832335752195522  0.5535618079071033   T   T   T
  0.3601480963252426  0.4593393441992140  0.4274573297770733   T   T   T
  0.5512987632629625  0.7132635096274730  0.5847294225269701   T   T   T
  0.5915029568994470  0.5209714444905416  0.5841479689498996   F   F   F
  0.6412980747687127  0.6806159608121978  0.4473842045516401   T   T   T
  0.6967275934376879  0.5232228267831571  0.6535546289929673   T   T   T
  0.4868331619409964  0.7016516671929994  0.4995950434934838   T   T   T
  0.5004839460855024  0.5502791173970252  0.5477141156400123   F   F   F
  0.3249686618113044  0.4871995134528118  0.5736966386765781   T   T   T
  0.3826113725707118  0.6114744970836770  0.5348374377886761   T   T   T
  0.6667129484492236  0.4827404655721850  0.5105018184570156   F   F   F
  0.5763997220267569  0.4263140504383500  0.5448328182496311   F   F   F
  0.6676452895465580  0.3740265010224723  0.5069718978209986   T   T   T
  0.4629725264941896  0.3388385622903338  0.4996564022798116   T   T   T
  0.6484934028780529  0.5775373212088155  0.4602701624361103   F   F   F
  0.5582937879565887  0.4381390858836922  0.7495719983305635   T   T   T
  0.6028800906261483  0.3516248905900879  0.6693629140152183   T   T   T
  0.4917412068966190  0.2993497417500851  0.4094304283693213   T   T   T
  0.6602139876630940  0.6191651910524913  0.6652925807032232   T   T   T
  0.4925416117650817  0.4103352553758823  0.3068307868329421   T   T   T
  0.6213903549693258  0.3163136525911782  0.5733681093603425   T   T   T
  0.5401182157597958  0.6838866613420936  0.4049913546843620   T   T   T
  0.3904838526951550  0.4160476927942855  0.5269869081194771   T   T   T
  0.6306698861406160  0.5522409431284832  0.2834581100437686   T   T   T
  0.4713693202760892  0.4718900388445881  0.6918371564168385   T   T   T
  0.5683115009887700  0.5094300495444983  0.4784716241115703   F   F   F
  0.4203210565129183  0.5084107200613417  0.5018573595042781   F   F   F
  0.4521386996781065  0.4010492791762184  0.4065759376651446   T   T   T
  0.5635822168871547  0.3483394226305591  0.3543577487632096   T   T   T
  0.4109523205769532  0.5409268003289659  0.6092774829359399   T   T   T
  0.5991325572281720  0.4422705646589292  0.3047442685522302   T   T   T
  0.4558296714073390  0.6008072781017935  0.3621319589114976   T   T   T
  0.4190722869682773  0.4874867444056238  0.3388701257407685   T   T   T
  0.6615356918117498  0.4285444897923574  0.6044698784772087   T   T   T
  0.6746642735939764  0.5774841149587613  0.5633786813946595   T   T   T
  0.5267207167464497  0.5098955303037791  0.3278745744580417   T   T   T
  0.5653257123861322  0.3573057081037059  0.4689796172949861   T   T   T
  0.3164361173382463  0.5432288653466878  0.4904469454331021   T   T   T
  0.6599945191297730  0.4292901787015904  0.4162994443409606   T   T   T
  0.5660841929594156  0.6261437171197244  0.5094829013827464   F   F   F
  0.5962631852148211  0.5291847540733051  0.6893543556626283   T   T   T
  0.4704595433617835  0.6418704959728282  0.5882180955597888   T   T   T
  0.4634341428300999  0.6036402222088006  0.4640721904284665   T   T   T
  0.7179392236277666  0.5710762463222618  0.3845198873890283   T   T   T
  0.5499310510395361  0.5822218838566187  0.4076968008106903   F   F   F
  0.4794126430662260  0.5072205383607624  0.4190535757241776   F   F   F
  0.6956199811918705  0.4793023599327330  0.3258709991883928   T   T   T
  0.7517995904853815  0.4275803812045791  0.4896330823263647   T   T   T
  0.7538063022872782  0.5359893378199159  0.4852555893991677   T   T   T
  0.7489817622548726  0.4880065963049099  0.5721105141898145   T   T   T
  0.6478601505513073  0.4371928367682547  0.7085668957018015   T   T   T
  0.5775535656169197  0.7433242013182431  0.4935350409999204   T   T   T
  0.6192554540844384  0.5183157687966542  0.3801816896793397   F   F   F
  0.5050253520722493  0.5602782535503220  0.6501710030271447   T   T   T
  0.4922009500451665  0.4366758245867572  0.4933013002826740   F   F   F
  0.5608844484509063  0.4404139570509003  0.6454865549417619   F   F   F
  0.5772895519430157  0.6160593031614872  0.6132728253112882   T   T   T
  0.5470773391251570  0.6177406489344092  0.3134693774609380   T   T   T
  0.6299795212988061  0.6247726345695983  0.3624615898402354   T   T   T
  0.3783920129190608  0.5569280767478691  0.4116821339633847   T   T   T
  0.4723078164089713  0.4557257050327763  0.5877273803360978   F   F   F
  0.7289019955363037  0.6319668975619436  0.4838868011869162   T   T   T
  0.5029206551542545  0.3694349176884967  0.6850374555918548   T   T   T
  0.3810618240598961  0.4423134625735891  0.6393207790185542   T   T   T
  0.5544592502646992  0.4379899399457940  0.4037542370104745   F   F   F
  0.4336930301387745  0.3637384385522029  0.6108236785594578   T   T   T
  0.5276043043460282  0.3497072119503436  0.5799142036313063   T   T   T
  0.8387098541780399  0.4618843414211477  0.4677503324708697   T   T   T
  0.8312314891200822  0.5370681612007173  0.4920591676901253   T   T   T
  0.8538521566667242  0.4990919427792078  0.4840054093911145   T   T   T
  0.8911284611358296  0.5009909821884272  0.4932300184115476   T   T   T
 
  0.00000000E+00  0.00000000E+00  0.00000000E+00
  0.00000000E+00  0.00000000E+00  0.00000000E+00
  0.00000000E+00  0.00000000E+00  0.00000000E+00
  0.00000000E+00  0.00000000E+00  0.00000000E+00
  0.00000000E+00  0.00000000E+00  0.00000000E+00
  0.00000000E+00  0.00000000E+00  0.00000000E+00
  0.00000000E+00  0.00000000E+00  0.00000000E+00
  0.00000000E+00  0.00000000E+00  0.00000000E+00
  0.00000000E+00  0.00000000E+00  0.00000000E+00
  0.00000000E+00  0.00000000E+00  0.00000000E+00
  0.00000000E+00  0.00000000E+00  0.00000000E+00
  0.00000000E+00  0.00000000E+00  0.00000000E+00
  0.00000000E+00  0.00000000E+00  0.00000000E+00
  0.00000000E+00  0.00000000E+00  0.00000000E+00
  0.00000000E+00  0.00000000E+00  0.00000000E+00
  0.00000000E+00  0.00000000E+00  0.00000000E+00
  0.00000000E+00  0.00000000E+00  0.00000000E+00
  0.00000000E+00  0.00000000E+00  0.00000000E+00
  0.00000000E+00  0.00000000E+00  0.00000000E+00
  0.00000000E+00  0.00000000E+00  0.00000000E+00
  0.00000000E+00  0.00000000E+00  0.00000000E+00
  0.00000000E+00  0.00000000E+00  0.00000000E+00
  0.00000000E+00  0.00000000E+00  0.00000000E+00
  0.00000000E+00  0.00000000E+00  0.00000000E+00
  0.00000000E+00  0.00000000E+00  0.00000000E+00
  0.00000000E+00  0.00000000E+00  0.00000000E+00
  0.00000000E+00  0.00000000E+00  0.00000000E+00
  0.00000000E+00  0.00000000E+00  0.00000000E+00
  0.00000000E+00  0.00000000E+00  0.00000000E+00
  0.00000000E+00  0.00000000E+00  0.00000000E+00
  0.00000000E+00  0.00000000E+00  0.00000000E+00
  0.00000000E+00  0.00000000E+00  0.00000000E+00
  0.00000000E+00  0.00000000E+00  0.00000000E+00
  0.00000000E+00  0.00000000E+00  0.00000000E+00
  0.00000000E+00  0.00000000E+00  0.00000000E+00
  0.00000000E+00  0.00000000E+00  0.00000000E+00
  0.00000000E+00  0.00000000E+00  0.00000000E+00
  0.00000000E+00  0.00000000E+00  0.00000000E+00
  0.00000000E+00  0.00000000E+00  0.00000000E+00
  0.00000000E+00  0.00000000E+00  0.00000000E+00
  0.00000000E+00  0.00000000E+00  0.00000000E+00
  0.00000000E+00  0.00000000E+00  0.00000000E+00
  0.00000000E+00  0.00000000E+00  0.00000000E+00
  0.00000000E+00  0.00000000E+00  0.00000000E+00
  0.00000000E+00  0.00000000E+00  0.00000000E+00
  0.00000000E+00  0.00000000E+00  0.00000000E+00
  0.00000000E+00  0.00000000E+00  0.00000000E+00
  0.00000000E+00  0.00000000E+00  0.00000000E+00
  0.00000000E+00  0.00000000E+00  0.00000000E+00
  0.00000000E+00  0.00000000E+00  0.00000000E+00
  0.00000000E+00  0.00000000E+00  0.00000000E+00
  0.00000000E+00  0.00000000E+00  0.00000000E+00
  0.00000000E+00  0.00000000E+00  0.00000000E+00
  0.00000000E+00  0.00000000E+00  0.00000000E+00
  0.00000000E+00  0.00000000E+00  0.00000000E+00
  0.00000000E+00  0.00000000E+00  0.00000000E+00
  0.00000000E+00  0.00000000E+00  0.00000000E+00
  0.00000000E+00  0.00000000E+00  0.00000000E+00
  0.00000000E+00  0.00000000E+00  0.00000000E+00
  0.00000000E+00  0.00000000E+00  0.00000000E+00
  0.00000000E+00  0.00000000E+00  0.00000000E+00
  0.00000000E+00  0.00000000E+00  0.00000000E+00
  0.00000000E+00  0.00000000E+00  0.00000000E+00
  0.00000000E+00  0.00000000E+00  0.00000000E+00
  0.00000000E+00  0.00000000E+00  0.00000000E+00
  0.00000000E+00  0.00000000E+00  0.00000000E+00
  0.00000000E+00  0.00000000E+00  0.00000000E+00
  0.00000000E+00  0.00000000E+00  0.00000000E+00
  0.00000000E+00  0.00000000E+00  0.00000000E+00
  0.00000000E+00  0.00000000E+00  0.00000000E+00
  0.00000000E+00  0.00000000E+00  0.00000000E+00
  0.00000000E+00  0.00000000E+00  0.00000000E+00
