Bi La Sn O  C  H                        
   1.00000000000000     
    29.0000000000000000    0.0000000000000000    0.0000000000000000
     0.2488180851000000   28.9989325590000000    0.0000000000000000
    -0.0631677343000000   -0.4515975666000000   28.9964147692999994
   Bi   La   Sn   O    C    H 
    22    23    23     2     1     1
Selective dynamics
Direct
  0.7585741210282736  0.4833930584455030  0.4010575216817937   T   T   T
  0.6464797764889472  0.6852819687513249  0.5507983846920986   T   T   T
  0.3608634170104028  0.4578967017393118  0.4279022344358708   T   T   T
  0.5495600302242928  0.7136556351982519  0.5843213384025845   T   T   T
  0.5915029568994470  0.5209714444905416  0.5841479689498996   F   F   F
  0.6397909887319454  0.6794806210594565  0.4439667437535151   T   T   T
  0.6952999325116711  0.5216020256907368  0.6532539348506584   T   T   T
  0.4860310462199830  0.7016208208142739  0.4999596993179559   T   T   T
  0.5004839460855024  0.5502791173970252  0.5477141156400123   F   F   F
  0.3256564799931811  0.4853636910673301  0.5761967008481427   T   T   T
  0.3819483310343258  0.6093951782387083  0.5357675996846060   T   T   T
  0.6667129484492236  0.4827404655721850  0.5105018184570156   F   F   F
  0.5763997220267569  0.4263140504383500  0.5448328182496311   F   F   F
  0.6691982006221769  0.3744245955121349  0.5065171739476394   T   T   T
  0.4629581780807379  0.3386001988187649  0.4979771644938171   T   T   T
  0.6484934028780529  0.5775373212088155  0.4602701624361103   F   F   F
  0.5571286025983181  0.4354700593570079  0.7497675154772788   T   T   T
  0.5998975058520806  0.3497994196517862  0.6674106365970340   T   T   T
  0.4936161832350884  0.2992799603911341  0.4084261840586828   T   T   T
  0.6595695113247220  0.6171913699152622  0.6673824815304253   T   T   T
  0.4929135487234365  0.4104267858594000  0.3056058794669427   T   T   T
  0.6224177039844503  0.3158771396942857  0.5723350260498300   T   T   T
  0.5378306285305635  0.6837310060348097  0.4048035502145533   T   T   T
  0.3902416753544823  0.4152445354848591  0.5265657550624452   T   T   T
  0.6257974758991074  0.5530383320947962  0.2815459169742028   T   T   T
  0.4721453254592181  0.4740241978166224  0.6922188850981920   T   T   T
  0.5683115009887700  0.5094300495444983  0.4784716241115703   F   F   F
  0.4203210565129183  0.5084107200613417  0.5018573595042781   F   F   F
  0.4529937758398844  0.4008524995897131  0.4055466571977654   T   T   T
  0.5645962937355090  0.3492709610756285  0.3534226310162387   T   T   T
  0.4115377069531628  0.5394888187070804  0.6106607093068120   T   T   T
  0.6004572318007709  0.4417034292507441  0.3056823178610448   T   T   T
  0.4542732595301682  0.6001832228216383  0.3638737600547828   T   T   T
  0.4190011890847790  0.4873694668885175  0.3393130499025962   T   T   T
  0.6612210649040080  0.4271836913139445  0.6041610742073367   T   T   T
  0.6725758152600964  0.5791893170088448  0.5640965798268813   T   T   T
  0.5255984865202885  0.5098866349774731  0.3279245288300807   T   T   T
  0.5663067687695720  0.3571886089104491  0.4691957876967412   T   T   T
  0.3156641947280480  0.5401548430305468  0.4920852972627275   T   T   T
  0.6607043159439261  0.4295436938027832  0.4149259480360386   T   T   T
  0.5660841929594156  0.6261437171197244  0.5094829013827464   F   F   F
  0.5956753491371608  0.5275732716805280  0.6900921499488678   T   T   T
  0.4697738332789806  0.6416768479570250  0.5882714866803901   T   T   T
  0.4634293787417079  0.6033002618053614  0.4644258841607548   T   T   T
  0.7193189902549827  0.5821073649027082  0.3836909558456767   T   T   T
  0.5499310510395361  0.5822218838566187  0.4076968008106903   F   F   F
  0.4794126430662260  0.5072205383607624  0.4190535757241776   F   F   F
  0.6954275316305951  0.4863951006888504  0.3256283807508364   T   T   T
  0.7517352841141438  0.4303887139770287  0.4868096173775431   T   T   T
  0.7474296319351186  0.5418640612435186  0.4862997249814044   T   T   T
  0.7487602439378831  0.4904886920178155  0.5716911760061978   T   T   T
  0.6468219447894245  0.4340585187966464  0.7084566267780081   T   T   T
  0.5769933152026188  0.7428606274948464  0.4928550026493788   T   T   T
  0.6192554540844384  0.5183157687966542  0.3801816896793397   F   F   F
  0.5057784516294141  0.5612742985796016  0.6501589666067926   T   T   T
  0.4922009500451665  0.4366758245867572  0.4933013002826740   F   F   F
  0.5608844484509063  0.4404139570509003  0.6454865549417619   F   F   F
  0.5774793415032368  0.6168220460403597  0.6134516854084262   T   T   T
  0.5425341005265252  0.6181407423912463  0.3118887654084541   T   T   T
  0.6258745675676173  0.6251414165519461  0.3594556073037335   T   T   T
  0.3765181690630826  0.5564352125720995  0.4129125479962942   T   T   T
  0.4723078164089713  0.4557257050327763  0.5877273803360978   F   F   F
  0.7264186320068712  0.6391129136635759  0.4837879824075408   T   T   T
  0.5007031678481015  0.3709252949697154  0.6825239810133430   T   T   T
  0.3832308598680438  0.4390953305633804  0.6399819550767307   T   T   T
  0.5544592502646992  0.4379899399457940  0.4037542370104745   F   F   F
  0.4345303325496287  0.3611210850816784  0.6068916787374735   T   T   T
  0.5284339164769135  0.3485167147561822  0.5777137935436718   T   T   T
  0.7670374018310785  0.6453330288890443  0.3730522152612304   T   T   T
  0.7810122125945161  0.6939982296733475  0.4342262701046139   T   T   T
  0.7839684159072338  0.6820818104293990  0.3927459116943282   T   T   T
  0.8030424650668974  0.7048826528606893  0.3689634601135418   T   T   T
 
  0.00000000E+00  0.00000000E+00  0.00000000E+00
  0.00000000E+00  0.00000000E+00  0.00000000E+00
  0.00000000E+00  0.00000000E+00  0.00000000E+00
  0.00000000E+00  0.00000000E+00  0.00000000E+00
  0.00000000E+00  0.00000000E+00  0.00000000E+00
  0.00000000E+00  0.00000000E+00  0.00000000E+00
  0.00000000E+00  0.00000000E+00  0.00000000E+00
  0.00000000E+00  0.00000000E+00  0.00000000E+00
  0.00000000E+00  0.00000000E+00  0.00000000E+00
  0.00000000E+00  0.00000000E+00  0.00000000E+00
  0.00000000E+00  0.00000000E+00  0.00000000E+00
  0.00000000E+00  0.00000000E+00  0.00000000E+00
  0.00000000E+00  0.00000000E+00  0.00000000E+00
  0.00000000E+00  0.00000000E+00  0.00000000E+00
  0.00000000E+00  0.00000000E+00  0.00000000E+00
  0.00000000E+00  0.00000000E+00  0.00000000E+00
  0.00000000E+00  0.00000000E+00  0.00000000E+00
  0.00000000E+00  0.00000000E+00  0.00000000E+00
  0.00000000E+00  0.00000000E+00  0.00000000E+00
  0.00000000E+00  0.00000000E+00  0.00000000E+00
  0.00000000E+00  0.00000000E+00  0.00000000E+00
  0.00000000E+00  0.00000000E+00  0.00000000E+00
  0.00000000E+00  0.00000000E+00  0.00000000E+00
  0.00000000E+00  0.00000000E+00  0.00000000E+00
  0.00000000E+00  0.00000000E+00  0.00000000E+00
  0.00000000E+00  0.00000000E+00  0.00000000E+00
  0.00000000E+00  0.00000000E+00  0.00000000E+00
  0.00000000E+00  0.00000000E+00  0.00000000E+00
  0.00000000E+00  0.00000000E+00  0.00000000E+00
  0.00000000E+00  0.00000000E+00  0.00000000E+00
  0.00000000E+00  0.00000000E+00  0.00000000E+00
  0.00000000E+00  0.00000000E+00  0.00000000E+00
  0.00000000E+00  0.00000000E+00  0.00000000E+00
  0.00000000E+00  0.00000000E+00  0.00000000E+00
  0.00000000E+00  0.00000000E+00  0.00000000E+00
  0.00000000E+00  0.00000000E+00  0.00000000E+00
  0.00000000E+00  0.00000000E+00  0.00000000E+00
  0.00000000E+00  0.00000000E+00  0.00000000E+00
  0.00000000E+00  0.00000000E+00  0.00000000E+00
  0.00000000E+00  0.00000000E+00  0.00000000E+00
  0.00000000E+00  0.00000000E+00  0.00000000E+00
  0.00000000E+00  0.00000000E+00  0.00000000E+00
  0.00000000E+00  0.00000000E+00  0.00000000E+00
  0.00000000E+00  0.00000000E+00  0.00000000E+00
  0.00000000E+00  0.00000000E+00  0.00000000E+00
  0.00000000E+00  0.00000000E+00  0.00000000E+00
  0.00000000E+00  0.00000000E+00  0.00000000E+00
  0.00000000E+00  0.00000000E+00  0.00000000E+00
  0.00000000E+00  0.00000000E+00  0.00000000E+00
  0.00000000E+00  0.00000000E+00  0.00000000E+00
  0.00000000E+00  0.00000000E+00  0.00000000E+00
  0.00000000E+00  0.00000000E+00  0.00000000E+00
  0.00000000E+00  0.00000000E+00  0.00000000E+00
  0.00000000E+00  0.00000000E+00  0.00000000E+00
  0.00000000E+00  0.00000000E+00  0.00000000E+00
  0.00000000E+00  0.00000000E+00  0.00000000E+00
  0.00000000E+00  0.00000000E+00  0.00000000E+00
  0.00000000E+00  0.00000000E+00  0.00000000E+00
  0.00000000E+00  0.00000000E+00  0.00000000E+00
  0.00000000E+00  0.00000000E+00  0.00000000E+00
  0.00000000E+00  0.00000000E+00  0.00000000E+00
  0.00000000E+00  0.00000000E+00  0.00000000E+00
  0.00000000E+00  0.00000000E+00  0.00000000E+00
  0.00000000E+00  0.00000000E+00  0.00000000E+00
  0.00000000E+00  0.00000000E+00  0.00000000E+00
  0.00000000E+00  0.00000000E+00  0.00000000E+00
  0.00000000E+00  0.00000000E+00  0.00000000E+00
  0.00000000E+00  0.00000000E+00  0.00000000E+00
  0.00000000E+00  0.00000000E+00  0.00000000E+00
  0.00000000E+00  0.00000000E+00  0.00000000E+00
  0.00000000E+00  0.00000000E+00  0.00000000E+00
  0.00000000E+00  0.00000000E+00  0.00000000E+00
