Bi La Sn O  C  H                        
   1.00000000000000     
    29.0000000000000000    0.0000000000000000    0.0000000000000000
     0.2488180851000000   28.9989325590000000    0.0000000000000000
    -0.0631677343000000   -0.4515975666000000   28.9964147692999994
   Bi   La   Sn   O    C    H 
    22    23    23     2     1     1
Selective dynamics
Direct
  0.7593867539648852  0.4790115004559909  0.3990244159534341   T   T   T
  0.6476489067897732  0.6853136487710175  0.5502162577201952   T   T   T
  0.3601048077363258  0.4570803052333309  0.4287600695152664   T   T   T
  0.5512910288127059  0.7135492387551012  0.5838043769458524   T   T   T
  0.5915029568994470  0.5209714444905416  0.5841479689498996   F   F   F
  0.6400624428747252  0.6802856816582505  0.4450862403502488   T   T   T
  0.6947705678905062  0.5199237296968064  0.6539464197767506   T   T   T
  0.4871830312821923  0.7014077084466238  0.4980524558338200   T   T   T
  0.5004839460855024  0.5502791173970252  0.5477141156400123   F   F   F
  0.3300025049763271  0.4826625053556129  0.5792141827015467   T   T   T
  0.3822442270242736  0.6075559429299715  0.5380334532530888   T   T   T
  0.6667129484492236  0.4827404655721850  0.5105018184570156   F   F   F
  0.5763997220267569  0.4263140504383500  0.5448328182496311   F   F   F
  0.6697296255603153  0.3739349714634717  0.5076521960864764   T   T   T
  0.4627058601030157  0.3364656267473945  0.4932215519318920   T   T   T
  0.6484934028780529  0.5775373212088155  0.4602701624361103   F   F   F
  0.5527465622150748  0.4328799898848440  0.7487789400178892   T   T   T
  0.5908267019043647  0.3492657145153782  0.6670137400419527   T   T   T
  0.4949274413269252  0.3007289852779167  0.4036270743100412   T   T   T
  0.6609267883254266  0.6157092719547009  0.6684170549149966   T   T   T
  0.4924914063540458  0.4106622881912929  0.3048639212994989   T   T   T
  0.6197809892467887  0.3174743297653518  0.5729397527741112   T   T   T
  0.5395046298221445  0.6837522264537180  0.4040381554430050   T   T   T
  0.3914820411479072  0.4133088253053692  0.5262694650980589   T   T   T
  0.6275860101486027  0.5524041308482753  0.2823144989036099   T   T   T
  0.4738394427265836  0.4817319706899738  0.6921928886061719   T   T   T
  0.5683115009887700  0.5094300495444983  0.4784716241115703   F   F   F
  0.4203210565129183  0.5084107200613417  0.5018573595042781   F   F   F
  0.4528614115148788  0.4015680357580511  0.4044738842040380   T   T   T
  0.5664890165817390  0.3503030005765348  0.3509573928027745   T   T   T
  0.4137911372651842  0.5386137678511730  0.6132893570521336   T   T   T
  0.5988245973362859  0.4430035455679547  0.3047842829271762   T   T   T
  0.4539568527562567  0.5997026215087519  0.3640393336063040   T   T   T
  0.4183664391363444  0.4868076016933447  0.3405683911460663   T   T   T
  0.6602469603683440  0.4262687963684740  0.6051509808832454   T   T   T
  0.6740176389697721  0.5790588473900704  0.5643081022933029   T   T   T
  0.5253309143484935  0.5100182118020609  0.3278038845736617   T   T   T
  0.5667200283061838  0.3567827215911327  0.4688971126494795   T   T   T
  0.3157998347901846  0.5375690846364790  0.4949019689404608   T   T   T
  0.6603660517679205  0.4292278039244625  0.4157009777611154   T   T   T
  0.5660841929594156  0.6261437171197244  0.5094829013827464   F   F   F
  0.5951232874522105  0.5267116546548501  0.6902616921280851   T   T   T
  0.4701626323263653  0.6430340251102428  0.5868572900552682   T   T   T
  0.4621888548460029  0.6032696027315354  0.4639779447079152   T   T   T
  0.7163485380851640  0.5746439094135413  0.3833149651870856   T   T   T
  0.5499310510395361  0.5822218838566187  0.4076968008106903   F   F   F
  0.4794126430662260  0.5072205383607624  0.4190535757241776   F   F   F
  0.6949913240922895  0.4814640121119823  0.3244852768010037   T   T   T
  0.7520719403707867  0.4299212011297106  0.4875821648911561   T   T   T
  0.7483928539664793  0.5386195630227165  0.4855396787498394   T   T   T
  0.7486331091120468  0.4902220533430455  0.5723807568873577   T   T   T
  0.6433580344122513  0.4310891065098094  0.7096718018162346   T   T   T
  0.5773739693135913  0.7439543829032529  0.4925775208597685   T   T   T
  0.6192554540844384  0.5183157687966542  0.3801816896793397   F   F   F
  0.5078055973430448  0.5667899049568029  0.6499016019328796   T   T   T
  0.4922009500451665  0.4366758245867572  0.4933013002826740   F   F   F
  0.5608844484509063  0.4404139570509003  0.6454865549417619   F   F   F
  0.5802691534410088  0.6178205603519942  0.6128148796731663   T   T   T
  0.5434910632668556  0.6176739625989635  0.3124612360540156   T   T   T
  0.6269366535123237  0.6250292895355614  0.3602659744899638   T   T   T
  0.3753446941839601  0.5564419631740657  0.4144001521366789   T   T   T
  0.4723078164089713  0.4557257050327763  0.5877273803360978   F   F   F
  0.7274543352645375  0.6355428522556871  0.4838408154744030   T   T   T
  0.4890891109640094  0.3783480685684213  0.6726470333733795   T   T   T
  0.3906317785524523  0.4331463035182715  0.6409808303152661   T   T   T
  0.5544592502646992  0.4379899399457940  0.4037542370104745   F   F   F
  0.4275588224217340  0.3487051227409778  0.5979195946694057   T   T   T
  0.5242270847252505  0.3484504726374497  0.5752881927536193   T   T   T
  0.4273591446857766  0.2746072985926998  0.6201853211557017   T   T   T
  0.4975509683805495  0.2636453691289724  0.5854396394290229   T   T   T
  0.4626080653638777  0.2503749645060946  0.6068767437539223   T   T   T
  0.4606477171479542  0.2132482855081655  0.6158575340278460   T   T   T
 
  0.00000000E+00  0.00000000E+00  0.00000000E+00
  0.00000000E+00  0.00000000E+00  0.00000000E+00
  0.00000000E+00  0.00000000E+00  0.00000000E+00
  0.00000000E+00  0.00000000E+00  0.00000000E+00
  0.00000000E+00  0.00000000E+00  0.00000000E+00
  0.00000000E+00  0.00000000E+00  0.00000000E+00
  0.00000000E+00  0.00000000E+00  0.00000000E+00
  0.00000000E+00  0.00000000E+00  0.00000000E+00
  0.00000000E+00  0.00000000E+00  0.00000000E+00
  0.00000000E+00  0.00000000E+00  0.00000000E+00
  0.00000000E+00  0.00000000E+00  0.00000000E+00
  0.00000000E+00  0.00000000E+00  0.00000000E+00
  0.00000000E+00  0.00000000E+00  0.00000000E+00
  0.00000000E+00  0.00000000E+00  0.00000000E+00
  0.00000000E+00  0.00000000E+00  0.00000000E+00
  0.00000000E+00  0.00000000E+00  0.00000000E+00
  0.00000000E+00  0.00000000E+00  0.00000000E+00
  0.00000000E+00  0.00000000E+00  0.00000000E+00
  0.00000000E+00  0.00000000E+00  0.00000000E+00
  0.00000000E+00  0.00000000E+00  0.00000000E+00
  0.00000000E+00  0.00000000E+00  0.00000000E+00
  0.00000000E+00  0.00000000E+00  0.00000000E+00
  0.00000000E+00  0.00000000E+00  0.00000000E+00
  0.00000000E+00  0.00000000E+00  0.00000000E+00
  0.00000000E+00  0.00000000E+00  0.00000000E+00
  0.00000000E+00  0.00000000E+00  0.00000000E+00
  0.00000000E+00  0.00000000E+00  0.00000000E+00
  0.00000000E+00  0.00000000E+00  0.00000000E+00
  0.00000000E+00  0.00000000E+00  0.00000000E+00
  0.00000000E+00  0.00000000E+00  0.00000000E+00
  0.00000000E+00  0.00000000E+00  0.00000000E+00
  0.00000000E+00  0.00000000E+00  0.00000000E+00
  0.00000000E+00  0.00000000E+00  0.00000000E+00
  0.00000000E+00  0.00000000E+00  0.00000000E+00
  0.00000000E+00  0.00000000E+00  0.00000000E+00
  0.00000000E+00  0.00000000E+00  0.00000000E+00
  0.00000000E+00  0.00000000E+00  0.00000000E+00
  0.00000000E+00  0.00000000E+00  0.00000000E+00
  0.00000000E+00  0.00000000E+00  0.00000000E+00
  0.00000000E+00  0.00000000E+00  0.00000000E+00
  0.00000000E+00  0.00000000E+00  0.00000000E+00
  0.00000000E+00  0.00000000E+00  0.00000000E+00
  0.00000000E+00  0.00000000E+00  0.00000000E+00
  0.00000000E+00  0.00000000E+00  0.00000000E+00
  0.00000000E+00  0.00000000E+00  0.00000000E+00
  0.00000000E+00  0.00000000E+00  0.00000000E+00
  0.00000000E+00  0.00000000E+00  0.00000000E+00
  0.00000000E+00  0.00000000E+00  0.00000000E+00
  0.00000000E+00  0.00000000E+00  0.00000000E+00
  0.00000000E+00  0.00000000E+00  0.00000000E+00
  0.00000000E+00  0.00000000E+00  0.00000000E+00
  0.00000000E+00  0.00000000E+00  0.00000000E+00
  0.00000000E+00  0.00000000E+00  0.00000000E+00
  0.00000000E+00  0.00000000E+00  0.00000000E+00
  0.00000000E+00  0.00000000E+00  0.00000000E+00
  0.00000000E+00  0.00000000E+00  0.00000000E+00
  0.00000000E+00  0.00000000E+00  0.00000000E+00
  0.00000000E+00  0.00000000E+00  0.00000000E+00
  0.00000000E+00  0.00000000E+00  0.00000000E+00
  0.00000000E+00  0.00000000E+00  0.00000000E+00
  0.00000000E+00  0.00000000E+00  0.00000000E+00
  0.00000000E+00  0.00000000E+00  0.00000000E+00
  0.00000000E+00  0.00000000E+00  0.00000000E+00
  0.00000000E+00  0.00000000E+00  0.00000000E+00
  0.00000000E+00  0.00000000E+00  0.00000000E+00
  0.00000000E+00  0.00000000E+00  0.00000000E+00
  0.00000000E+00  0.00000000E+00  0.00000000E+00
  0.00000000E+00  0.00000000E+00  0.00000000E+00
  0.00000000E+00  0.00000000E+00  0.00000000E+00
  0.00000000E+00  0.00000000E+00  0.00000000E+00
  0.00000000E+00  0.00000000E+00  0.00000000E+00
  0.00000000E+00  0.00000000E+00  0.00000000E+00
