Bi La Sn O  C  H                        
   1.00000000000000     
    29.0000000000000000    0.0000000000000000    0.0000000000000000
     0.2488180851000000   28.9989325590000000    0.0000000000000000
    -0.0631677343000000   -0.4515975666000000   28.9964147692999994
   Bi   La   Sn   O    C    H 
    22    23    23     2     1     1
Selective dynamics
Direct
  0.7600761045120514  0.4766066202486740  0.3988897484105386   T   T   T
  0.6487335300164991  0.6834915772537485  0.5506247209360154   T   T   T
  0.3602270771534468  0.4589029647665547  0.4271114829409068   T   T   T
  0.5527814360848403  0.7134567458649689  0.5835408225785106   T   T   T
  0.5915029568994470  0.5209714444905416  0.5841479689498996   F   F   F
  0.6415641558489664  0.6799028717271756  0.4456090609991106   T   T   T
  0.6940980502546450  0.5177044884262403  0.6554098636163505   T   T   T
  0.4877769759468823  0.7021959737950503  0.4976106876246257   T   T   T
  0.5004839460855024  0.5502791173970252  0.5477141156400123   F   F   F
  0.3279351908744254  0.4850206811869590  0.5787539418304506   T   T   T
  0.3828088913895953  0.6086622631353649  0.5376958712299181   T   T   T
  0.6667129484492236  0.4827404655721850  0.5105018184570156   F   F   F
  0.5763997220267569  0.4263140504383500  0.5448328182496311   F   F   F
  0.6670627138780985  0.3731702884246425  0.5064073294998727   T   T   T
  0.4596132072726276  0.3377029128725338  0.4935978366702030   T   T   T
  0.6484934028780529  0.5775373212088155  0.4602701624361103   F   F   F
  0.5525925594270403  0.4339968445271951  0.7494366632079847   T   T   T
  0.5891251461879864  0.3476874676740779  0.6655093230725138   T   T   T
  0.4919186943481056  0.3000610266536554  0.4043332745605681   T   T   T
  0.6612823867132841  0.6138363526810329  0.6689240471886628   T   T   T
  0.4905798342492294  0.4118538729035296  0.3030534287907679   T   T   T
  0.6176597064246782  0.3151498107568246  0.5708793571141146   T   T   T
  0.5410954195900164  0.6837532500901321  0.4040799443622884   T   T   T
  0.3890588894824745  0.4157511658169906  0.5249610244547553   T   T   T
  0.6279387457283714  0.5515736539554235  0.2822565894626404   T   T   T
  0.4729083997520982  0.4819053089513162  0.6924546689060228   T   T   T
  0.5683115009887700  0.5094300495444983  0.4784716241115703   F   F   F
  0.4203210565129183  0.5084107200613417  0.5018573595042781   F   F   F
  0.4525470560543198  0.4022968439059828  0.4038925427317780   T   T   T
  0.5623117500240931  0.3507328152606158  0.3504137733342498   T   T   T
  0.4133170667610582  0.5391494111918799  0.6123487801039402   T   T   T
  0.5988645541414431  0.4424119762945234  0.3045611260118221   T   T   T
  0.4548482560152090  0.6007191216421860  0.3639369515499652   T   T   T
  0.4184376004686574  0.4890774696439452  0.3393523254912532   T   T   T
  0.6625096311609944  0.4232056738109660  0.6049586595572130   T   T   T
  0.6753104294455017  0.5776257175864213  0.5649856165644602   T   T   T
  0.5258051778632923  0.5097383706230467  0.3280715269365177   T   T   T
  0.5640178706356701  0.3564020629842842  0.4686714151719785   T   T   T
  0.3161691700083645  0.5396859654012363  0.4939607560595973   T   T   T
  0.6600715671369117  0.4293202903295782  0.4155746924954842   T   T   T
  0.5660841929594156  0.6261437171197244  0.5094829013827464   F   F   F
  0.5946459245522635  0.5262097745616656  0.6905133133802716   T   T   T
  0.4710763273908002  0.6436348152180555  0.5866712162567879   T   T   T
  0.4627664163520790  0.6037574887519976  0.4640977836775516   T   T   T
  0.7167796460874840  0.5727160214350321  0.3834071574967111   T   T   T
  0.5499310510395361  0.5822218838566187  0.4076968008106903   F   F   F
  0.4794126430662260  0.5072205383607624  0.4190535757241776   F   F   F
  0.6950805370230874  0.4805636781392968  0.3246521395171995   T   T   T
  0.7506439892109674  0.4279994926581396  0.4885995075190805   T   T   T
  0.7479618719000134  0.5361135394698745  0.4844459177719559   T   T   T
  0.7504206891210911  0.4871128540717236  0.5728934995479070   T   T   T
  0.6421040277392162  0.4290362806321654  0.7090325604793093   T   T   T
  0.5784674657815926  0.7436069946930817  0.4925120190253691   T   T   T
  0.6192554540844384  0.5183157687966542  0.3801816896793397   F   F   F
  0.5075929115196139  0.5665114802069177  0.6498430273966671   T   T   T
  0.4922009500451665  0.4366758245867572  0.4933013002826740   F   F   F
  0.5608844484509063  0.4404139570509003  0.6454865549417619   F   F   F
  0.5806282828868354  0.6173545449433963  0.6128357698269026   T   T   T
  0.5444135586989405  0.6171011060970020  0.3123702736671151   T   T   T
  0.6278425508237345  0.6243297911005929  0.3603315842638106   T   T   T
  0.3761941197941425  0.5579138391236691  0.4139578645466493   T   T   T
  0.4723078164089713  0.4557257050327763  0.5877273803360978   F   F   F
  0.7287815514891480  0.6332765172256875  0.4838036118196880   T   T   T
  0.4896244047220517  0.3791342884000992  0.6746150794528526   T   T   T
  0.3883099525919658  0.4360813363477778  0.6402395247414994   T   T   T
  0.5544592502646992  0.4379899399457940  0.4037542370104745   F   F   F
  0.4282240816121909  0.3540522183526185  0.5998104395652094   T   T   T
  0.5232483562765204  0.3500428832516930  0.5737408757806668   T   T   T
  0.7314243386339534  0.3893644512902896  0.6300973267239286   T   T   T
  0.7934618739170292  0.4368501091889337  0.6333193807947332   T   T   T
  0.7736756650086214  0.3992109191644990  0.6399961756984809   T   T   T
  0.7938194384989321  0.3707279266123704  0.6559303720275281   T   T   T
 
  0.00000000E+00  0.00000000E+00  0.00000000E+00
  0.00000000E+00  0.00000000E+00  0.00000000E+00
  0.00000000E+00  0.00000000E+00  0.00000000E+00
  0.00000000E+00  0.00000000E+00  0.00000000E+00
  0.00000000E+00  0.00000000E+00  0.00000000E+00
  0.00000000E+00  0.00000000E+00  0.00000000E+00
  0.00000000E+00  0.00000000E+00  0.00000000E+00
  0.00000000E+00  0.00000000E+00  0.00000000E+00
  0.00000000E+00  0.00000000E+00  0.00000000E+00
  0.00000000E+00  0.00000000E+00  0.00000000E+00
  0.00000000E+00  0.00000000E+00  0.00000000E+00
  0.00000000E+00  0.00000000E+00  0.00000000E+00
  0.00000000E+00  0.00000000E+00  0.00000000E+00
  0.00000000E+00  0.00000000E+00  0.00000000E+00
  0.00000000E+00  0.00000000E+00  0.00000000E+00
  0.00000000E+00  0.00000000E+00  0.00000000E+00
  0.00000000E+00  0.00000000E+00  0.00000000E+00
  0.00000000E+00  0.00000000E+00  0.00000000E+00
  0.00000000E+00  0.00000000E+00  0.00000000E+00
  0.00000000E+00  0.00000000E+00  0.00000000E+00
  0.00000000E+00  0.00000000E+00  0.00000000E+00
  0.00000000E+00  0.00000000E+00  0.00000000E+00
  0.00000000E+00  0.00000000E+00  0.00000000E+00
  0.00000000E+00  0.00000000E+00  0.00000000E+00
  0.00000000E+00  0.00000000E+00  0.00000000E+00
  0.00000000E+00  0.00000000E+00  0.00000000E+00
  0.00000000E+00  0.00000000E+00  0.00000000E+00
  0.00000000E+00  0.00000000E+00  0.00000000E+00
  0.00000000E+00  0.00000000E+00  0.00000000E+00
  0.00000000E+00  0.00000000E+00  0.00000000E+00
  0.00000000E+00  0.00000000E+00  0.00000000E+00
  0.00000000E+00  0.00000000E+00  0.00000000E+00
  0.00000000E+00  0.00000000E+00  0.00000000E+00
  0.00000000E+00  0.00000000E+00  0.00000000E+00
  0.00000000E+00  0.00000000E+00  0.00000000E+00
  0.00000000E+00  0.00000000E+00  0.00000000E+00
  0.00000000E+00  0.00000000E+00  0.00000000E+00
  0.00000000E+00  0.00000000E+00  0.00000000E+00
  0.00000000E+00  0.00000000E+00  0.00000000E+00
  0.00000000E+00  0.00000000E+00  0.00000000E+00
  0.00000000E+00  0.00000000E+00  0.00000000E+00
  0.00000000E+00  0.00000000E+00  0.00000000E+00
  0.00000000E+00  0.00000000E+00  0.00000000E+00
  0.00000000E+00  0.00000000E+00  0.00000000E+00
  0.00000000E+00  0.00000000E+00  0.00000000E+00
  0.00000000E+00  0.00000000E+00  0.00000000E+00
  0.00000000E+00  0.00000000E+00  0.00000000E+00
  0.00000000E+00  0.00000000E+00  0.00000000E+00
  0.00000000E+00  0.00000000E+00  0.00000000E+00
  0.00000000E+00  0.00000000E+00  0.00000000E+00
  0.00000000E+00  0.00000000E+00  0.00000000E+00
  0.00000000E+00  0.00000000E+00  0.00000000E+00
  0.00000000E+00  0.00000000E+00  0.00000000E+00
  0.00000000E+00  0.00000000E+00  0.00000000E+00
  0.00000000E+00  0.00000000E+00  0.00000000E+00
  0.00000000E+00  0.00000000E+00  0.00000000E+00
  0.00000000E+00  0.00000000E+00  0.00000000E+00
  0.00000000E+00  0.00000000E+00  0.00000000E+00
  0.00000000E+00  0.00000000E+00  0.00000000E+00
  0.00000000E+00  0.00000000E+00  0.00000000E+00
  0.00000000E+00  0.00000000E+00  0.00000000E+00
  0.00000000E+00  0.00000000E+00  0.00000000E+00
  0.00000000E+00  0.00000000E+00  0.00000000E+00
  0.00000000E+00  0.00000000E+00  0.00000000E+00
  0.00000000E+00  0.00000000E+00  0.00000000E+00
  0.00000000E+00  0.00000000E+00  0.00000000E+00
  0.00000000E+00  0.00000000E+00  0.00000000E+00
  0.00000000E+00  0.00000000E+00  0.00000000E+00
  0.00000000E+00  0.00000000E+00  0.00000000E+00
  0.00000000E+00  0.00000000E+00  0.00000000E+00
  0.00000000E+00  0.00000000E+00  0.00000000E+00
  0.00000000E+00  0.00000000E+00  0.00000000E+00
