Bi La Sn O  C  H                        
   1.00000000000000     
    29.0000000000000000    0.0000000000000000    0.0000000000000000
     0.2488180851000000   28.9989325590000000    0.0000000000000000
    -0.0631677343000000   -0.4515975666000000   28.9964147692999994
   Bi   La   Sn   O    C    H 
    22    23    23     2     1     1
Selective dynamics
Direct
  0.7595606682312529  0.4773774357264887  0.4016954860007881   T   T   T
  0.6462269404019868  0.6848087508706997  0.5513873888560569   T   T   T
  0.3600352937887799  0.4587874771628248  0.4282653688186056   T   T   T
  0.5496349334321917  0.7135063406790467  0.5846871612346261   T   T   T
  0.5915029568994470  0.5209714444905416  0.5841479689498996   F   F   F
  0.6384985662885732  0.6803439175950213  0.4444875758909393   T   T   T
  0.6969833250465306  0.5234412306034066  0.6531846791511794   T   T   T
  0.4854429075474466  0.7010037866586682  0.5007694803085582   T   T   T
  0.5004839460855024  0.5502791173970252  0.5477141156400123   F   F   F
  0.3249575393014427  0.4865968586456160  0.5747808247571610   T   T   T
  0.3825039992974584  0.6106949260399552  0.5352920520570268   T   T   T
  0.6667129484492236  0.4827404655721850  0.5105018184570156   F   F   F
  0.5763997220267569  0.4263140504383500  0.5448328182496311   F   F   F
  0.6682016491044421  0.3741638944972341  0.5069241394300162   T   T   T
  0.4631941987470543  0.3389006867220177  0.5002062778538598   T   T   T
  0.6484934028780529  0.5775373212088155  0.4602701624361103   F   F   F
  0.5591487299634297  0.4371705613618580  0.7494995867216545   T   T   T
  0.6041057836309668  0.3516926734756109  0.6692941892255297   T   T   T
  0.4917994809769337  0.2990811581883183  0.4102548548786649   T   T   T
  0.6598872693580169  0.6189656399411095  0.6657915073328329   T   T   T
  0.4927231324596217  0.4103308787057083  0.3071671367503969   T   T   T
  0.6216244727268787  0.3163027888224840  0.5732931544708026   T   T   T
  0.5370541251378878  0.6837609676675471  0.4047024666958355   T   T   T
  0.3904325748295067  0.4157563348508566  0.5277963987610237   T   T   T
  0.6287418502807777  0.5518936387838000  0.2824034870151014   T   T   T
  0.4714549411696641  0.4702344072177214  0.6920495843590805   T   T   T
  0.5683115009887700  0.5094300495444983  0.4784716241115703   F   F   F
  0.4203210565129183  0.5084107200613417  0.5018573595042781   F   F   F
  0.4520941615911295  0.4007642497414045  0.4069186213985868   T   T   T
  0.5631382809355885  0.3480897178559564  0.3544093860198074   T   T   T
  0.4108850824075519  0.5403850377979970  0.6098443595448324   T   T   T
  0.5996251011876345  0.4422657047261352  0.3052834001633086   T   T   T
  0.4549073182839748  0.6000066217978931  0.3621681512386357   T   T   T
  0.4186342305388666  0.4872067075824725  0.3394112859893903   T   T   T
  0.6615694545052259  0.4289728973710712  0.6044587552114206   T   T   T
  0.6732344505043609  0.5787003946367254  0.5635832081114817   T   T   T
  0.5263913718550403  0.5096626722444649  0.3278699300026660   T   T   T
  0.5655273426622339  0.3574150643015755  0.4690667941279450   T   T   T
  0.3161686032306377  0.5423262281544051  0.4912338676483708   T   T   T
  0.6597281180348279  0.4290845526178222  0.4159306162512707   T   T   T
  0.5660841929594156  0.6261437171197244  0.5094829013827464   F   F   F
  0.5967206870987062  0.5286953630234543  0.6896390371314794   T   T   T
  0.4701283845290388  0.6412188691585867  0.5891245073720641   T   T   T
  0.4633057855898960  0.6035421748798726  0.4642046787137389   T   T   T
  0.7208647026962287  0.5755250513119265  0.3845187420698160   T   T   T
  0.5499310510395361  0.5822218838566187  0.4076968008106903   F   F   F
  0.4794126430662260  0.5072205383607624  0.4190535757241776   F   F   F
  0.6958811490172628  0.4820149208866182  0.3264168412015110   T   T   T
  0.7514167897262169  0.4282676433544115  0.4889812537685252   T   T   T
  0.7506670221538196  0.5397090991091913  0.4847323788312420   T   T   T
  0.7499317630357052  0.4908873710789624  0.5711096596539874   T   T   T
  0.6486286282165635  0.4370790424905296  0.7084819391018629   T   T   T
  0.5759281940774814  0.7427313972260912  0.4930651962663577   T   T   T
  0.6192554540844384  0.5183157687966542  0.3801816896793397   F   F   F
  0.5055581189248411  0.5585100525008182  0.6499358306777957   T   T   T
  0.4922009500451665  0.4366758245867572  0.4933013002826740   F   F   F
  0.5608844484509063  0.4404139570509003  0.6454865549417619   F   F   F
  0.5769209965534413  0.6163093908356782  0.6136645114650764   T   T   T
  0.5455158229287294  0.6180116355455634  0.3131370154303937   T   T   T
  0.6293430138935274  0.6239775392690921  0.3602808096462206   T   T   T
  0.3774406354736781  0.5566750884130660  0.4121473417320067   T   T   T
  0.4723078164089713  0.4557257050327763  0.5877273803360978   F   F   F
  0.7251028165896856  0.6365084650000774  0.4856024087182828   T   T   T
  0.5042667437042950  0.3680818346053267  0.6857110835923472   T   T   T
  0.3806775834358803  0.4418145472927982  0.6405071852491435   T   T   T
  0.5544592502646992  0.4379899399457940  0.4037542370104745   F   F   F
  0.4346101351376980  0.3645937725242548  0.6116772316435090   T   T   T
  0.5280410724677708  0.3493845863765509  0.5802737619397221   T   T   T
  0.7998777816422510  0.5928332113004665  0.3905655246655346   T   T   T
  0.8311191995903358  0.5674586814291007  0.4581630630770841   T   T   T
  0.8328731569000601  0.5873644322574536  0.4200408105343916   T   T   T
  0.8664472704993603  0.6021756208573613  0.4094940521388431   T   T   T
 
  0.00000000E+00  0.00000000E+00  0.00000000E+00
  0.00000000E+00  0.00000000E+00  0.00000000E+00
  0.00000000E+00  0.00000000E+00  0.00000000E+00
  0.00000000E+00  0.00000000E+00  0.00000000E+00
  0.00000000E+00  0.00000000E+00  0.00000000E+00
  0.00000000E+00  0.00000000E+00  0.00000000E+00
  0.00000000E+00  0.00000000E+00  0.00000000E+00
  0.00000000E+00  0.00000000E+00  0.00000000E+00
  0.00000000E+00  0.00000000E+00  0.00000000E+00
  0.00000000E+00  0.00000000E+00  0.00000000E+00
  0.00000000E+00  0.00000000E+00  0.00000000E+00
  0.00000000E+00  0.00000000E+00  0.00000000E+00
  0.00000000E+00  0.00000000E+00  0.00000000E+00
  0.00000000E+00  0.00000000E+00  0.00000000E+00
  0.00000000E+00  0.00000000E+00  0.00000000E+00
  0.00000000E+00  0.00000000E+00  0.00000000E+00
  0.00000000E+00  0.00000000E+00  0.00000000E+00
  0.00000000E+00  0.00000000E+00  0.00000000E+00
  0.00000000E+00  0.00000000E+00  0.00000000E+00
  0.00000000E+00  0.00000000E+00  0.00000000E+00
  0.00000000E+00  0.00000000E+00  0.00000000E+00
  0.00000000E+00  0.00000000E+00  0.00000000E+00
  0.00000000E+00  0.00000000E+00  0.00000000E+00
  0.00000000E+00  0.00000000E+00  0.00000000E+00
  0.00000000E+00  0.00000000E+00  0.00000000E+00
  0.00000000E+00  0.00000000E+00  0.00000000E+00
  0.00000000E+00  0.00000000E+00  0.00000000E+00
  0.00000000E+00  0.00000000E+00  0.00000000E+00
  0.00000000E+00  0.00000000E+00  0.00000000E+00
  0.00000000E+00  0.00000000E+00  0.00000000E+00
  0.00000000E+00  0.00000000E+00  0.00000000E+00
  0.00000000E+00  0.00000000E+00  0.00000000E+00
  0.00000000E+00  0.00000000E+00  0.00000000E+00
  0.00000000E+00  0.00000000E+00  0.00000000E+00
  0.00000000E+00  0.00000000E+00  0.00000000E+00
  0.00000000E+00  0.00000000E+00  0.00000000E+00
  0.00000000E+00  0.00000000E+00  0.00000000E+00
  0.00000000E+00  0.00000000E+00  0.00000000E+00
  0.00000000E+00  0.00000000E+00  0.00000000E+00
  0.00000000E+00  0.00000000E+00  0.00000000E+00
  0.00000000E+00  0.00000000E+00  0.00000000E+00
  0.00000000E+00  0.00000000E+00  0.00000000E+00
  0.00000000E+00  0.00000000E+00  0.00000000E+00
  0.00000000E+00  0.00000000E+00  0.00000000E+00
  0.00000000E+00  0.00000000E+00  0.00000000E+00
  0.00000000E+00  0.00000000E+00  0.00000000E+00
  0.00000000E+00  0.00000000E+00  0.00000000E+00
  0.00000000E+00  0.00000000E+00  0.00000000E+00
  0.00000000E+00  0.00000000E+00  0.00000000E+00
  0.00000000E+00  0.00000000E+00  0.00000000E+00
  0.00000000E+00  0.00000000E+00  0.00000000E+00
  0.00000000E+00  0.00000000E+00  0.00000000E+00
  0.00000000E+00  0.00000000E+00  0.00000000E+00
  0.00000000E+00  0.00000000E+00  0.00000000E+00
  0.00000000E+00  0.00000000E+00  0.00000000E+00
  0.00000000E+00  0.00000000E+00  0.00000000E+00
  0.00000000E+00  0.00000000E+00  0.00000000E+00
  0.00000000E+00  0.00000000E+00  0.00000000E+00
  0.00000000E+00  0.00000000E+00  0.00000000E+00
  0.00000000E+00  0.00000000E+00  0.00000000E+00
  0.00000000E+00  0.00000000E+00  0.00000000E+00
  0.00000000E+00  0.00000000E+00  0.00000000E+00
  0.00000000E+00  0.00000000E+00  0.00000000E+00
  0.00000000E+00  0.00000000E+00  0.00000000E+00
  0.00000000E+00  0.00000000E+00  0.00000000E+00
  0.00000000E+00  0.00000000E+00  0.00000000E+00
  0.00000000E+00  0.00000000E+00  0.00000000E+00
  0.00000000E+00  0.00000000E+00  0.00000000E+00
  0.00000000E+00  0.00000000E+00  0.00000000E+00
  0.00000000E+00  0.00000000E+00  0.00000000E+00
  0.00000000E+00  0.00000000E+00  0.00000000E+00
  0.00000000E+00  0.00000000E+00  0.00000000E+00
