Bi La Sn O  C  H                        
   1.00000000000000     
    29.0000000000000000    0.0000000000000000    0.0000000000000000
     0.2488180851000000   28.9989325590000000    0.0000000000000000
    -0.0631677343000000   -0.4515975666000000   28.9964147692999994
   Bi   La   Sn   O    C    H 
    22    23    23     2     1     1
Selective dynamics
Direct
  0.7601608446950013  0.4764532751625140  0.3991578858581524   T   T   T
  0.6479911270547400  0.6842200913476321  0.5505653711116344   T   T   T
  0.3603066034585331  0.4580087312303737  0.4278017557582944   T   T   T
  0.5523142855484722  0.7138485251908691  0.5846236207977527   T   T   T
  0.5915029568994470  0.5209714444905416  0.5841479689498996   F   F   F
  0.6402684846391891  0.6801307947715711  0.4454243378969261   T   T   T
  0.6983711807732740  0.5194506983984809  0.6531606466073282   T   T   T
  0.4867315332508435  0.7004739521704484  0.5006216231508899   T   T   T
  0.5004839460855024  0.5502791173970252  0.5477141156400123   F   F   F
  0.3296571693436735  0.4863446283449128  0.5789720152321555   T   T   T
  0.3840154711355265  0.6087069344685959  0.5365279545234388   T   T   T
  0.6667129484492236  0.4827404655721850  0.5105018184570156   F   F   F
  0.5763997220267569  0.4263140504383500  0.5448328182496311   F   F   F
  0.6678417110557625  0.3737533068131871  0.5070625253439527   T   T   T
  0.4607573948429638  0.3378595857328756  0.4952095922907569   T   T   T
  0.6484934028780529  0.5775373212088155  0.4602701624361103   F   F   F
  0.5559674208081348  0.4353490963913451  0.7499084724007166   T   T   T
  0.5917176378892137  0.3483530481027066  0.6669720038891666   T   T   T
  0.4925113795675539  0.3000841957290383  0.4057209697932028   T   T   T
  0.6632736398585958  0.6149867347309339  0.6678680034787313   T   T   T
  0.4924010535293424  0.4104575827385400  0.3046731709805653   T   T   T
  0.6187261913734707  0.3165706682224429  0.5723117776828448   T   T   T
  0.5393487025676540  0.6836029323322627  0.4049708933507977   T   T   T
  0.3899443618823203  0.4156197268124263  0.5259334864377689   T   T   T
  0.6286064329619258  0.5515761849077053  0.2827093072229788   T   T   T
  0.4742876749755426  0.4800315766595679  0.6941066000073371   T   T   T
  0.5683115009887700  0.5094300495444983  0.4784716241115703   F   F   F
  0.4203210565129183  0.5084107200613417  0.5018573595042781   F   F   F
  0.4526214294765885  0.4017409880906093  0.4045619540350741   T   T   T
  0.5643373018218943  0.3493994815575807  0.3522442405164565   T   T   T
  0.4135056406661690  0.5424311159482265  0.6144500534835785   T   T   T
  0.5988686831528641  0.4421852789363715  0.3048669444259564   T   T   T
  0.4548467666387302  0.5997167955066027  0.3629989029594899   T   T   T
  0.4190495899593203  0.4872714947773249  0.3396926993006690   T   T   T
  0.6602902993377991  0.4263329094766041  0.6050261785912460   T   T   T
  0.6750612336033139  0.5779461560171345  0.5640379684279813   T   T   T
  0.5258694383688065  0.5097076029177537  0.3279332595564233   T   T   T
  0.5649035373973421  0.3566760751780896  0.4690584792900102   T   T   T
  0.3172018852631939  0.5402660554926727  0.4938252997915303   T   T   T
  0.6597544625279768  0.4289411485215671  0.4159032589907108   T   T   T
  0.5660841929594156  0.6261437171197244  0.5094829013827464   F   F   F
  0.5991583518640492  0.5254551930761900  0.6902056606112289   T   T   T
  0.4701159107225963  0.6430150871807362  0.5918203100875938   T   T   T
  0.4627085779596746  0.6030900847258424  0.4635177229287464   T   T   T
  0.7168462378086116  0.5723640109744650  0.3835980427244231   T   T   T
  0.5499310510395361  0.5822218838566187  0.4076968008106903   F   F   F
  0.4794126430662260  0.5072205383607624  0.4190535757241776   F   F   F
  0.6951289083541822  0.4796276884456560  0.3249393178691873   T   T   T
  0.7514952967740254  0.4270247024627347  0.4872308686557912   T   T   T
  0.7492741604042341  0.5364969350677825  0.4852523177524877   T   T   T
  0.7499370514564945  0.4876560537802329  0.5711975245063547   T   T   T
  0.6450429567279855  0.4288644718104573  0.7091659902923334   T   T   T
  0.5771684999122824  0.7433275634073975  0.4931011500196759   T   T   T
  0.6192554540844384  0.5183157687966542  0.3801816896793397   F   F   F
  0.5120084961786825  0.5612879295732129  0.6481363102780637   T   T   T
  0.4922009500451665  0.4366758245867572  0.4933013002826740   F   F   F
  0.5608844484509063  0.4404139570509003  0.6454865549417619   F   F   F
  0.5817289376673848  0.6182062893652334  0.6128924880843913   T   T   T
  0.5450462669866647  0.6175651061064138  0.3129081320721009   T   T   T
  0.6284875351751428  0.6246420920849636  0.3604474437370827   T   T   T
  0.3763187918011674  0.5566259167713278  0.4129523584855681   T   T   T
  0.4723078164089713  0.4557257050327763  0.5877273803360978   F   F   F
  0.7282099378983614  0.6334704395871167  0.4833582091701217   T   T   T
  0.4922019615525034  0.3774682142235370  0.6777676911781009   T   T   T
  0.3888400364237592  0.4373583335710765  0.6410845796279725   T   T   T
  0.5544592502646992  0.4379899399457940  0.4037542370104745   F   F   F
  0.4291773069444392  0.3548658212694239  0.6024545799846139   T   T   T
  0.5239210973595659  0.3504737924672578  0.5758277724480013   T   T   T
  0.4055347044898995  0.6157679520841236  0.6576942820238775   T   T   T
  0.4301505873822043  0.6891024240925325  0.6543069733755864   T   T   T
  0.4043794035424726  0.6583468457557665  0.6706716978341212   T   T   T
  0.3790313301754579  0.6682732207430817  0.6977794846220887   T   T   T
 
  0.00000000E+00  0.00000000E+00  0.00000000E+00
  0.00000000E+00  0.00000000E+00  0.00000000E+00
  0.00000000E+00  0.00000000E+00  0.00000000E+00
  0.00000000E+00  0.00000000E+00  0.00000000E+00
  0.00000000E+00  0.00000000E+00  0.00000000E+00
  0.00000000E+00  0.00000000E+00  0.00000000E+00
  0.00000000E+00  0.00000000E+00  0.00000000E+00
  0.00000000E+00  0.00000000E+00  0.00000000E+00
  0.00000000E+00  0.00000000E+00  0.00000000E+00
  0.00000000E+00  0.00000000E+00  0.00000000E+00
  0.00000000E+00  0.00000000E+00  0.00000000E+00
  0.00000000E+00  0.00000000E+00  0.00000000E+00
  0.00000000E+00  0.00000000E+00  0.00000000E+00
  0.00000000E+00  0.00000000E+00  0.00000000E+00
  0.00000000E+00  0.00000000E+00  0.00000000E+00
  0.00000000E+00  0.00000000E+00  0.00000000E+00
  0.00000000E+00  0.00000000E+00  0.00000000E+00
  0.00000000E+00  0.00000000E+00  0.00000000E+00
  0.00000000E+00  0.00000000E+00  0.00000000E+00
  0.00000000E+00  0.00000000E+00  0.00000000E+00
  0.00000000E+00  0.00000000E+00  0.00000000E+00
  0.00000000E+00  0.00000000E+00  0.00000000E+00
  0.00000000E+00  0.00000000E+00  0.00000000E+00
  0.00000000E+00  0.00000000E+00  0.00000000E+00
  0.00000000E+00  0.00000000E+00  0.00000000E+00
  0.00000000E+00  0.00000000E+00  0.00000000E+00
  0.00000000E+00  0.00000000E+00  0.00000000E+00
  0.00000000E+00  0.00000000E+00  0.00000000E+00
  0.00000000E+00  0.00000000E+00  0.00000000E+00
  0.00000000E+00  0.00000000E+00  0.00000000E+00
  0.00000000E+00  0.00000000E+00  0.00000000E+00
  0.00000000E+00  0.00000000E+00  0.00000000E+00
  0.00000000E+00  0.00000000E+00  0.00000000E+00
  0.00000000E+00  0.00000000E+00  0.00000000E+00
  0.00000000E+00  0.00000000E+00  0.00000000E+00
  0.00000000E+00  0.00000000E+00  0.00000000E+00
  0.00000000E+00  0.00000000E+00  0.00000000E+00
  0.00000000E+00  0.00000000E+00  0.00000000E+00
  0.00000000E+00  0.00000000E+00  0.00000000E+00
  0.00000000E+00  0.00000000E+00  0.00000000E+00
  0.00000000E+00  0.00000000E+00  0.00000000E+00
  0.00000000E+00  0.00000000E+00  0.00000000E+00
  0.00000000E+00  0.00000000E+00  0.00000000E+00
  0.00000000E+00  0.00000000E+00  0.00000000E+00
  0.00000000E+00  0.00000000E+00  0.00000000E+00
  0.00000000E+00  0.00000000E+00  0.00000000E+00
  0.00000000E+00  0.00000000E+00  0.00000000E+00
  0.00000000E+00  0.00000000E+00  0.00000000E+00
  0.00000000E+00  0.00000000E+00  0.00000000E+00
  0.00000000E+00  0.00000000E+00  0.00000000E+00
  0.00000000E+00  0.00000000E+00  0.00000000E+00
  0.00000000E+00  0.00000000E+00  0.00000000E+00
  0.00000000E+00  0.00000000E+00  0.00000000E+00
  0.00000000E+00  0.00000000E+00  0.00000000E+00
  0.00000000E+00  0.00000000E+00  0.00000000E+00
  0.00000000E+00  0.00000000E+00  0.00000000E+00
  0.00000000E+00  0.00000000E+00  0.00000000E+00
  0.00000000E+00  0.00000000E+00  0.00000000E+00
  0.00000000E+00  0.00000000E+00  0.00000000E+00
  0.00000000E+00  0.00000000E+00  0.00000000E+00
  0.00000000E+00  0.00000000E+00  0.00000000E+00
  0.00000000E+00  0.00000000E+00  0.00000000E+00
  0.00000000E+00  0.00000000E+00  0.00000000E+00
  0.00000000E+00  0.00000000E+00  0.00000000E+00
  0.00000000E+00  0.00000000E+00  0.00000000E+00
  0.00000000E+00  0.00000000E+00  0.00000000E+00
  0.00000000E+00  0.00000000E+00  0.00000000E+00
  0.00000000E+00  0.00000000E+00  0.00000000E+00
  0.00000000E+00  0.00000000E+00  0.00000000E+00
  0.00000000E+00  0.00000000E+00  0.00000000E+00
  0.00000000E+00  0.00000000E+00  0.00000000E+00
  0.00000000E+00  0.00000000E+00  0.00000000E+00
