Bi La Sn O  C  H                        
   1.00000000000000     
    29.0000000000000000    0.0000000000000000    0.0000000000000000
     0.2488180851000000   28.9989325590000000    0.0000000000000000
    -0.0631677343000000   -0.4515975666000000   28.9964147692999994
   Bi   La   Sn   O    C    H 
    22    23    23     2     1     1
Selective dynamics
Direct
  0.7594373114216706  0.4788847785699826  0.3990426141901988   T   T   T
  0.6481411705547485  0.6848772027388381  0.5498375383460458   T   T   T
  0.3612518011398761  0.4584501024214911  0.4270834591286597   T   T   T
  0.5516955419049087  0.7136806958849007  0.5839818927492818   T   T   T
  0.5915029568994470  0.5209714444905416  0.5841479689498996   F   F   F
  0.6402115015823060  0.6800443680864391  0.4445191725591598   T   T   T
  0.6938847593823710  0.5179766693993522  0.6520721417054545   T   T   T
  0.4873049167682789  0.7019780908924685  0.4990159950944088   T   T   T
  0.5004839460855024  0.5502791173970252  0.5477141156400123   F   F   F
  0.3284713221463059  0.4847849354868493  0.5793556816224243   T   T   T
  0.3826602067698540  0.6084927717416625  0.5382794386200863   T   T   T
  0.6667129484492236  0.4827404655721850  0.5105018184570156   F   F   F
  0.5763997220267569  0.4263140504383500  0.5448328182496311   F   F   F
  0.6684514785923119  0.3739884638886102  0.5056698240205985   T   T   T
  0.4600374368774527  0.3383610663511692  0.4932160896941808   T   T   T
  0.6484934028780529  0.5775373212088155  0.4602701624361103   F   F   F
  0.5516108432065592  0.4272317295016935  0.7488135409657488   T   T   T
  0.5878130712895492  0.3469790859806383  0.6650353646330016   T   T   T
  0.4932320714128853  0.2999587344165665  0.4045859075860689   T   T   T
  0.6622195266342711  0.6138837278734709  0.6675344298887372   T   T   T
  0.4904347464809253  0.4120575985112228  0.3021939592167782   T   T   T
  0.6197401899149536  0.3161915053937576  0.5704670548775540   T   T   T
  0.5392984064457471  0.6837465408067820  0.4043305728951870   T   T   T
  0.3893774672838430  0.4155307076335910  0.5253703618622585   T   T   T
  0.6267640004178101  0.5520399574568994  0.2820076508526725   T   T   T
  0.4737762636006367  0.4812748428306576  0.6933095030992682   T   T   T
  0.5683115009887700  0.5094300495444983  0.4784716241115703   F   F   F
  0.4203210565129183  0.5084107200613417  0.5018573595042781   F   F   F
  0.4531810194661571  0.4020959834999204  0.4033153801903718   T   T   T
  0.5622085787456911  0.3514100290745134  0.3498245049370381   T   T   T
  0.4138630341532727  0.5389924252561751  0.6127564385133144   T   T   T
  0.5996458799885382  0.4417833220594372  0.3048988630693828   T   T   T
  0.4543753381886063  0.6004577684793048  0.3641681575870454   T   T   T
  0.4184834055773962  0.4893792130096280  0.3387502600107766   T   T   T
  0.6607545292823702  0.4246037041823716  0.6044278997928274   T   T   T
  0.6741801462853411  0.5788015237755538  0.5635374451505429   T   T   T
  0.5253855614814125  0.5096957116937186  0.3281436763168907   T   T   T
  0.5650399105700917  0.3565793217397054  0.4687800091357225   T   T   T
  0.3164473738431859  0.5392257769637159  0.4944349770102044   T   T   T
  0.6604021522446810  0.4296312079559625  0.4149166397451104   T   T   T
  0.5660841929594156  0.6261437171197244  0.5094829013827464   F   F   F
  0.5959083447128416  0.5259059455005557  0.6943578979673993   T   T   T
  0.4709995866770656  0.6428721644523780  0.5879201472362278   T   T   T
  0.4626954145861407  0.6036739275871478  0.4647998581824255   T   T   T
  0.7163672601003974  0.5743964837436804  0.3836303134450581   T   T   T
  0.5499310510395361  0.5822218838566187  0.4076968008106903   F   F   F
  0.4794126430662260  0.5072205383607624  0.4190535757241776   F   F   F
  0.6950851144358992  0.4823526356870584  0.3237735507628959   T   T   T
  0.7519518096682289  0.4287297696282372  0.4868438750944374   T   T   T
  0.7487218394739944  0.5381272856506427  0.4854236503358297   T   T   T
  0.7486927776697084  0.4889245488274330  0.5718204744567217   T   T   T
  0.6415954887363576  0.4270156900351715  0.7087483439597204   T   T   T
  0.5780777397943608  0.7437797323371310  0.4927904386203762   T   T   T
  0.6192554540844384  0.5183157687966542  0.3801816896793397   F   F   F
  0.5090628295573262  0.5647243146793747  0.6490829046960988   T   T   T
  0.4922009500451665  0.4366758245867572  0.4933013002826740   F   F   F
  0.5608844484509063  0.4404139570509003  0.6454865549417619   F   F   F
  0.5807109949338646  0.6178882098697198  0.6131073044563655   T   T   T
  0.5433753793354873  0.6174158761819901  0.3125186950432162   T   T   T
  0.6271232210938325  0.6248379853465554  0.3598643589718739   T   T   T
  0.3759967013623310  0.5572720014569822  0.4140610759783746   T   T   T
  0.4723078164089713  0.4557257050327763  0.5877273803360978   F   F   F
  0.7274333158523510  0.6354327350184490  0.4837770136174208   T   T   T
  0.4896919116423307  0.3788068441530732  0.6747868556315574   T   T   T
  0.3889942719723690  0.4355853071313376  0.6406433125971415   T   T   T
  0.5544592502646992  0.4379899399457940  0.4037542370104745   F   F   F
  0.4301089989177875  0.3536602218647328  0.5994297657318758   T   T   T
  0.5245547144208250  0.3486954391592102  0.5731501677470249   T   T   T
  0.5870360733176760  0.5498395793677663  0.7765031497317314   T   T   T
  0.6525188758581194  0.5099570242485276  0.7612757118444745   T   T   T
  0.6259192901428023  0.5326693392419826  0.7886229612705513   T   T   T
  0.6374302952381146  0.5378972265044965  0.8249103560660948   T   T   T
 
  0.00000000E+00  0.00000000E+00  0.00000000E+00
  0.00000000E+00  0.00000000E+00  0.00000000E+00
  0.00000000E+00  0.00000000E+00  0.00000000E+00
  0.00000000E+00  0.00000000E+00  0.00000000E+00
  0.00000000E+00  0.00000000E+00  0.00000000E+00
  0.00000000E+00  0.00000000E+00  0.00000000E+00
  0.00000000E+00  0.00000000E+00  0.00000000E+00
  0.00000000E+00  0.00000000E+00  0.00000000E+00
  0.00000000E+00  0.00000000E+00  0.00000000E+00
  0.00000000E+00  0.00000000E+00  0.00000000E+00
  0.00000000E+00  0.00000000E+00  0.00000000E+00
  0.00000000E+00  0.00000000E+00  0.00000000E+00
  0.00000000E+00  0.00000000E+00  0.00000000E+00
  0.00000000E+00  0.00000000E+00  0.00000000E+00
  0.00000000E+00  0.00000000E+00  0.00000000E+00
  0.00000000E+00  0.00000000E+00  0.00000000E+00
  0.00000000E+00  0.00000000E+00  0.00000000E+00
  0.00000000E+00  0.00000000E+00  0.00000000E+00
  0.00000000E+00  0.00000000E+00  0.00000000E+00
  0.00000000E+00  0.00000000E+00  0.00000000E+00
  0.00000000E+00  0.00000000E+00  0.00000000E+00
  0.00000000E+00  0.00000000E+00  0.00000000E+00
  0.00000000E+00  0.00000000E+00  0.00000000E+00
  0.00000000E+00  0.00000000E+00  0.00000000E+00
  0.00000000E+00  0.00000000E+00  0.00000000E+00
  0.00000000E+00  0.00000000E+00  0.00000000E+00
  0.00000000E+00  0.00000000E+00  0.00000000E+00
  0.00000000E+00  0.00000000E+00  0.00000000E+00
  0.00000000E+00  0.00000000E+00  0.00000000E+00
  0.00000000E+00  0.00000000E+00  0.00000000E+00
  0.00000000E+00  0.00000000E+00  0.00000000E+00
  0.00000000E+00  0.00000000E+00  0.00000000E+00
  0.00000000E+00  0.00000000E+00  0.00000000E+00
  0.00000000E+00  0.00000000E+00  0.00000000E+00
  0.00000000E+00  0.00000000E+00  0.00000000E+00
  0.00000000E+00  0.00000000E+00  0.00000000E+00
  0.00000000E+00  0.00000000E+00  0.00000000E+00
  0.00000000E+00  0.00000000E+00  0.00000000E+00
  0.00000000E+00  0.00000000E+00  0.00000000E+00
  0.00000000E+00  0.00000000E+00  0.00000000E+00
  0.00000000E+00  0.00000000E+00  0.00000000E+00
  0.00000000E+00  0.00000000E+00  0.00000000E+00
  0.00000000E+00  0.00000000E+00  0.00000000E+00
  0.00000000E+00  0.00000000E+00  0.00000000E+00
  0.00000000E+00  0.00000000E+00  0.00000000E+00
  0.00000000E+00  0.00000000E+00  0.00000000E+00
  0.00000000E+00  0.00000000E+00  0.00000000E+00
  0.00000000E+00  0.00000000E+00  0.00000000E+00
  0.00000000E+00  0.00000000E+00  0.00000000E+00
  0.00000000E+00  0.00000000E+00  0.00000000E+00
  0.00000000E+00  0.00000000E+00  0.00000000E+00
  0.00000000E+00  0.00000000E+00  0.00000000E+00
  0.00000000E+00  0.00000000E+00  0.00000000E+00
  0.00000000E+00  0.00000000E+00  0.00000000E+00
  0.00000000E+00  0.00000000E+00  0.00000000E+00
  0.00000000E+00  0.00000000E+00  0.00000000E+00
  0.00000000E+00  0.00000000E+00  0.00000000E+00
  0.00000000E+00  0.00000000E+00  0.00000000E+00
  0.00000000E+00  0.00000000E+00  0.00000000E+00
  0.00000000E+00  0.00000000E+00  0.00000000E+00
  0.00000000E+00  0.00000000E+00  0.00000000E+00
  0.00000000E+00  0.00000000E+00  0.00000000E+00
  0.00000000E+00  0.00000000E+00  0.00000000E+00
  0.00000000E+00  0.00000000E+00  0.00000000E+00
  0.00000000E+00  0.00000000E+00  0.00000000E+00
  0.00000000E+00  0.00000000E+00  0.00000000E+00
  0.00000000E+00  0.00000000E+00  0.00000000E+00
  0.00000000E+00  0.00000000E+00  0.00000000E+00
  0.00000000E+00  0.00000000E+00  0.00000000E+00
  0.00000000E+00  0.00000000E+00  0.00000000E+00
  0.00000000E+00  0.00000000E+00  0.00000000E+00
  0.00000000E+00  0.00000000E+00  0.00000000E+00
