Bi La Sn O  C  H                        
   1.00000000000000     
    29.0000000000000000    0.0000000000000000    0.0000000000000000
     0.2488180851000000   28.9989325590000000    0.0000000000000000
    -0.0631677343000000   -0.4515975666000000   28.9964147692999994
   Bi   La   Sn   O    C    H 
    22    23    23     2     1     1
Selective dynamics
Direct
  0.7596330017375618  0.4785733146425440  0.3982015176201195   T   T   T
  0.6479557019906361  0.6846567785814360  0.5506802227424994   T   T   T
  0.3601199848803701  0.4574718528297403  0.4290077639656351   T   T   T
  0.5515018149701510  0.7133528777612289  0.5838447662628077   T   T   T
  0.5915029568994470  0.5209714444905416  0.5841479689498996   F   F   F
  0.6404976038212994  0.6803118367090921  0.4454992062149685   T   T   T
  0.6954785261267816  0.5201255066183248  0.6538212945723109   T   T   T
  0.4869161687728623  0.7011835354512828  0.4982534084965256   T   T   T
  0.5004839460855024  0.5502791173970252  0.5477141156400123   F   F   F
  0.3272448803347304  0.4856404421030813  0.5773671206054158   T   T   T
  0.3822515616575561  0.6093340732182435  0.5368058775737155   T   T   T
  0.6667129484492236  0.4827404655721850  0.5105018184570156   F   F   F
  0.5763997220267569  0.4263140504383500  0.5448328182496311   F   F   F
  0.6694842802007509  0.3736972476783781  0.5065296333403762   T   T   T
  0.4628928073662469  0.3387592739514184  0.4979101436703840   T   T   T
  0.6484934028780529  0.5775373212088155  0.4602701624361103   F   F   F
  0.5563719979275997  0.4359064524380252  0.7501451789926231   T   T   T
  0.5948383971816247  0.3493775461546253  0.6676773215362627   T   T   T
  0.4931697141268394  0.2995376737303676  0.4086151362812042   T   T   T
  0.6608628297813657  0.6160951850813892  0.6680139231680837   T   T   T
  0.4914187159042774  0.4104284628008157  0.3052987785411117   T   T   T
  0.6217327514545183  0.3162011729658832  0.5726942869249491   T   T   T
  0.5397011601903668  0.6836411518013636  0.4041825222903689   T   T   T
  0.3903486802067939  0.4144185015798174  0.5279519834075804   T   T   T
  0.6273800864220900  0.5520322767249708  0.2821987095959784   T   T   T
  0.4729705939388185  0.4781291653620032  0.6919850746369113   T   T   T
  0.5683115009887700  0.5094300495444983  0.4784716241115703   F   F   F
  0.4203210565129183  0.5084107200613417  0.5018573595042781   F   F   F
  0.4525504981233155  0.4011703119609533  0.4057240186688504   T   T   T
  0.5631117265348988  0.3493821009216794  0.3526094892045259   T   T   T
  0.4129497807755804  0.5400922018198560  0.6115753190288424   T   T   T
  0.5987351093362296  0.4423651310724813  0.3045025390354604   T   T   T
  0.4543956033662495  0.5995520033046857  0.3635142313870701   T   T   T
  0.4178237662698010  0.4868863540735539  0.3404839866184693   T   T   T
  0.6607796641929798  0.4261178155523228  0.6042476630429582   T   T   T
  0.6739062936626737  0.5785474780973570  0.5643914507025666   T   T   T
  0.5257266481948926  0.5093636144812739  0.3279700431988510   T   T   T
  0.5662797123290809  0.3571445881881630  0.4694288784679477   T   T   T
  0.3157186173897197  0.5401457854804858  0.4931073593249666   T   T   T
  0.6604218783700628  0.4296780544903019  0.4153055308222868   T   T   T
  0.5660841929594156  0.6261437171197244  0.5094829013827464   F   F   F
  0.5955850308559423  0.5275467848797299  0.6898575601226103   T   T   T
  0.4705446119016204  0.6426903775945166  0.5873319550938902   T   T   T
  0.4619182106939150  0.6032915689361621  0.4635071844820906   T   T   T
  0.7163343148705811  0.5740948411588972  0.3832290705554501   T   T   T
  0.5499310510395361  0.5822218838566187  0.4076968008106903   F   F   F
  0.4794126430662260  0.5072205383607624  0.4190535757241776   F   F   F
  0.6949013512314149  0.4812679320524447  0.3239079731120119   T   T   T
  0.7517584589194884  0.4293725410021536  0.4867827079715000   T   T   T
  0.7483054418853821  0.5377841674994066  0.4852022717981669   T   T   T
  0.7487520645962386  0.4892382496175108  0.5720983397675335   T   T   T
  0.6453612306053451  0.4325304439347913  0.7081721366936723   T   T   T
  0.5772941291598467  0.7436487138730501  0.4927357545428001   T   T   T
  0.6192554540844384  0.5183157687966542  0.3801816896793397   F   F   F
  0.5070240078538979  0.5645184577219907  0.6503488647636221   T   T   T
  0.4922009500451665  0.4366758245867572  0.4933013002826740   F   F   F
  0.5608844484509063  0.4404139570509003  0.6454865549417619   F   F   F
  0.5794172606885803  0.6173756975371296  0.6132305079859744   T   T   T
  0.5435998008744964  0.6171689866674498  0.3122657721107592   T   T   T
  0.6267746578215385  0.6247759339654168  0.3605516446535205   T   T   T
  0.3759212651003695  0.5568325586054815  0.4135102690884632   T   T   T
  0.4723078164089713  0.4557257050327763  0.5877273803360978   F   F   F
  0.7276846341783322  0.6348867984116119  0.4841174704922954   T   T   T
  0.4962152189806740  0.3741218275929002  0.6847184342618690   T   T   T
  0.3851895723459216  0.4394721007376121  0.6411472975417931   T   T   T
  0.5544592502646992  0.4379899399457940  0.4037542370104745   F   F   F
  0.4346992425771432  0.3597038346563058  0.6076827965081372   T   T   T
  0.5276981430200212  0.3489825177440414  0.5779232139079286   T   T   T
  0.5069829396933665  0.2807387605157720  0.6934429344044254   T   T   T
  0.4840600723302657  0.3321260928222198  0.7483073133246240   T   T   T
  0.4949413563673641  0.2908510482262815  0.7338247892070916   T   T   T
  0.4935457302809128  0.2637791721930942  0.7605376011249295   T   T   T
 
  0.00000000E+00  0.00000000E+00  0.00000000E+00
  0.00000000E+00  0.00000000E+00  0.00000000E+00
  0.00000000E+00  0.00000000E+00  0.00000000E+00
  0.00000000E+00  0.00000000E+00  0.00000000E+00
  0.00000000E+00  0.00000000E+00  0.00000000E+00
  0.00000000E+00  0.00000000E+00  0.00000000E+00
  0.00000000E+00  0.00000000E+00  0.00000000E+00
  0.00000000E+00  0.00000000E+00  0.00000000E+00
  0.00000000E+00  0.00000000E+00  0.00000000E+00
  0.00000000E+00  0.00000000E+00  0.00000000E+00
  0.00000000E+00  0.00000000E+00  0.00000000E+00
  0.00000000E+00  0.00000000E+00  0.00000000E+00
  0.00000000E+00  0.00000000E+00  0.00000000E+00
  0.00000000E+00  0.00000000E+00  0.00000000E+00
  0.00000000E+00  0.00000000E+00  0.00000000E+00
  0.00000000E+00  0.00000000E+00  0.00000000E+00
  0.00000000E+00  0.00000000E+00  0.00000000E+00
  0.00000000E+00  0.00000000E+00  0.00000000E+00
  0.00000000E+00  0.00000000E+00  0.00000000E+00
  0.00000000E+00  0.00000000E+00  0.00000000E+00
  0.00000000E+00  0.00000000E+00  0.00000000E+00
  0.00000000E+00  0.00000000E+00  0.00000000E+00
  0.00000000E+00  0.00000000E+00  0.00000000E+00
  0.00000000E+00  0.00000000E+00  0.00000000E+00
  0.00000000E+00  0.00000000E+00  0.00000000E+00
  0.00000000E+00  0.00000000E+00  0.00000000E+00
  0.00000000E+00  0.00000000E+00  0.00000000E+00
  0.00000000E+00  0.00000000E+00  0.00000000E+00
  0.00000000E+00  0.00000000E+00  0.00000000E+00
  0.00000000E+00  0.00000000E+00  0.00000000E+00
  0.00000000E+00  0.00000000E+00  0.00000000E+00
  0.00000000E+00  0.00000000E+00  0.00000000E+00
  0.00000000E+00  0.00000000E+00  0.00000000E+00
  0.00000000E+00  0.00000000E+00  0.00000000E+00
  0.00000000E+00  0.00000000E+00  0.00000000E+00
  0.00000000E+00  0.00000000E+00  0.00000000E+00
  0.00000000E+00  0.00000000E+00  0.00000000E+00
  0.00000000E+00  0.00000000E+00  0.00000000E+00
  0.00000000E+00  0.00000000E+00  0.00000000E+00
  0.00000000E+00  0.00000000E+00  0.00000000E+00
  0.00000000E+00  0.00000000E+00  0.00000000E+00
  0.00000000E+00  0.00000000E+00  0.00000000E+00
  0.00000000E+00  0.00000000E+00  0.00000000E+00
  0.00000000E+00  0.00000000E+00  0.00000000E+00
  0.00000000E+00  0.00000000E+00  0.00000000E+00
  0.00000000E+00  0.00000000E+00  0.00000000E+00
  0.00000000E+00  0.00000000E+00  0.00000000E+00
  0.00000000E+00  0.00000000E+00  0.00000000E+00
  0.00000000E+00  0.00000000E+00  0.00000000E+00
  0.00000000E+00  0.00000000E+00  0.00000000E+00
  0.00000000E+00  0.00000000E+00  0.00000000E+00
  0.00000000E+00  0.00000000E+00  0.00000000E+00
  0.00000000E+00  0.00000000E+00  0.00000000E+00
  0.00000000E+00  0.00000000E+00  0.00000000E+00
  0.00000000E+00  0.00000000E+00  0.00000000E+00
  0.00000000E+00  0.00000000E+00  0.00000000E+00
  0.00000000E+00  0.00000000E+00  0.00000000E+00
  0.00000000E+00  0.00000000E+00  0.00000000E+00
  0.00000000E+00  0.00000000E+00  0.00000000E+00
  0.00000000E+00  0.00000000E+00  0.00000000E+00
  0.00000000E+00  0.00000000E+00  0.00000000E+00
  0.00000000E+00  0.00000000E+00  0.00000000E+00
  0.00000000E+00  0.00000000E+00  0.00000000E+00
  0.00000000E+00  0.00000000E+00  0.00000000E+00
  0.00000000E+00  0.00000000E+00  0.00000000E+00
  0.00000000E+00  0.00000000E+00  0.00000000E+00
  0.00000000E+00  0.00000000E+00  0.00000000E+00
  0.00000000E+00  0.00000000E+00  0.00000000E+00
  0.00000000E+00  0.00000000E+00  0.00000000E+00
  0.00000000E+00  0.00000000E+00  0.00000000E+00
  0.00000000E+00  0.00000000E+00  0.00000000E+00
  0.00000000E+00  0.00000000E+00  0.00000000E+00
