Bi La Sn O  C  H                        
   1.00000000000000     
    29.0000000000000000    0.0000000000000000    0.0000000000000000
     0.2488180851000000   28.9989325590000000    0.0000000000000000
    -0.0631677343000000   -0.4515975666000000   28.9964147692999994
   Bi   La   Sn   O    C    H 
    22    23    23     2     1     1
Selective dynamics
Direct
  0.7600743647211575  0.4778778899129824  0.3993825798596066   T   T   T
  0.6468360398166709  0.6842253965279470  0.5523167730660100   T   T   T
  0.3573455607589750  0.4592122296154925  0.4294345222051361   T   T   T
  0.5509088610289312  0.7132446035388981  0.5842478865765928   T   T   T
  0.5915029568994470  0.5209714444905416  0.5841479689498996   F   F   F
  0.6404572594325064  0.6804331155685522  0.4462008721918240   T   T   T
  0.6960059162882681  0.5224429717081256  0.6542875105039790   T   T   T
  0.4863497907816131  0.7007226317110100  0.4988113378758855   T   T   T
  0.5004839460855024  0.5502791173970252  0.5477141156400123   F   F   F
  0.3253905218744478  0.4869502604798380  0.5738929820656187   T   T   T
  0.3826016807048023  0.6107780171489235  0.5353189055650699   T   T   T
  0.6667129484492236  0.4827404655721850  0.5105018184570156   F   F   F
  0.5763997220267569  0.4263140504383500  0.5448328182496311   F   F   F
  0.6684495877250658  0.3740319434066850  0.5069297199230065   T   T   T
  0.4632760025301895  0.3374708292088960  0.5010379235372300   T   T   T
  0.6484934028780529  0.5775373212088155  0.4602701624361103   F   F   F
  0.5584488374481895  0.4366018015052665  0.7498427473003662   T   T   T
  0.6040304743359566  0.3517158035198935  0.6692682882767437   T   T   T
  0.4916950300412474  0.3001626347716731  0.4102721941584325   T   T   T
  0.6603211284973390  0.6185641156093625  0.6663079554433295   T   T   T
  0.4964151877508955  0.4068241517813084  0.3159242429834408   T   T   T
  0.6214212340146057  0.3162222857633646  0.5730004824234456   T   T   T
  0.5394585400408477  0.6837536429175672  0.4042283050363262   T   T   T
  0.3905271959075393  0.4152876005475529  0.5274620211611244   T   T   T
  0.6304521878788327  0.5525597411132467  0.2830838325847396   T   T   T
  0.4716836851613903  0.4711563367811822  0.6917863519602973   T   T   T
  0.5683115009887700  0.5094300495444983  0.4784716241115703   F   F   F
  0.4203210565129183  0.5084107200613417  0.5018573595042781   F   F   F
  0.4490308030913595  0.4000271931724749  0.4100457330852646   T   T   T
  0.5727837051038012  0.3445901041708316  0.3616174303199898   T   T   T
  0.4110988387302980  0.5405628692499238  0.6098406748347160   T   T   T
  0.5989578433914600  0.4405137973612709  0.3024642226901446   T   T   T
  0.4555356047308670  0.5995227371637186  0.3627492296384060   T   T   T
  0.4194518626267666  0.4842458853679226  0.3412359867278251   T   T   T
  0.6613212498198496  0.4285503106788149  0.6045883109481857   T   T   T
  0.6736063050929398  0.5785158259311217  0.5639526771386081   T   T   T
  0.5269655333568850  0.5096512628647943  0.3272830380735458   T   T   T
  0.5653640231960237  0.3579046631133573  0.4693841593167581   T   T   T
  0.3154384938900759  0.5433339941727431  0.4909831030420759   T   T   T
  0.6600578739270901  0.4296074385799678  0.4166494636526868   T   T   T
  0.5660841929594156  0.6261437171197244  0.5094829013827464   F   F   F
  0.5957859535754763  0.5288471471888962  0.6898374122080219   T   T   T
  0.4705649736976997  0.6417257682610970  0.5882786996530364   T   T   T
  0.4622959634777974  0.6031589235303241  0.4631560774940882   T   T   T
  0.7166222561997939  0.5738785293773083  0.3834392521580328   T   T   T
  0.5499310510395361  0.5822218838566187  0.4076968008106903   F   F   F
  0.4794126430662260  0.5072205383607624  0.4190535757241776   F   F   F
  0.6952283229265291  0.4800374382065919  0.3258621479329686   T   T   T
  0.7519251304254168  0.4291308793148176  0.4888173264784747   T   T   T
  0.7484824473405960  0.5378094464360555  0.4854360048396124   T   T   T
  0.7490652631997993  0.4908719248749747  0.5727295386878219   T   T   T
  0.6482036760877774  0.4375280425530473  0.7088475397571371   T   T   T
  0.5766150624658583  0.7433043692617330  0.4928943986731556   T   T   T
  0.6192554540844384  0.5183157687966542  0.3801816896793397   F   F   F
  0.5051411983013243  0.5599360216918391  0.6501988566497438   T   T   T
  0.4922009500451665  0.4366758245867572  0.4933013002826740   F   F   F
  0.5608844484509063  0.4404139570509003  0.6454865549417619   F   F   F
  0.5774980697971159  0.6160963710190593  0.6137070197681844   T   T   T
  0.5451523699845919  0.6171257719093449  0.3119954842621057   T   T   T
  0.6273989616761174  0.6252074834795657  0.3610531670247874   T   T   T
  0.3768162372573448  0.5562898873993489  0.4113531143199832   T   T   T
  0.4723078164089713  0.4557257050327763  0.5877273803360978   F   F   F
  0.7277038744208471  0.6345506887604166  0.4845188517783633   T   T   T
  0.5041139737517251  0.3685962661969120  0.6853069076262190   T   T   T
  0.3808977849960229  0.4418808299822687  0.6399471655245828   T   T   T
  0.5544592502646992  0.4379899399457940  0.4037542370104745   F   F   F
  0.4344928455730560  0.3642071492678455  0.6115252931568931   T   T   T
  0.5281029820217450  0.3495506024685761  0.5806066990975076   T   T   T
  0.6128884720755854  0.3916811836906751  0.2287579944294437   T   T   T
  0.6146513496762070  0.3448014242245495  0.2898985769932848   T   T   T
  0.6180837378796352  0.3524869518291685  0.2461150115932290   T   T   T
  0.6261301783881696  0.3222366361453970  0.2235796790084299   T   T   T
 
  0.00000000E+00  0.00000000E+00  0.00000000E+00
  0.00000000E+00  0.00000000E+00  0.00000000E+00
  0.00000000E+00  0.00000000E+00  0.00000000E+00
  0.00000000E+00  0.00000000E+00  0.00000000E+00
  0.00000000E+00  0.00000000E+00  0.00000000E+00
  0.00000000E+00  0.00000000E+00  0.00000000E+00
  0.00000000E+00  0.00000000E+00  0.00000000E+00
  0.00000000E+00  0.00000000E+00  0.00000000E+00
  0.00000000E+00  0.00000000E+00  0.00000000E+00
  0.00000000E+00  0.00000000E+00  0.00000000E+00
  0.00000000E+00  0.00000000E+00  0.00000000E+00
  0.00000000E+00  0.00000000E+00  0.00000000E+00
  0.00000000E+00  0.00000000E+00  0.00000000E+00
  0.00000000E+00  0.00000000E+00  0.00000000E+00
  0.00000000E+00  0.00000000E+00  0.00000000E+00
  0.00000000E+00  0.00000000E+00  0.00000000E+00
  0.00000000E+00  0.00000000E+00  0.00000000E+00
  0.00000000E+00  0.00000000E+00  0.00000000E+00
  0.00000000E+00  0.00000000E+00  0.00000000E+00
  0.00000000E+00  0.00000000E+00  0.00000000E+00
  0.00000000E+00  0.00000000E+00  0.00000000E+00
  0.00000000E+00  0.00000000E+00  0.00000000E+00
  0.00000000E+00  0.00000000E+00  0.00000000E+00
  0.00000000E+00  0.00000000E+00  0.00000000E+00
  0.00000000E+00  0.00000000E+00  0.00000000E+00
  0.00000000E+00  0.00000000E+00  0.00000000E+00
  0.00000000E+00  0.00000000E+00  0.00000000E+00
  0.00000000E+00  0.00000000E+00  0.00000000E+00
  0.00000000E+00  0.00000000E+00  0.00000000E+00
  0.00000000E+00  0.00000000E+00  0.00000000E+00
  0.00000000E+00  0.00000000E+00  0.00000000E+00
  0.00000000E+00  0.00000000E+00  0.00000000E+00
  0.00000000E+00  0.00000000E+00  0.00000000E+00
  0.00000000E+00  0.00000000E+00  0.00000000E+00
  0.00000000E+00  0.00000000E+00  0.00000000E+00
  0.00000000E+00  0.00000000E+00  0.00000000E+00
  0.00000000E+00  0.00000000E+00  0.00000000E+00
  0.00000000E+00  0.00000000E+00  0.00000000E+00
  0.00000000E+00  0.00000000E+00  0.00000000E+00
  0.00000000E+00  0.00000000E+00  0.00000000E+00
  0.00000000E+00  0.00000000E+00  0.00000000E+00
  0.00000000E+00  0.00000000E+00  0.00000000E+00
  0.00000000E+00  0.00000000E+00  0.00000000E+00
  0.00000000E+00  0.00000000E+00  0.00000000E+00
  0.00000000E+00  0.00000000E+00  0.00000000E+00
  0.00000000E+00  0.00000000E+00  0.00000000E+00
  0.00000000E+00  0.00000000E+00  0.00000000E+00
  0.00000000E+00  0.00000000E+00  0.00000000E+00
  0.00000000E+00  0.00000000E+00  0.00000000E+00
  0.00000000E+00  0.00000000E+00  0.00000000E+00
  0.00000000E+00  0.00000000E+00  0.00000000E+00
  0.00000000E+00  0.00000000E+00  0.00000000E+00
  0.00000000E+00  0.00000000E+00  0.00000000E+00
  0.00000000E+00  0.00000000E+00  0.00000000E+00
  0.00000000E+00  0.00000000E+00  0.00000000E+00
  0.00000000E+00  0.00000000E+00  0.00000000E+00
  0.00000000E+00  0.00000000E+00  0.00000000E+00
  0.00000000E+00  0.00000000E+00  0.00000000E+00
  0.00000000E+00  0.00000000E+00  0.00000000E+00
  0.00000000E+00  0.00000000E+00  0.00000000E+00
  0.00000000E+00  0.00000000E+00  0.00000000E+00
  0.00000000E+00  0.00000000E+00  0.00000000E+00
  0.00000000E+00  0.00000000E+00  0.00000000E+00
  0.00000000E+00  0.00000000E+00  0.00000000E+00
  0.00000000E+00  0.00000000E+00  0.00000000E+00
  0.00000000E+00  0.00000000E+00  0.00000000E+00
  0.00000000E+00  0.00000000E+00  0.00000000E+00
  0.00000000E+00  0.00000000E+00  0.00000000E+00
  0.00000000E+00  0.00000000E+00  0.00000000E+00
  0.00000000E+00  0.00000000E+00  0.00000000E+00
  0.00000000E+00  0.00000000E+00  0.00000000E+00
  0.00000000E+00  0.00000000E+00  0.00000000E+00
