Bi La Sn O  C  H                        
   1.00000000000000     
    29.0000000000000000    0.0000000000000000    0.0000000000000000
     0.2488180851000000   28.9989325590000000    0.0000000000000000
    -0.0631677343000000   -0.4515975666000000   28.9964147692999994
   Bi   La   Sn   O    C    H 
    22    23    23     2     1     1
Selective dynamics
Direct
  0.7599156745031745  0.4795088864541494  0.3999535936903729   T   T   T
  0.6479079662599248  0.6848700680512723  0.5500974626995502   T   T   T
  0.3640168903985603  0.4571520622489798  0.4260601635095912   T   T   T
  0.5514338381195831  0.7136205870329396  0.5839607967285271   T   T   T
  0.5915029568994470  0.5209714444905416  0.5841479689498996   F   F   F
  0.6398307479159699  0.6798974368722300  0.4444281884476968   T   T   T
  0.6957509583369790  0.5207742768623367  0.6532416636397187   T   T   T
  0.4870504338940370  0.7017502943678919  0.4991578232619339   T   T   T
  0.5004839460855024  0.5502791173970252  0.5477141156400123   F   F   F
  0.3286864533094438  0.4857655047095820  0.5763417232804473   T   T   T
  0.3833957442218383  0.6077407139056258  0.5375121141900400   T   T   T
  0.6667129484492236  0.4827404655721850  0.5105018184570156   F   F   F
  0.5763997220267569  0.4263140504383500  0.5448328182496311   F   F   F
  0.6690869294294834  0.3742646397422281  0.5064022169471428   T   T   T
  0.4624340748030785  0.3376356253636767  0.4957884829230418   T   T   T
  0.6484934028780529  0.5775373212088155  0.4602701624361103   F   F   F
  0.5556813530431536  0.4350813328846622  0.7498177659367902   T   T   T
  0.5948040686473127  0.3487278970788160  0.6672122931392983   T   T   T
  0.4949857983901327  0.2984481987017950  0.4069870048640035   T   T   T
  0.6606890198160761  0.6165728955873939  0.6675863264879497   T   T   T
  0.4936084045259312  0.4099967728997000  0.3041096953241135   T   T   T
  0.6220167243214000  0.3163277660828685  0.5725889431510323   T   T   T
  0.5390553595847385  0.6837367769480055  0.4040356516045378   T   T   T
  0.3904534234254271  0.4148775430917214  0.5254065058963482   T   T   T
  0.6277208862877265  0.5516586730320517  0.2820626071514356   T   T   T
  0.4729170173454566  0.4785991000956589  0.6926408833799043   T   T   T
  0.5683115009887700  0.5094300495444983  0.4784716241115703   F   F   F
  0.4203210565129183  0.5084107200613417  0.5018573595042781   F   F   F
  0.4547363372360970  0.4003259406060414  0.4040409393661568   T   T   T
  0.5652798578162009  0.3496288020420060  0.3527960347041768   T   T   T
  0.4135283483537890  0.5395205501792221  0.6126551542859581   T   T   T
  0.6013152253959568  0.4403769595808609  0.3055019454936842   T   T   T
  0.4552424071633251  0.5998648882733836  0.3626844113418717   T   T   T
  0.4206556825541326  0.4875000088533125  0.3372546430649121   T   T   T
  0.6609279126229138  0.4265815829004977  0.6043619244189717   T   T   T
  0.6737486218928831  0.5789077804253946  0.5640277781174771   T   T   T
  0.5261031111410471  0.5092014744349154  0.3281180125080669   T   T   T
  0.5663784896081179  0.3568007048559870  0.4691489297465996   T   T   T
  0.3128731645310047  0.5394741423530369  0.4893781928763730   T   T   T
  0.6606882260883805  0.4294663775996247  0.4150064959682310   T   T   T
  0.5660841929594156  0.6261437171197244  0.5094829013827464   F   F   F
  0.5964868790042884  0.5268481715035536  0.6900828844240388   T   T   T
  0.4707725034989400  0.6425633978170882  0.5880467525493518   T   T   T
  0.4628921232602907  0.6037783558682114  0.4642856601670609   T   T   T
  0.7168673795694636  0.5748347733880377  0.3838968195256059   T   T   T
  0.5499310510395361  0.5822218838566187  0.4076968008106903   F   F   F
  0.4794126430662260  0.5072205383607624  0.4190535757241776   F   F   F
  0.6959425159544648  0.4825750702739338  0.3246313743898072   T   T   T
  0.7520276516402825  0.4289193908431866  0.4871477988346313   T   T   T
  0.7486345965247048  0.5389249893901018  0.4861683428606685   T   T   T
  0.7492171459878418  0.4890551193585708  0.5718601703230323   T   T   T
  0.6449317362832786  0.4312182354922235  0.7084177303493009   T   T   T
  0.5775900740368702  0.7436410953959476  0.4926402851744263   T   T   T
  0.6192554540844384  0.5183157687966542  0.3801816896793397   F   F   F
  0.5078085738876362  0.5639663859662385  0.6506846812626019   T   T   T
  0.4922009500451665  0.4366758245867572  0.4933013002826740   F   F   F
  0.5608844484509063  0.4404139570509003  0.6454865549417619   F   F   F
  0.5791928344342414  0.6174158115522606  0.6131911838018980   T   T   T
  0.5442808204900880  0.6170896640065633  0.3120065552603208   T   T   T
  0.6277270676262245  0.6248875420084798  0.3594771044621602   T   T   T
  0.3785438806268335  0.5550868275128542  0.4118213646169178   T   T   T
  0.4723078164089713  0.4557257050327763  0.5877273803360978   F   F   F
  0.7270584327334700  0.6357606168854728  0.4842246307150803   T   T   T
  0.4953037055471873  0.3752426768358387  0.6791147870830312   T   T   T
  0.3859648818872273  0.4377138121812891  0.6400396371514319   T   T   T
  0.5544592502646992  0.4379899399457940  0.4037542370104745   F   F   F
  0.4324740721009938  0.3578179105379645  0.6030445661514728   T   T   T
  0.5271847165146444  0.3483860302009226  0.5759301877090304   T   T   T
  0.2428864525743459  0.5128639754409188  0.4465080947541005   T   T   T
  0.2472703850961723  0.5879030542747338  0.4667071661767137   T   T   T
  0.2294750068969424  0.5546903760989847  0.4430374834279397   T   T   T
  0.2019131237160420  0.5630961227026764  0.4178191413011412   T   T   T
 
  0.00000000E+00  0.00000000E+00  0.00000000E+00
  0.00000000E+00  0.00000000E+00  0.00000000E+00
  0.00000000E+00  0.00000000E+00  0.00000000E+00
  0.00000000E+00  0.00000000E+00  0.00000000E+00
  0.00000000E+00  0.00000000E+00  0.00000000E+00
  0.00000000E+00  0.00000000E+00  0.00000000E+00
  0.00000000E+00  0.00000000E+00  0.00000000E+00
  0.00000000E+00  0.00000000E+00  0.00000000E+00
  0.00000000E+00  0.00000000E+00  0.00000000E+00
  0.00000000E+00  0.00000000E+00  0.00000000E+00
  0.00000000E+00  0.00000000E+00  0.00000000E+00
  0.00000000E+00  0.00000000E+00  0.00000000E+00
  0.00000000E+00  0.00000000E+00  0.00000000E+00
  0.00000000E+00  0.00000000E+00  0.00000000E+00
  0.00000000E+00  0.00000000E+00  0.00000000E+00
  0.00000000E+00  0.00000000E+00  0.00000000E+00
  0.00000000E+00  0.00000000E+00  0.00000000E+00
  0.00000000E+00  0.00000000E+00  0.00000000E+00
  0.00000000E+00  0.00000000E+00  0.00000000E+00
  0.00000000E+00  0.00000000E+00  0.00000000E+00
  0.00000000E+00  0.00000000E+00  0.00000000E+00
  0.00000000E+00  0.00000000E+00  0.00000000E+00
  0.00000000E+00  0.00000000E+00  0.00000000E+00
  0.00000000E+00  0.00000000E+00  0.00000000E+00
  0.00000000E+00  0.00000000E+00  0.00000000E+00
  0.00000000E+00  0.00000000E+00  0.00000000E+00
  0.00000000E+00  0.00000000E+00  0.00000000E+00
  0.00000000E+00  0.00000000E+00  0.00000000E+00
  0.00000000E+00  0.00000000E+00  0.00000000E+00
  0.00000000E+00  0.00000000E+00  0.00000000E+00
  0.00000000E+00  0.00000000E+00  0.00000000E+00
  0.00000000E+00  0.00000000E+00  0.00000000E+00
  0.00000000E+00  0.00000000E+00  0.00000000E+00
  0.00000000E+00  0.00000000E+00  0.00000000E+00
  0.00000000E+00  0.00000000E+00  0.00000000E+00
  0.00000000E+00  0.00000000E+00  0.00000000E+00
  0.00000000E+00  0.00000000E+00  0.00000000E+00
  0.00000000E+00  0.00000000E+00  0.00000000E+00
  0.00000000E+00  0.00000000E+00  0.00000000E+00
  0.00000000E+00  0.00000000E+00  0.00000000E+00
  0.00000000E+00  0.00000000E+00  0.00000000E+00
  0.00000000E+00  0.00000000E+00  0.00000000E+00
  0.00000000E+00  0.00000000E+00  0.00000000E+00
  0.00000000E+00  0.00000000E+00  0.00000000E+00
  0.00000000E+00  0.00000000E+00  0.00000000E+00
  0.00000000E+00  0.00000000E+00  0.00000000E+00
  0.00000000E+00  0.00000000E+00  0.00000000E+00
  0.00000000E+00  0.00000000E+00  0.00000000E+00
  0.00000000E+00  0.00000000E+00  0.00000000E+00
  0.00000000E+00  0.00000000E+00  0.00000000E+00
  0.00000000E+00  0.00000000E+00  0.00000000E+00
  0.00000000E+00  0.00000000E+00  0.00000000E+00
  0.00000000E+00  0.00000000E+00  0.00000000E+00
  0.00000000E+00  0.00000000E+00  0.00000000E+00
  0.00000000E+00  0.00000000E+00  0.00000000E+00
  0.00000000E+00  0.00000000E+00  0.00000000E+00
  0.00000000E+00  0.00000000E+00  0.00000000E+00
  0.00000000E+00  0.00000000E+00  0.00000000E+00
  0.00000000E+00  0.00000000E+00  0.00000000E+00
  0.00000000E+00  0.00000000E+00  0.00000000E+00
  0.00000000E+00  0.00000000E+00  0.00000000E+00
  0.00000000E+00  0.00000000E+00  0.00000000E+00
  0.00000000E+00  0.00000000E+00  0.00000000E+00
  0.00000000E+00  0.00000000E+00  0.00000000E+00
  0.00000000E+00  0.00000000E+00  0.00000000E+00
  0.00000000E+00  0.00000000E+00  0.00000000E+00
  0.00000000E+00  0.00000000E+00  0.00000000E+00
  0.00000000E+00  0.00000000E+00  0.00000000E+00
  0.00000000E+00  0.00000000E+00  0.00000000E+00
  0.00000000E+00  0.00000000E+00  0.00000000E+00
  0.00000000E+00  0.00000000E+00  0.00000000E+00
  0.00000000E+00  0.00000000E+00  0.00000000E+00
