Bi La Sn O  C  H                        
   1.00000000000000     
    29.0000000000000000    0.0000000000000000    0.0000000000000000
     0.2488180851000000   28.9989325590000000    0.0000000000000000
    -0.0631677343000000   -0.4515975666000000   28.9964147692999994
   Bi   La   Sn   O    C    H 
    22    23    23     2     1     1
Selective dynamics
Direct
  0.7603956146167420  0.4774153012873517  0.3987196102988897   T   T   T
  0.6462232227375659  0.6846484050883918  0.5525515328534509   T   T   T
  0.3581539662697403  0.4625469893589657  0.4268203063123620   T   T   T
  0.5501435479479097  0.7131453956455106  0.5850379593850109   T   T   T
  0.5915029568994470  0.5209714444905416  0.5841479689498996   F   F   F
  0.6395268368334075  0.6809146663987145  0.4456949565030690   T   T   T
  0.6963402341016355  0.5231669757149449  0.6542589433594610   T   T   T
  0.4855878587386279  0.7006872955655882  0.5005147899030483   T   T   T
  0.5004839460855024  0.5502791173970252  0.5477141156400123   F   F   F
  0.3257232041899231  0.4853723779271547  0.5706734406634810   T   T   T
  0.3829138055016565  0.6118405560791988  0.5346192399395701   T   T   T
  0.6667129484492236  0.4827404655721850  0.5105018184570156   F   F   F
  0.5763997220267569  0.4263140504383500  0.5448328182496311   F   F   F
  0.6706496072518517  0.3743883327761360  0.5073542322721516   T   T   T
  0.4682743890151326  0.3381103342945020  0.5027332578365851   T   T   T
  0.6484934028780529  0.5775373212088155  0.4602701624361103   F   F   F
  0.5587289952229177  0.4366791953568875  0.7494190860379715   T   T   T
  0.6063957747702747  0.3530108925060396  0.6717243315221386   T   T   T
  0.4950490460409299  0.2974390838928574  0.4133118064580482   T   T   T
  0.6596419062806146  0.6191226217484486  0.6658694368323650   T   T   T
  0.4933500224594264  0.4102446230447616  0.3114136519898036   T   T   T
  0.6243998943248814  0.3178841008868622  0.5750940247633624   T   T   T
  0.5383626062575235  0.6839633601666892  0.4048504642831370   T   T   T
  0.3889833347499242  0.4114585334864435  0.5235206362178512   T   T   T
  0.6303157499442366  0.5522925950750136  0.2832603198584289   T   T   T
  0.4707122760025779  0.4690253136091645  0.6914827455650985   T   T   T
  0.5683115009887700  0.5094300495444983  0.4784716241115703   F   F   F
  0.4203210565129183  0.5084107200613417  0.5018573595042781   F   F   F
  0.4490437297157324  0.3983786788641088  0.4090140667859616   T   T   T
  0.5644556438545908  0.3466324240747546  0.3565081350211344   T   T   T
  0.4100984730632992  0.5404676740390779  0.6086735596624816   T   T   T
  0.5990725000971098  0.4419346297631820  0.3047431742905196   T   T   T
  0.4558654457912378  0.6015813833566239  0.3622459215629827   T   T   T
  0.4187962808834126  0.4882853709080044  0.3395527014942918   T   T   T
  0.6612858038806135  0.4293453652555682  0.6048068949484462   T   T   T
  0.6731762747144963  0.5788620311519035  0.5638172625912167   T   T   T
  0.5267629286977821  0.5105561871715411  0.3279308831599200   T   T   T
  0.5687637512687702  0.3587876981349685  0.4681560934233990   T   T   T
  0.3154823505957119  0.5449991592830189  0.4903418711877797   T   T   T
  0.6609548022453485  0.4296945889347039  0.4159617549837661   T   T   T
  0.5660841929594156  0.6261437171197244  0.5094829013827464   F   F   F
  0.5958083127088346  0.5291413336657166  0.6895407304523461   T   T   T
  0.4703121718873147  0.6412347186718738  0.5891381482714049   T   T   T
  0.4636071084858164  0.6032818553877526  0.4634510822015755   T   T   T
  0.7166342686339222  0.5727933342436321  0.3830562341796303   T   T   T
  0.5499310510395361  0.5822218838566187  0.4076968008106903   F   F   F
  0.4794126430662260  0.5072205383607624  0.4190535757241776   F   F   F
  0.6954610479859590  0.4791589687473158  0.3246804980880789   T   T   T
  0.7527474581705457  0.4301404778129521  0.4886605419700538   T   T   T
  0.7481124791938788  0.5380128724244060  0.4849573935781475   T   T   T
  0.7491027957809984  0.4913914301429763  0.5726982300335177   T   T   T
  0.6493208755538430  0.4388728538088738  0.7097767857311394   T   T   T
  0.5759877695473948  0.7427077747152435  0.4935371660080458   T   T   T
  0.6192554540844384  0.5183157687966542  0.3801816896793397   F   F   F
  0.5041369178433804  0.5581464218135973  0.6500976493632477   T   T   T
  0.4922009500451665  0.4366758245867572  0.4933013002826740   F   F   F
  0.5608844484509063  0.4404139570509003  0.6454865549417619   F   F   F
  0.5765926823785744  0.6157774807605375  0.6139190128434424   T   T   T
  0.5462297718064403  0.6184469781613933  0.3125278569255867   T   T   T
  0.6284576795972271  0.6254220042565251  0.3611694946883646   T   T   T
  0.3779449703999034  0.5586264022497849  0.4118465679684006   T   T   T
  0.4723078164089713  0.4557257050327763  0.5877273803360978   F   F   F
  0.7266052149444471  0.6352045004948161  0.4839098792834655   T   T   T
  0.5056291643951731  0.3674864213630169  0.6851619816115807   T   T   T
  0.3803546032657852  0.4415187792632274  0.6379037001321918   T   T   T
  0.5544592502646992  0.4379899399457940  0.4037542370104745   F   F   F
  0.4354476580344868  0.3648468045455687  0.6112426166167743   T   T   T
  0.5307098817258499  0.3490976829098262  0.5827424493385658   T   T   T
  0.3486772196428641  0.3470520217260974  0.4875520214611275   T   T   T
  0.3812775456439867  0.3502714535646827  0.4167731978503565   T   T   T
  0.3532280607070301  0.3338176793716681  0.4456563058434731   T   T   T
  0.3307589815833204  0.3053650905088197  0.4333494384340946   T   T   T
 
  0.00000000E+00  0.00000000E+00  0.00000000E+00
  0.00000000E+00  0.00000000E+00  0.00000000E+00
  0.00000000E+00  0.00000000E+00  0.00000000E+00
  0.00000000E+00  0.00000000E+00  0.00000000E+00
  0.00000000E+00  0.00000000E+00  0.00000000E+00
  0.00000000E+00  0.00000000E+00  0.00000000E+00
  0.00000000E+00  0.00000000E+00  0.00000000E+00
  0.00000000E+00  0.00000000E+00  0.00000000E+00
  0.00000000E+00  0.00000000E+00  0.00000000E+00
  0.00000000E+00  0.00000000E+00  0.00000000E+00
  0.00000000E+00  0.00000000E+00  0.00000000E+00
  0.00000000E+00  0.00000000E+00  0.00000000E+00
  0.00000000E+00  0.00000000E+00  0.00000000E+00
  0.00000000E+00  0.00000000E+00  0.00000000E+00
  0.00000000E+00  0.00000000E+00  0.00000000E+00
  0.00000000E+00  0.00000000E+00  0.00000000E+00
  0.00000000E+00  0.00000000E+00  0.00000000E+00
  0.00000000E+00  0.00000000E+00  0.00000000E+00
  0.00000000E+00  0.00000000E+00  0.00000000E+00
  0.00000000E+00  0.00000000E+00  0.00000000E+00
  0.00000000E+00  0.00000000E+00  0.00000000E+00
  0.00000000E+00  0.00000000E+00  0.00000000E+00
  0.00000000E+00  0.00000000E+00  0.00000000E+00
  0.00000000E+00  0.00000000E+00  0.00000000E+00
  0.00000000E+00  0.00000000E+00  0.00000000E+00
  0.00000000E+00  0.00000000E+00  0.00000000E+00
  0.00000000E+00  0.00000000E+00  0.00000000E+00
  0.00000000E+00  0.00000000E+00  0.00000000E+00
  0.00000000E+00  0.00000000E+00  0.00000000E+00
  0.00000000E+00  0.00000000E+00  0.00000000E+00
  0.00000000E+00  0.00000000E+00  0.00000000E+00
  0.00000000E+00  0.00000000E+00  0.00000000E+00
  0.00000000E+00  0.00000000E+00  0.00000000E+00
  0.00000000E+00  0.00000000E+00  0.00000000E+00
  0.00000000E+00  0.00000000E+00  0.00000000E+00
  0.00000000E+00  0.00000000E+00  0.00000000E+00
  0.00000000E+00  0.00000000E+00  0.00000000E+00
  0.00000000E+00  0.00000000E+00  0.00000000E+00
  0.00000000E+00  0.00000000E+00  0.00000000E+00
  0.00000000E+00  0.00000000E+00  0.00000000E+00
  0.00000000E+00  0.00000000E+00  0.00000000E+00
  0.00000000E+00  0.00000000E+00  0.00000000E+00
  0.00000000E+00  0.00000000E+00  0.00000000E+00
  0.00000000E+00  0.00000000E+00  0.00000000E+00
  0.00000000E+00  0.00000000E+00  0.00000000E+00
  0.00000000E+00  0.00000000E+00  0.00000000E+00
  0.00000000E+00  0.00000000E+00  0.00000000E+00
  0.00000000E+00  0.00000000E+00  0.00000000E+00
  0.00000000E+00  0.00000000E+00  0.00000000E+00
  0.00000000E+00  0.00000000E+00  0.00000000E+00
  0.00000000E+00  0.00000000E+00  0.00000000E+00
  0.00000000E+00  0.00000000E+00  0.00000000E+00
  0.00000000E+00  0.00000000E+00  0.00000000E+00
  0.00000000E+00  0.00000000E+00  0.00000000E+00
  0.00000000E+00  0.00000000E+00  0.00000000E+00
  0.00000000E+00  0.00000000E+00  0.00000000E+00
  0.00000000E+00  0.00000000E+00  0.00000000E+00
  0.00000000E+00  0.00000000E+00  0.00000000E+00
  0.00000000E+00  0.00000000E+00  0.00000000E+00
  0.00000000E+00  0.00000000E+00  0.00000000E+00
  0.00000000E+00  0.00000000E+00  0.00000000E+00
  0.00000000E+00  0.00000000E+00  0.00000000E+00
  0.00000000E+00  0.00000000E+00  0.00000000E+00
  0.00000000E+00  0.00000000E+00  0.00000000E+00
  0.00000000E+00  0.00000000E+00  0.00000000E+00
  0.00000000E+00  0.00000000E+00  0.00000000E+00
  0.00000000E+00  0.00000000E+00  0.00000000E+00
  0.00000000E+00  0.00000000E+00  0.00000000E+00
  0.00000000E+00  0.00000000E+00  0.00000000E+00
  0.00000000E+00  0.00000000E+00  0.00000000E+00
  0.00000000E+00  0.00000000E+00  0.00000000E+00
  0.00000000E+00  0.00000000E+00  0.00000000E+00
