Bi La Sn O  C  H                        
   1.00000000000000     
    29.0000000000000000    0.0000000000000000    0.0000000000000000
     0.2488180851000000   28.9989325590000000    0.0000000000000000
    -0.0631677343000000   -0.4515975666000000   28.9964147692999994
   Bi   La   Sn   O    C    H 
    22    23    23     2     1     1
Selective dynamics
Direct
  0.7601917969300959  0.4767753664332416  0.3982957794623844   T   T   T
  0.6466655665610203  0.6845707821035903  0.5530231717270936   T   T   T
  0.3600726546633089  0.4594827838187288  0.4278566528259392   T   T   T
  0.5503262506714652  0.7150293913004475  0.5814504221698482   T   T   T
  0.5915029568994470  0.5209714444905416  0.5841479689498996   F   F   F
  0.6386841530901923  0.6833932993319560  0.4491227767872474   T   T   T
  0.6962015916297910  0.5224002626345045  0.6540735680733298   T   T   T
  0.4855064817022055  0.7015617832580632  0.4990755580188566   T   T   T
  0.5004839460855024  0.5502791173970252  0.5477141156400123   F   F   F
  0.3254288397747293  0.4868810602914679  0.5745568963612163   T   T   T
  0.3828824534839140  0.6107182364585987  0.5353331699286553   T   T   T
  0.6667129484492236  0.4827404655721850  0.5105018184570156   F   F   F
  0.5763997220267569  0.4263140504383500  0.5448328182496311   F   F   F
  0.6695692729201388  0.3740115432616944  0.5065014015703073   T   T   T
  0.4638731103622702  0.3392377726010798  0.5002728739940668   T   T   T
  0.6484934028780529  0.5775373212088155  0.4602701624361103   F   F   F
  0.5589075607244812  0.4364953064376362  0.7493759347179405   T   T   T
  0.6038622349930481  0.3520770496948246  0.6694182876226941   T   T   T
  0.4921235606175404  0.2990663008138352  0.4106638001274854   T   T   T
  0.6601478492356470  0.6185751601836499  0.6661116219753689   T   T   T
  0.4921326149236467  0.4108938223362503  0.3072436277716748   T   T   T
  0.6220288210886791  0.3170270358766755  0.5729330350127946   T   T   T
  0.5401565006497132  0.6845065448749827  0.4049489870009235   T   T   T
  0.3904085994000913  0.4155933023944913  0.5274801932990947   T   T   T
  0.6303857630541899  0.5527674888076319  0.2835252680996710   T   T   T
  0.4716611527704739  0.4713691035673793  0.6919108505880276   T   T   T
  0.5683115009887700  0.5094300495444983  0.4784716241115703   F   F   F
  0.4203210565129183  0.5084107200613417  0.5018573595042781   F   F   F
  0.4519052212276202  0.4009010801719420  0.4070834418482641   T   T   T
  0.5629147714529560  0.3482449244104174  0.3544902897678059   T   T   T
  0.4111900664997838  0.5406449331166965  0.6098890522284905   T   T   T
  0.5982318180627817  0.4426167108257382  0.3037637397720376   T   T   T
  0.4556695162138626  0.6010905018875018  0.3621528122442900   T   T   T
  0.4186006803897684  0.4880756223413004  0.3392632594138005   T   T   T
  0.6613401430745949  0.4285341605923757  0.6044111811997686   T   T   T
  0.6734245881820002  0.5788211525119742  0.5639320275368628   T   T   T
  0.5265360288559765  0.5101866479566675  0.3278964942085159   T   T   T
  0.5664857547604388  0.3578954450067997  0.4686853668918508   T   T   T
  0.3162539214289651  0.5426308081146132  0.4910562037150345   T   T   T
  0.6603332788862540  0.4296170798307825  0.4155900482405236   T   T   T
  0.5660841929594156  0.6261437171197244  0.5094829013827464   F   F   F
  0.5959670039684054  0.5288934812065254  0.6897273651835409   T   T   T
  0.4712706369383889  0.6424415880109408  0.5879994457675046   T   T   T
  0.4640545217710119  0.6035222864833156  0.4640431509720642   T   T   T
  0.7167691095010815  0.5723315970346445  0.3827410593235565   T   T   T
  0.5499310510395361  0.5822218838566187  0.4076968008106903   F   F   F
  0.4794126430662260  0.5072205383607624  0.4190535757241776   F   F   F
  0.6952441565363169  0.4791312473891365  0.3243386380680864   T   T   T
  0.7520233072654486  0.4295662104699669  0.4879775332067612   T   T   T
  0.7478546121041902  0.5382994031147297  0.4843011059157106   T   T   T
  0.7490326941864068  0.4912064117727527  0.5720236567260405   T   T   T
  0.6489393036438708  0.4375985933131541  0.7088791695401482   T   T   T
  0.5731740490747991  0.7502416315808119  0.4910266697857800   T   T   T
  0.6192554540844384  0.5183157687966542  0.3801816896793397   F   F   F
  0.5052988805767459  0.5599533402377246  0.6500373028045378   T   T   T
  0.4922009500451665  0.4366758245867572  0.4933013002826740   F   F   F
  0.5608844484509063  0.4404139570509003  0.6454865549417619   F   F   F
  0.5774020829360711  0.6166929991174862  0.6133980321659014   T   T   T
  0.5462789113327644  0.6182028972497072  0.3131174768126895   T   T   T
  0.6287861463356041  0.6258128803226488  0.3627170104790983   T   T   T
  0.3780723170757741  0.5576921497336110  0.4124182723226903   T   T   T
  0.4723078164089713  0.4557257050327763  0.5877273803360978   F   F   F
  0.7259321677859936  0.6359580391883208  0.4839777789790812   T   T   T
  0.5036528194478305  0.3687426561344113  0.6856396038781076   T   T   T
  0.3809667116232409  0.4417131585356318  0.6404641181625186   T   T   T
  0.5544592502646992  0.4379899399457940  0.4037542370104745   F   F   F
  0.4345710363980538  0.3644977603794127  0.6112575585137201   T   T   T
  0.5283189707714560  0.3492520747990634  0.5804300195547922   T   T   T
  0.5340354262596972  0.8230268059110619  0.5085585048265318   T   T   T
  0.6078003492724996  0.8162471950191185  0.5322216029781109   T   T   T
  0.5697096619086510  0.8382747809404566  0.5295097661912893   T   T   T
  0.5670787422908208  0.8726508658840144  0.5469444604361161   T   T   T
 
  0.00000000E+00  0.00000000E+00  0.00000000E+00
  0.00000000E+00  0.00000000E+00  0.00000000E+00
  0.00000000E+00  0.00000000E+00  0.00000000E+00
  0.00000000E+00  0.00000000E+00  0.00000000E+00
  0.00000000E+00  0.00000000E+00  0.00000000E+00
  0.00000000E+00  0.00000000E+00  0.00000000E+00
  0.00000000E+00  0.00000000E+00  0.00000000E+00
  0.00000000E+00  0.00000000E+00  0.00000000E+00
  0.00000000E+00  0.00000000E+00  0.00000000E+00
  0.00000000E+00  0.00000000E+00  0.00000000E+00
  0.00000000E+00  0.00000000E+00  0.00000000E+00
  0.00000000E+00  0.00000000E+00  0.00000000E+00
  0.00000000E+00  0.00000000E+00  0.00000000E+00
  0.00000000E+00  0.00000000E+00  0.00000000E+00
  0.00000000E+00  0.00000000E+00  0.00000000E+00
  0.00000000E+00  0.00000000E+00  0.00000000E+00
  0.00000000E+00  0.00000000E+00  0.00000000E+00
  0.00000000E+00  0.00000000E+00  0.00000000E+00
  0.00000000E+00  0.00000000E+00  0.00000000E+00
  0.00000000E+00  0.00000000E+00  0.00000000E+00
  0.00000000E+00  0.00000000E+00  0.00000000E+00
  0.00000000E+00  0.00000000E+00  0.00000000E+00
  0.00000000E+00  0.00000000E+00  0.00000000E+00
  0.00000000E+00  0.00000000E+00  0.00000000E+00
  0.00000000E+00  0.00000000E+00  0.00000000E+00
  0.00000000E+00  0.00000000E+00  0.00000000E+00
  0.00000000E+00  0.00000000E+00  0.00000000E+00
  0.00000000E+00  0.00000000E+00  0.00000000E+00
  0.00000000E+00  0.00000000E+00  0.00000000E+00
  0.00000000E+00  0.00000000E+00  0.00000000E+00
  0.00000000E+00  0.00000000E+00  0.00000000E+00
  0.00000000E+00  0.00000000E+00  0.00000000E+00
  0.00000000E+00  0.00000000E+00  0.00000000E+00
  0.00000000E+00  0.00000000E+00  0.00000000E+00
  0.00000000E+00  0.00000000E+00  0.00000000E+00
  0.00000000E+00  0.00000000E+00  0.00000000E+00
  0.00000000E+00  0.00000000E+00  0.00000000E+00
  0.00000000E+00  0.00000000E+00  0.00000000E+00
  0.00000000E+00  0.00000000E+00  0.00000000E+00
  0.00000000E+00  0.00000000E+00  0.00000000E+00
  0.00000000E+00  0.00000000E+00  0.00000000E+00
  0.00000000E+00  0.00000000E+00  0.00000000E+00
  0.00000000E+00  0.00000000E+00  0.00000000E+00
  0.00000000E+00  0.00000000E+00  0.00000000E+00
  0.00000000E+00  0.00000000E+00  0.00000000E+00
  0.00000000E+00  0.00000000E+00  0.00000000E+00
  0.00000000E+00  0.00000000E+00  0.00000000E+00
  0.00000000E+00  0.00000000E+00  0.00000000E+00
  0.00000000E+00  0.00000000E+00  0.00000000E+00
  0.00000000E+00  0.00000000E+00  0.00000000E+00
  0.00000000E+00  0.00000000E+00  0.00000000E+00
  0.00000000E+00  0.00000000E+00  0.00000000E+00
  0.00000000E+00  0.00000000E+00  0.00000000E+00
  0.00000000E+00  0.00000000E+00  0.00000000E+00
  0.00000000E+00  0.00000000E+00  0.00000000E+00
  0.00000000E+00  0.00000000E+00  0.00000000E+00
  0.00000000E+00  0.00000000E+00  0.00000000E+00
  0.00000000E+00  0.00000000E+00  0.00000000E+00
  0.00000000E+00  0.00000000E+00  0.00000000E+00
  0.00000000E+00  0.00000000E+00  0.00000000E+00
  0.00000000E+00  0.00000000E+00  0.00000000E+00
  0.00000000E+00  0.00000000E+00  0.00000000E+00
  0.00000000E+00  0.00000000E+00  0.00000000E+00
  0.00000000E+00  0.00000000E+00  0.00000000E+00
  0.00000000E+00  0.00000000E+00  0.00000000E+00
  0.00000000E+00  0.00000000E+00  0.00000000E+00
  0.00000000E+00  0.00000000E+00  0.00000000E+00
  0.00000000E+00  0.00000000E+00  0.00000000E+00
  0.00000000E+00  0.00000000E+00  0.00000000E+00
  0.00000000E+00  0.00000000E+00  0.00000000E+00
  0.00000000E+00  0.00000000E+00  0.00000000E+00
  0.00000000E+00  0.00000000E+00  0.00000000E+00
