Bi La Sn O  C  H                        
   1.00000000000000     
    29.0000000000000000    0.0000000000000000    0.0000000000000000
     0.2488180851000000   28.9989325590000000    0.0000000000000000
    -0.0631677343000000   -0.4515975666000000   28.9964147692999994
   Bi   La   Sn   O    C    H 
    22    23    23     2     1     1
Selective dynamics
Direct
  0.7597560776436562  0.4789822923859977  0.3984726928016996   T   T   T
  0.6476333376097637  0.6849179642111700  0.5502372033761863   T   T   T
  0.3616588207950640  0.4597358658324135  0.4255780673873001   T   T   T
  0.5507481431168971  0.7135589738415828  0.5836769048634780   T   T   T
  0.5915029568994470  0.5209714444905416  0.5841479689498996   F   F   F
  0.6397200812653170  0.6795746200248980  0.4443662084363569   T   T   T
  0.6955055007773449  0.5206301971222257  0.6539349299710910   T   T   T
  0.4869167084337773  0.7016123926021027  0.4985858090585717   T   T   T
  0.5004839460855024  0.5502791173970252  0.5477141156400123   F   F   F
  0.3266930805522631  0.4870802150857911  0.5763875440286836   T   T   T
  0.3821409965618188  0.6095717637173373  0.5357678907295201   T   T   T
  0.6667129484492236  0.4827404655721850  0.5105018184570156   F   F   F
  0.5763997220267569  0.4263140504383500  0.5448328182496311   F   F   F
  0.6688817202675996  0.3742979593406781  0.5066049789499414   T   T   T
  0.4623044650896224  0.3402064784644665  0.4976419114680652   T   T   T
  0.6484934028780529  0.5775373212088155  0.4602701624361103   F   F   F
  0.5556736771549518  0.4348924110889033  0.7497945549295379   T   T   T
  0.5972407866505675  0.3490962640143549  0.6677785751922816   T   T   T
  0.4928427135442156  0.2994941595440835  0.4088135974415710   T   T   T
  0.6601006910617164  0.6165496998525870  0.6674650471161174   T   T   T
  0.4898339321073562  0.4123674631458474  0.3030996581056488   T   T   T
  0.6220183485350920  0.3160390576039480  0.5723898317798903   T   T   T
  0.5389826558592284  0.6838639315976950  0.4035437097529197   T   T   T
  0.3871260432821569  0.4145318573001346  0.5241160771757987   T   T   T
  0.6269170272058492  0.5514518086944659  0.2819374127712679   T   T   T
  0.4719879818574402  0.4764051282678129  0.6918557718902770   T   T   T
  0.5683115009887700  0.5094300495444983  0.4784716241115703   F   F   F
  0.4203210565129183  0.5084107200613417  0.5018573595042781   F   F   F
  0.4534923277368306  0.4018122357770640  0.4044950394368865   T   T   T
  0.5604452660698527  0.3505560164390157  0.3510961144455476   T   T   T
  0.4125455227787620  0.5403185788730391  0.6109609594527683   T   T   T
  0.5994283306292170  0.4410430224917583  0.3047683939023161   T   T   T
  0.4548142182881909  0.6013727332089825  0.3636781120607824   T   T   T
  0.4187526725870811  0.4908883547338242  0.3374021379314801   T   T   T
  0.6608863943589759  0.4272974570777137  0.6042080468636595   T   T   T
  0.6734668693580325  0.5788975362076676  0.5640311138180979   T   T   T
  0.5259093585750916  0.5095922344803294  0.3286152266569210   T   T   T
  0.5663433357985832  0.3571065662714227  0.4687667221010009   T   T   T
  0.3156294075013666  0.5407153441722320  0.4916372562099009   T   T   T
  0.6608303506535731  0.4298790440219487  0.4152420946067118   T   T   T
  0.5660841929594156  0.6261437171197244  0.5094829013827464   F   F   F
  0.5959110453267680  0.5274008692713908  0.6901107690548274   T   T   T
  0.4703528816045757  0.6422546376901385  0.5874028890707725   T   T   T
  0.4634217808403439  0.6034554934784835  0.4640972429542195   T   T   T
  0.7161404313719077  0.5741975561016848  0.3831275383616728   T   T   T
  0.5499310510395361  0.5822218838566187  0.4076968008106903   F   F   F
  0.4794126430662260  0.5072205383607624  0.4190535757241776   F   F   F
  0.6949174318616770  0.4815032080007863  0.3237282076826839   T   T   T
  0.7518260299706703  0.4297252433311575  0.4869802707962325   T   T   T
  0.7483097194497884  0.5379894853400756  0.4851560761989184   T   T   T
  0.7487853082187405  0.4899764670320851  0.5723465512136727   T   T   T
  0.6455630438619121  0.4327461493096559  0.7085914571514165   T   T   T
  0.5776611757752966  0.7434875525530872  0.4925711564593556   T   T   T
  0.6192554540844384  0.5183157687966542  0.3801816896793397   F   F   F
  0.5065571055796406  0.5632581942943203  0.6504714151158429   T   T   T
  0.4922009500451665  0.4366758245867572  0.4933013002826740   F   F   F
  0.5608844484509063  0.4404139570509003  0.6454865549417619   F   F   F
  0.5784280215204740  0.6170971601404517  0.6133046518043491   T   T   T
  0.5434073043084316  0.6170567672389228  0.3116367138498662   T   T   T
  0.6268959885179276  0.6247391489127202  0.3592945647721235   T   T   T
  0.3768361375231135  0.5579128272765136  0.4129834874210738   T   T   T
  0.4723078164089713  0.4557257050327763  0.5877273803360978   F   F   F
  0.7269110131030272  0.6353987351556237  0.4840055602017713   T   T   T
  0.4985356335048052  0.3736936836816649  0.6807678119632244   T   T   T
  0.3840288955453762  0.4390945617250941  0.6392256710699487   T   T   T
  0.5544592502646992  0.4379899399457940  0.4037542370104745   F   F   F
  0.4336243042225500  0.3596959837471549  0.6049261724512822   T   T   T
  0.5277524383499591  0.3487453813230266  0.5769973021605330   T   T   T
  0.3510599461005207  0.3444007526795578  0.5253542134318627   T   T   T
  0.3937830974245307  0.2784380238353559  0.5315907377727427   T   T   T
  0.3565854288128738  0.2997153309567266  0.5281054842662692   T   T   T
  0.3236006268737807  0.2802964954060851  0.5273068206164270   T   T   T
 
  0.00000000E+00  0.00000000E+00  0.00000000E+00
  0.00000000E+00  0.00000000E+00  0.00000000E+00
  0.00000000E+00  0.00000000E+00  0.00000000E+00
  0.00000000E+00  0.00000000E+00  0.00000000E+00
  0.00000000E+00  0.00000000E+00  0.00000000E+00
  0.00000000E+00  0.00000000E+00  0.00000000E+00
  0.00000000E+00  0.00000000E+00  0.00000000E+00
  0.00000000E+00  0.00000000E+00  0.00000000E+00
  0.00000000E+00  0.00000000E+00  0.00000000E+00
  0.00000000E+00  0.00000000E+00  0.00000000E+00
  0.00000000E+00  0.00000000E+00  0.00000000E+00
  0.00000000E+00  0.00000000E+00  0.00000000E+00
  0.00000000E+00  0.00000000E+00  0.00000000E+00
  0.00000000E+00  0.00000000E+00  0.00000000E+00
  0.00000000E+00  0.00000000E+00  0.00000000E+00
  0.00000000E+00  0.00000000E+00  0.00000000E+00
  0.00000000E+00  0.00000000E+00  0.00000000E+00
  0.00000000E+00  0.00000000E+00  0.00000000E+00
  0.00000000E+00  0.00000000E+00  0.00000000E+00
  0.00000000E+00  0.00000000E+00  0.00000000E+00
  0.00000000E+00  0.00000000E+00  0.00000000E+00
  0.00000000E+00  0.00000000E+00  0.00000000E+00
  0.00000000E+00  0.00000000E+00  0.00000000E+00
  0.00000000E+00  0.00000000E+00  0.00000000E+00
  0.00000000E+00  0.00000000E+00  0.00000000E+00
  0.00000000E+00  0.00000000E+00  0.00000000E+00
  0.00000000E+00  0.00000000E+00  0.00000000E+00
  0.00000000E+00  0.00000000E+00  0.00000000E+00
  0.00000000E+00  0.00000000E+00  0.00000000E+00
  0.00000000E+00  0.00000000E+00  0.00000000E+00
  0.00000000E+00  0.00000000E+00  0.00000000E+00
  0.00000000E+00  0.00000000E+00  0.00000000E+00
  0.00000000E+00  0.00000000E+00  0.00000000E+00
  0.00000000E+00  0.00000000E+00  0.00000000E+00
  0.00000000E+00  0.00000000E+00  0.00000000E+00
  0.00000000E+00  0.00000000E+00  0.00000000E+00
  0.00000000E+00  0.00000000E+00  0.00000000E+00
  0.00000000E+00  0.00000000E+00  0.00000000E+00
  0.00000000E+00  0.00000000E+00  0.00000000E+00
  0.00000000E+00  0.00000000E+00  0.00000000E+00
  0.00000000E+00  0.00000000E+00  0.00000000E+00
  0.00000000E+00  0.00000000E+00  0.00000000E+00
  0.00000000E+00  0.00000000E+00  0.00000000E+00
  0.00000000E+00  0.00000000E+00  0.00000000E+00
  0.00000000E+00  0.00000000E+00  0.00000000E+00
  0.00000000E+00  0.00000000E+00  0.00000000E+00
  0.00000000E+00  0.00000000E+00  0.00000000E+00
  0.00000000E+00  0.00000000E+00  0.00000000E+00
  0.00000000E+00  0.00000000E+00  0.00000000E+00
  0.00000000E+00  0.00000000E+00  0.00000000E+00
  0.00000000E+00  0.00000000E+00  0.00000000E+00
  0.00000000E+00  0.00000000E+00  0.00000000E+00
  0.00000000E+00  0.00000000E+00  0.00000000E+00
  0.00000000E+00  0.00000000E+00  0.00000000E+00
  0.00000000E+00  0.00000000E+00  0.00000000E+00
  0.00000000E+00  0.00000000E+00  0.00000000E+00
  0.00000000E+00  0.00000000E+00  0.00000000E+00
  0.00000000E+00  0.00000000E+00  0.00000000E+00
  0.00000000E+00  0.00000000E+00  0.00000000E+00
  0.00000000E+00  0.00000000E+00  0.00000000E+00
  0.00000000E+00  0.00000000E+00  0.00000000E+00
  0.00000000E+00  0.00000000E+00  0.00000000E+00
  0.00000000E+00  0.00000000E+00  0.00000000E+00
  0.00000000E+00  0.00000000E+00  0.00000000E+00
  0.00000000E+00  0.00000000E+00  0.00000000E+00
  0.00000000E+00  0.00000000E+00  0.00000000E+00
  0.00000000E+00  0.00000000E+00  0.00000000E+00
  0.00000000E+00  0.00000000E+00  0.00000000E+00
  0.00000000E+00  0.00000000E+00  0.00000000E+00
  0.00000000E+00  0.00000000E+00  0.00000000E+00
  0.00000000E+00  0.00000000E+00  0.00000000E+00
  0.00000000E+00  0.00000000E+00  0.00000000E+00
