Bi La Sn O  C  H                        
   1.00000000000000     
    29.0000000000000000    0.0000000000000000    0.0000000000000000
     0.2488180851000000   28.9989325590000000    0.0000000000000000
    -0.0631677343000000   -0.4515975666000000   28.9964147692999994
   Bi   La   Sn   O    C    H 
    22    23    23     2     1     1
Selective dynamics
Direct
  0.7603007182252449  0.4763654181826592  0.3984635097219873   T   T   T
  0.6463118262432974  0.6821693643021547  0.5560327450681966   T   T   T
  0.3594639420515016  0.4603656275028272  0.4284335703917794   T   T   T
  0.5524862517167318  0.7120291904072950  0.5890959575915143   T   T   T
  0.5915029568994470  0.5209714444905416  0.5841479689498996   F   F   F
  0.6390171563042466  0.6824962666282620  0.4490715605709099   T   T   T
  0.6974769644042849  0.5244784311139462  0.6555855229463032   T   T   T
  0.4839470119256438  0.6975395905165923  0.5086654588775872   T   T   T
  0.5004839460855024  0.5502791173970252  0.5477141156400123   F   F   F
  0.3225688059896982  0.4865417557908267  0.5719028523834573   T   T   T
  0.3864382537020353  0.6146360508344497  0.5378886589153161   T   T   T
  0.6667129484492236  0.4827404655721850  0.5105018184570156   F   F   F
  0.5763997220267569  0.4263140504383500  0.5448328182496311   F   F   F
  0.6680278969612059  0.3743975909714181  0.5081601959635507   T   T   T
  0.4633231303325081  0.3390971279279337  0.5001176625927084   T   T   T
  0.6484934028780529  0.5775373212088155  0.4602701624361103   F   F   F
  0.5601001284629030  0.4427463404662680  0.7491085401328269   T   T   T
  0.6125977805927211  0.3536809303156519  0.6651460724219073   T   T   T
  0.4908501043242454  0.2997967080081742  0.4097376324456306   T   T   T
  0.6633635230033815  0.6213071890930282  0.6622768485715077   T   T   T
  0.4907602979254642  0.4120251250543663  0.3055521953235111   T   T   T
  0.6191622525622075  0.3136780828335395  0.5694641916171572   T   T   T
  0.5361249548500289  0.6837979126569349  0.4094203976482338   T   T   T
  0.3906663261957186  0.4160150102872792  0.5284326580472163   T   T   T
  0.6296593147404101  0.5542136012511574  0.2849833526239783   T   T   T
  0.4688657470835698  0.4602647690350307  0.6920108732180961   T   T   T
  0.5683115009887700  0.5094300495444983  0.4784716241115703   F   F   F
  0.4203210565129183  0.5084107200613417  0.5018573595042781   F   F   F
  0.4515249766537222  0.4014634335273131  0.4061743626962687   T   T   T
  0.5604410938843629  0.3492620308969972  0.3524115713512774   T   T   T
  0.4085703150291652  0.5392021608287422  0.6080774356704304   T   T   T
  0.5984263831390684  0.4428373703554651  0.3041858244352474   T   T   T
  0.4552789802963533  0.6015116524441219  0.3630834842167592   T   T   T
  0.4182743830847194  0.4885072574764995  0.3391043628682114   T   T   T
  0.6615945978337937  0.4327190921506957  0.6048384480291616   T   T   T
  0.6738449646561281  0.5771518451803930  0.5629498292054249   T   T   T
  0.5262203899901902  0.5107527061725602  0.3281422670981624   T   T   T
  0.5656607717567012  0.3574406406834997  0.4683149568565579   T   T   T
  0.3187151071359551  0.5484117507433350  0.4925207801413586   T   T   T
  0.6604493742504624  0.4290055584241237  0.4160218182221483   T   T   T
  0.5660841929594156  0.6261437171197244  0.5094829013827464   F   F   F
  0.5951845877840696  0.5341469568669449  0.6902198051620505   T   T   T
  0.4738001439100689  0.6384974464171271  0.6004350408535728   T   T   T
  0.4629315152802962  0.6026124350246034  0.4643046455124660   T   T   T
  0.7164914946221347  0.5727208525157496  0.3827386043515297   T   T   T
  0.5499310510395361  0.5822218838566187  0.4076968008106903   F   F   F
  0.4794126430662260  0.5072205383607624  0.4190535757241776   F   F   F
  0.6945844100513539  0.4794362632729279  0.3246537099316450   T   T   T
  0.7521619757023527  0.4293036370786617  0.4888438785040599   T   T   T
  0.7494492450672567  0.5362212103491856  0.4833030323485085   T   T   T
  0.7497601163725028  0.4925498502887522  0.5720924680944011   T   T   T
  0.6496009106057303  0.4411232614403885  0.7096794368097865   T   T   T
  0.5732939509205586  0.7425876941672924  0.4969741996485538   T   T   T
  0.6192554540844384  0.5183157687966542  0.3801816896793397   F   F   F
  0.5050504559552269  0.5468308810692863  0.6472343308420391   T   T   T
  0.4922009500451665  0.4366758245867572  0.4933013002826740   F   F   F
  0.5608844484509063  0.4404139570509003  0.6454865549417619   F   F   F
  0.5777995711295228  0.6139512510814412  0.6137232722958211   T   T   T
  0.5458329793625245  0.6200878981668226  0.3148105055353552   T   T   T
  0.6286735116890204  0.6280518733450549  0.3636499569069552   T   T   T
  0.3777755029210214  0.5573587909701068  0.4113777976541257   T   T   T
  0.4723078164089713  0.4557257050327763  0.5877273803360978   F   F   F
  0.7275599799004191  0.6333049083760065  0.4835182821542143   T   T   T
  0.5120412689195908  0.3623221461206518  0.6849874118564369   T   T   T
  0.3774398177379996  0.4421207403443855  0.6391251466459872   T   T   T
  0.5544592502646992  0.4379899399457940  0.4037542370104745   F   F   F
  0.4354792215587080  0.3668630940601455  0.6155403767562428   T   T   T
  0.5274714665848702  0.3496708926527212  0.5801665450287284   T   T   T
  0.4908858953273249  0.6462040816974240  0.6849425739538166   T   T   T
  0.5367231139953199  0.5955809217786683  0.7241009436416967   T   T   T
  0.5171046271344357  0.6344876892801172  0.7183485742786511   T   T   T
  0.5233661858715343  0.6613915383855983  0.7453266196926113   T   T   T
 
  0.00000000E+00  0.00000000E+00  0.00000000E+00
  0.00000000E+00  0.00000000E+00  0.00000000E+00
  0.00000000E+00  0.00000000E+00  0.00000000E+00
  0.00000000E+00  0.00000000E+00  0.00000000E+00
  0.00000000E+00  0.00000000E+00  0.00000000E+00
  0.00000000E+00  0.00000000E+00  0.00000000E+00
  0.00000000E+00  0.00000000E+00  0.00000000E+00
  0.00000000E+00  0.00000000E+00  0.00000000E+00
  0.00000000E+00  0.00000000E+00  0.00000000E+00
  0.00000000E+00  0.00000000E+00  0.00000000E+00
  0.00000000E+00  0.00000000E+00  0.00000000E+00
  0.00000000E+00  0.00000000E+00  0.00000000E+00
  0.00000000E+00  0.00000000E+00  0.00000000E+00
  0.00000000E+00  0.00000000E+00  0.00000000E+00
  0.00000000E+00  0.00000000E+00  0.00000000E+00
  0.00000000E+00  0.00000000E+00  0.00000000E+00
  0.00000000E+00  0.00000000E+00  0.00000000E+00
  0.00000000E+00  0.00000000E+00  0.00000000E+00
  0.00000000E+00  0.00000000E+00  0.00000000E+00
  0.00000000E+00  0.00000000E+00  0.00000000E+00
  0.00000000E+00  0.00000000E+00  0.00000000E+00
  0.00000000E+00  0.00000000E+00  0.00000000E+00
  0.00000000E+00  0.00000000E+00  0.00000000E+00
  0.00000000E+00  0.00000000E+00  0.00000000E+00
  0.00000000E+00  0.00000000E+00  0.00000000E+00
  0.00000000E+00  0.00000000E+00  0.00000000E+00
  0.00000000E+00  0.00000000E+00  0.00000000E+00
  0.00000000E+00  0.00000000E+00  0.00000000E+00
  0.00000000E+00  0.00000000E+00  0.00000000E+00
  0.00000000E+00  0.00000000E+00  0.00000000E+00
  0.00000000E+00  0.00000000E+00  0.00000000E+00
  0.00000000E+00  0.00000000E+00  0.00000000E+00
  0.00000000E+00  0.00000000E+00  0.00000000E+00
  0.00000000E+00  0.00000000E+00  0.00000000E+00
  0.00000000E+00  0.00000000E+00  0.00000000E+00
  0.00000000E+00  0.00000000E+00  0.00000000E+00
  0.00000000E+00  0.00000000E+00  0.00000000E+00
  0.00000000E+00  0.00000000E+00  0.00000000E+00
  0.00000000E+00  0.00000000E+00  0.00000000E+00
  0.00000000E+00  0.00000000E+00  0.00000000E+00
  0.00000000E+00  0.00000000E+00  0.00000000E+00
  0.00000000E+00  0.00000000E+00  0.00000000E+00
  0.00000000E+00  0.00000000E+00  0.00000000E+00
  0.00000000E+00  0.00000000E+00  0.00000000E+00
  0.00000000E+00  0.00000000E+00  0.00000000E+00
  0.00000000E+00  0.00000000E+00  0.00000000E+00
  0.00000000E+00  0.00000000E+00  0.00000000E+00
  0.00000000E+00  0.00000000E+00  0.00000000E+00
  0.00000000E+00  0.00000000E+00  0.00000000E+00
  0.00000000E+00  0.00000000E+00  0.00000000E+00
  0.00000000E+00  0.00000000E+00  0.00000000E+00
  0.00000000E+00  0.00000000E+00  0.00000000E+00
  0.00000000E+00  0.00000000E+00  0.00000000E+00
  0.00000000E+00  0.00000000E+00  0.00000000E+00
  0.00000000E+00  0.00000000E+00  0.00000000E+00
  0.00000000E+00  0.00000000E+00  0.00000000E+00
  0.00000000E+00  0.00000000E+00  0.00000000E+00
  0.00000000E+00  0.00000000E+00  0.00000000E+00
  0.00000000E+00  0.00000000E+00  0.00000000E+00
  0.00000000E+00  0.00000000E+00  0.00000000E+00
  0.00000000E+00  0.00000000E+00  0.00000000E+00
  0.00000000E+00  0.00000000E+00  0.00000000E+00
  0.00000000E+00  0.00000000E+00  0.00000000E+00
  0.00000000E+00  0.00000000E+00  0.00000000E+00
  0.00000000E+00  0.00000000E+00  0.00000000E+00
  0.00000000E+00  0.00000000E+00  0.00000000E+00
  0.00000000E+00  0.00000000E+00  0.00000000E+00
  0.00000000E+00  0.00000000E+00  0.00000000E+00
  0.00000000E+00  0.00000000E+00  0.00000000E+00
  0.00000000E+00  0.00000000E+00  0.00000000E+00
  0.00000000E+00  0.00000000E+00  0.00000000E+00
  0.00000000E+00  0.00000000E+00  0.00000000E+00
