Bi La Sn O  C  H                        
   1.00000000000000     
    29.0000000000000000    0.0000000000000000    0.0000000000000000
     0.2488180851000000   28.9989325590000000    0.0000000000000000
    -0.0631677343000000   -0.4515975666000000   28.9964147692999994
   Bi   La   Sn   O    C    H 
    22    23    23     2     1     1
Selective dynamics
Direct
  0.7600570220895203  0.4766072775367403  0.3988457043148408   T   T   T
  0.6485772973430287  0.6843112635030942  0.5495252552116632   T   T   T
  0.3599864963844988  0.4582494393163813  0.4279038013205005   T   T   T
  0.5534317598077201  0.7144103701583695  0.5839597916104486   T   T   T
  0.5915029568994470  0.5209714444905416  0.5841479689498996   F   F   F
  0.6402742993499370  0.6798323944486163  0.4448711663115635   T   T   T
  0.6986196807289932  0.5187386549270595  0.6528855174734374   T   T   T
  0.4871324385079995  0.7005994532214909  0.5000905225227612   T   T   T
  0.5004839460855024  0.5502791173970252  0.5477141156400123   F   F   F
  0.3306860454335975  0.4866561240570808  0.5798633532676890   T   T   T
  0.3849259189562534  0.6085992590022475  0.5375272089258709   T   T   T
  0.6667129484492236  0.4827404655721850  0.5105018184570156   F   F   F
  0.5763997220267569  0.4263140504383500  0.5448328182496311   F   F   F
  0.6678860175151760  0.3737493525450515  0.5068506898616315   T   T   T
  0.4604275442446265  0.3377542928905680  0.4943779991286975   T   T   T
  0.6484934028780529  0.5775373212088155  0.4602701624361103   F   F   F
  0.5557440435921853  0.4339876282368738  0.7499439610547330   T   T   T
  0.5904627791194141  0.3479511707056748  0.6663046382322135   T   T   T
  0.4926506885663209  0.3006154437225676  0.4047610302104725   T   T   T
  0.6636284240005964  0.6140594128026187  0.6685088700609533   T   T   T
  0.4923231425970047  0.4106131563219932  0.3046007984548731   T   T   T
  0.6185372996127729  0.3165874769451974  0.5719064570916895   T   T   T
  0.5393713165790905  0.6835184372747971  0.4043319219652464   T   T   T
  0.3898426283467022  0.4157549181967917  0.5259083297956186   T   T   T
  0.6283628838204226  0.5514622690125037  0.2823801955154409   T   T   T
  0.4749439662622569  0.4809706257066662  0.6942470584638166   T   T   T
  0.5683115009887700  0.5094300495444983  0.4784716241115703   F   F   F
  0.4203210565129183  0.5084107200613417  0.5018573595042781   F   F   F
  0.4524378737667121  0.4020792658947139  0.4043534428495741   T   T   T
  0.5647271558266834  0.3497311710264898  0.3517592877313908   T   T   T
  0.4145162207871881  0.5425742872120281  0.6153738899587283   T   T   T
  0.5986739035419313  0.4424793422297379  0.3046987614910217   T   T   T
  0.4547512388466264  0.5998346796706856  0.3630980489725162   T   T   T
  0.4188548745168123  0.4874522998364839  0.3399153655955927   T   T   T
  0.6602353817684791  0.4259123107954466  0.6049929789903533   T   T   T
  0.6753875783795922  0.5779065923159818  0.5640612666535758   T   T   T
  0.5257740067841588  0.5097851216500561  0.3279379700965216   T   T   T
  0.5648031275048251  0.3566254107959290  0.4689862889842425   T   T   T
  0.3176117565683123  0.5406218630818310  0.4946612390378650   T   T   T
  0.6596871238183382  0.4289406149962964  0.4157640510036366   T   T   T
  0.5660841929594156  0.6261437171197244  0.5094829013827464   F   F   F
  0.5996594806479889  0.5245942723517119  0.6905032749311806   T   T   T
  0.4715027702619841  0.6433344006711169  0.5917286403194245   T   T   T
  0.4626542322703081  0.6031024767198078  0.4634379387418615   T   T   T
  0.7166207702317534  0.5725335517915447  0.3833405313842277   T   T   T
  0.5499310510395361  0.5822218838566187  0.4076968008106903   F   F   F
  0.4794126430662260  0.5072205383607624  0.4190535757241776   F   F   F
  0.6949916576856688  0.4797214044008047  0.3247508862799015   T   T   T
  0.7515237899182651  0.4270852754380087  0.4868220620846125   T   T   T
  0.7491665445159514  0.5364047705454348  0.4850027941142055   T   T   T
  0.7500597451243501  0.4873116456432727  0.5708964397065148   T   T   T
  0.6446063127541604  0.4273231863130600  0.7091721098416175   T   T   T
  0.5773090360049896  0.7435339033440237  0.4921981791976474   T   T   T
  0.6192554540844384  0.5183157687966542  0.3801816896793397   F   F   F
  0.5135051934579447  0.5614762950009210  0.6478340502717403   T   T   T
  0.4922009500451665  0.4366758245867572  0.4933013002826740   F   F   F
  0.5608844484509063  0.4404139570509003  0.6454865549417619   F   F   F
  0.5828165744889378  0.6186559865244560  0.6127285017914333   T   T   T
  0.5445843597297070  0.6173054127793622  0.3121396106260886   T   T   T
  0.6278528613177053  0.6243537129554331  0.3600690215845759   T   T   T
  0.3760871851848080  0.5568976338795742  0.4132295126677736   T   T   T
  0.4723078164089713  0.4557257050327763  0.5877273803360978   F   F   F
  0.7283741424990414  0.6333278351980486  0.4830340805798681   T   T   T
  0.4908153128251781  0.3783900982395791  0.6770670777506590   T   T   T
  0.3897312846292072  0.4371511768762069  0.6419262338567793   T   T   T
  0.5544592502646992  0.4379899399457940  0.4037542370104745   F   F   F
  0.4289077711705658  0.3546529790689638  0.6016752459904745   T   T   T
  0.5234974063825230  0.3504419955047043  0.5751901581751359   T   T   T
  0.4423645665586002  0.6867125710437143  0.6616798307222288   T   T   T
  0.4106534800837583  0.6160054855475435  0.6597949548068772   T   T   T
  0.4161720988738436  0.6563110821191803  0.6780297080158395   T   T   T
  0.3967326800921190  0.6644025604786652  0.7101374485959280   T   T   T
 
  0.00000000E+00  0.00000000E+00  0.00000000E+00
  0.00000000E+00  0.00000000E+00  0.00000000E+00
  0.00000000E+00  0.00000000E+00  0.00000000E+00
  0.00000000E+00  0.00000000E+00  0.00000000E+00
  0.00000000E+00  0.00000000E+00  0.00000000E+00
  0.00000000E+00  0.00000000E+00  0.00000000E+00
  0.00000000E+00  0.00000000E+00  0.00000000E+00
  0.00000000E+00  0.00000000E+00  0.00000000E+00
  0.00000000E+00  0.00000000E+00  0.00000000E+00
  0.00000000E+00  0.00000000E+00  0.00000000E+00
  0.00000000E+00  0.00000000E+00  0.00000000E+00
  0.00000000E+00  0.00000000E+00  0.00000000E+00
  0.00000000E+00  0.00000000E+00  0.00000000E+00
  0.00000000E+00  0.00000000E+00  0.00000000E+00
  0.00000000E+00  0.00000000E+00  0.00000000E+00
  0.00000000E+00  0.00000000E+00  0.00000000E+00
  0.00000000E+00  0.00000000E+00  0.00000000E+00
  0.00000000E+00  0.00000000E+00  0.00000000E+00
  0.00000000E+00  0.00000000E+00  0.00000000E+00
  0.00000000E+00  0.00000000E+00  0.00000000E+00
  0.00000000E+00  0.00000000E+00  0.00000000E+00
  0.00000000E+00  0.00000000E+00  0.00000000E+00
  0.00000000E+00  0.00000000E+00  0.00000000E+00
  0.00000000E+00  0.00000000E+00  0.00000000E+00
  0.00000000E+00  0.00000000E+00  0.00000000E+00
  0.00000000E+00  0.00000000E+00  0.00000000E+00
  0.00000000E+00  0.00000000E+00  0.00000000E+00
  0.00000000E+00  0.00000000E+00  0.00000000E+00
  0.00000000E+00  0.00000000E+00  0.00000000E+00
  0.00000000E+00  0.00000000E+00  0.00000000E+00
  0.00000000E+00  0.00000000E+00  0.00000000E+00
  0.00000000E+00  0.00000000E+00  0.00000000E+00
  0.00000000E+00  0.00000000E+00  0.00000000E+00
  0.00000000E+00  0.00000000E+00  0.00000000E+00
  0.00000000E+00  0.00000000E+00  0.00000000E+00
  0.00000000E+00  0.00000000E+00  0.00000000E+00
  0.00000000E+00  0.00000000E+00  0.00000000E+00
  0.00000000E+00  0.00000000E+00  0.00000000E+00
  0.00000000E+00  0.00000000E+00  0.00000000E+00
  0.00000000E+00  0.00000000E+00  0.00000000E+00
  0.00000000E+00  0.00000000E+00  0.00000000E+00
  0.00000000E+00  0.00000000E+00  0.00000000E+00
  0.00000000E+00  0.00000000E+00  0.00000000E+00
  0.00000000E+00  0.00000000E+00  0.00000000E+00
  0.00000000E+00  0.00000000E+00  0.00000000E+00
  0.00000000E+00  0.00000000E+00  0.00000000E+00
  0.00000000E+00  0.00000000E+00  0.00000000E+00
  0.00000000E+00  0.00000000E+00  0.00000000E+00
  0.00000000E+00  0.00000000E+00  0.00000000E+00
  0.00000000E+00  0.00000000E+00  0.00000000E+00
  0.00000000E+00  0.00000000E+00  0.00000000E+00
  0.00000000E+00  0.00000000E+00  0.00000000E+00
  0.00000000E+00  0.00000000E+00  0.00000000E+00
  0.00000000E+00  0.00000000E+00  0.00000000E+00
  0.00000000E+00  0.00000000E+00  0.00000000E+00
  0.00000000E+00  0.00000000E+00  0.00000000E+00
  0.00000000E+00  0.00000000E+00  0.00000000E+00
  0.00000000E+00  0.00000000E+00  0.00000000E+00
  0.00000000E+00  0.00000000E+00  0.00000000E+00
  0.00000000E+00  0.00000000E+00  0.00000000E+00
  0.00000000E+00  0.00000000E+00  0.00000000E+00
  0.00000000E+00  0.00000000E+00  0.00000000E+00
  0.00000000E+00  0.00000000E+00  0.00000000E+00
  0.00000000E+00  0.00000000E+00  0.00000000E+00
  0.00000000E+00  0.00000000E+00  0.00000000E+00
  0.00000000E+00  0.00000000E+00  0.00000000E+00
  0.00000000E+00  0.00000000E+00  0.00000000E+00
  0.00000000E+00  0.00000000E+00  0.00000000E+00
  0.00000000E+00  0.00000000E+00  0.00000000E+00
  0.00000000E+00  0.00000000E+00  0.00000000E+00
  0.00000000E+00  0.00000000E+00  0.00000000E+00
  0.00000000E+00  0.00000000E+00  0.00000000E+00
