Bi La Sn O  C  H                        
   1.00000000000000     
    29.0000000000000000    0.0000000000000000    0.0000000000000000
     0.2488180851000000   28.9989325590000000    0.0000000000000000
    -0.0631677343000000   -0.4515975666000000   28.9964147692999994
   Bi   La   Sn   O    C    H 
    22    23    23     2     1     1
Selective dynamics
Direct
  0.7596474956642514  0.4785186529258541  0.3992760951468894   T   T   T
  0.6456320948584510  0.6844382384992279  0.5528967020654306   T   T   T
  0.3599211011250802  0.4583664859981831  0.4290181751907970   T   T   T
  0.5498514893258298  0.7130665770701174  0.5866647005183925   T   T   T
  0.5915029568994470  0.5209714444905416  0.5841479689498996   F   F   F
  0.6388876918854577  0.6806319217614412  0.4460169486088691   T   T   T
  0.6994099475346314  0.5235733961909976  0.6539319843573530   T   T   T
  0.4849403343040353  0.6988650287357534  0.5044399191262573   T   T   T
  0.5004839460855024  0.5502791173970252  0.5477141156400123   F   F   F
  0.3252640762619707  0.4869781813559673  0.5737548560676512   T   T   T
  0.3835570220196344  0.6115318670701094  0.5346466749938474   T   T   T
  0.6667129484492236  0.4827404655721850  0.5105018184570156   F   F   F
  0.5763997220267569  0.4263140504383500  0.5448328182496311   F   F   F
  0.6686680282080064  0.3749808058732775  0.5072471054487382   T   T   T
  0.4641097738986623  0.3388719547632040  0.5005877902354892   T   T   T
  0.6484934028780529  0.5775373212088155  0.4602701624361103   F   F   F
  0.5601175145621431  0.4386872666439688  0.7495399024637375   T   T   T
  0.6094431577643372  0.3515964651726119  0.6675912832306763   T   T   T
  0.4917596895337486  0.2986656838367022  0.4107923996842516   T   T   T
  0.6608236576553695  0.6187815262596023  0.6657529751353543   T   T   T
  0.4917205142232102  0.4102371274004321  0.3059804715577278   T   T   T
  0.6225522507498903  0.3154923430077768  0.5717557019040577   T   T   T
  0.5367523576122649  0.6836295943808627  0.4065226497093774   T   T   T
  0.3907579967524022  0.4147332692412335  0.5284593089545762   T   T   T
  0.6281236840718427  0.5526446787700262  0.2834767202510233   T   T   T
  0.4708477771230353  0.4639866479925783  0.6923896957448861   T   T   T
  0.5683115009887700  0.5094300495444983  0.4784716241115703   F   F   F
  0.4203210565129183  0.5084107200613417  0.5018573595042781   F   F   F
  0.4521421637219143  0.4006282519667628  0.4064503315304762   T   T   T
  0.5615881232624091  0.3485006802310707  0.3540266613227389   T   T   T
  0.4095434540119211  0.5426568430900690  0.6111631705765158   T   T   T
  0.5997051856061248  0.4409449194890546  0.3050998623321167   T   T   T
  0.4549654518239186  0.5998135897970637  0.3627460231621832   T   T   T
  0.4184969701201404  0.4865670654166345  0.3400958410526360   T   T   T
  0.6611823601826398  0.4305362004965233  0.6050371649437031   T   T   T
  0.6735255765857289  0.5785921181159401  0.5637740493611909   T   T   T
  0.5261048878406998  0.5096246086852767  0.3280533936204223   T   T   T
  0.5662246748690898  0.3576733334768199  0.4684567950450703   T   T   T
  0.3167640273813629  0.5437563729006575  0.4912398408398551   T   T   T
  0.6606756387141336  0.4294647997406011  0.4155918597495855   T   T   T
  0.5660841929594156  0.6261437171197244  0.5094829013827464   F   F   F
  0.5993550073808456  0.5278782893452850  0.6894476561615190   T   T   T
  0.4694924405399287  0.6398062864920629  0.5952221214577296   T   T   T
  0.4628662548694754  0.6026437644793515  0.4636373841424992   T   T   T
  0.7162247588531416  0.5741539893023601  0.3831106261167281   T   T   T
  0.5499310510395361  0.5822218838566187  0.4076968008106903   F   F   F
  0.4794126430662260  0.5072205383607624  0.4190535757241776   F   F   F
  0.6952010905939169  0.4809532990127425  0.3243923424593998   T   T   T
  0.7525886264601818  0.4295452975901763  0.4880927664941951   T   T   T
  0.7486956503141674  0.5382586961936318  0.4848647067821423   T   T   T
  0.7498620113451713  0.4912193077529652  0.5717389346929689   T   T   T
  0.6503580459354330  0.4360371637458843  0.7103942894015108   T   T   T
  0.5751222161070498  0.7424841143338881  0.4946925591661921   T   T   T
  0.6192554540844384  0.5183157687966542  0.3801816896793397   F   F   F
  0.5084337077076243  0.5500556012560742  0.6477592645960408   T   T   T
  0.4922009500451665  0.4366758245867572  0.4933013002826740   F   F   F
  0.5608844484509063  0.4404139570509003  0.6454865549417619   F   F   F
  0.5769684537549858  0.6157196972883526  0.6142013895007015   T   T   T
  0.5444543567434064  0.6185966146901865  0.3131144338542369   T   T   T
  0.6274517271600313  0.6264547465559044  0.3608149691217586   T   T   T
  0.3770864047835720  0.5563810027798530  0.4116372736652868   T   T   T
  0.4723078164089713  0.4557257050327763  0.5877273803360978   F   F   F
  0.7266010818834044  0.6351397682766499  0.4843871879619845   T   T   T
  0.5096237315096221  0.3639251915219847  0.6851789377579776   T   T   T
  0.3804255119424084  0.4427601893307461  0.6401247254948902   T   T   T
  0.5544592502646992  0.4379899399457940  0.4037542370104745   F   F   F
  0.4362889897751568  0.3660431932330845  0.6140049107032592   T   T   T
  0.5292181171928128  0.3486735791473552  0.5802959861875153   T   T   T
  0.4081821291578407  0.6111514009759533  0.6614957310002648   T   T   T
  0.4562625091988560  0.6699241126686347  0.6771606163595094   T   T   T
  0.4242790562067958  0.6430535321169377  0.6883931994770778   T   T   T
  0.4087070924424304  0.6464405493575019  0.7232533842543470   T   T   T
 
  0.00000000E+00  0.00000000E+00  0.00000000E+00
  0.00000000E+00  0.00000000E+00  0.00000000E+00
  0.00000000E+00  0.00000000E+00  0.00000000E+00
  0.00000000E+00  0.00000000E+00  0.00000000E+00
  0.00000000E+00  0.00000000E+00  0.00000000E+00
  0.00000000E+00  0.00000000E+00  0.00000000E+00
  0.00000000E+00  0.00000000E+00  0.00000000E+00
  0.00000000E+00  0.00000000E+00  0.00000000E+00
  0.00000000E+00  0.00000000E+00  0.00000000E+00
  0.00000000E+00  0.00000000E+00  0.00000000E+00
  0.00000000E+00  0.00000000E+00  0.00000000E+00
  0.00000000E+00  0.00000000E+00  0.00000000E+00
  0.00000000E+00  0.00000000E+00  0.00000000E+00
  0.00000000E+00  0.00000000E+00  0.00000000E+00
  0.00000000E+00  0.00000000E+00  0.00000000E+00
  0.00000000E+00  0.00000000E+00  0.00000000E+00
  0.00000000E+00  0.00000000E+00  0.00000000E+00
  0.00000000E+00  0.00000000E+00  0.00000000E+00
  0.00000000E+00  0.00000000E+00  0.00000000E+00
  0.00000000E+00  0.00000000E+00  0.00000000E+00
  0.00000000E+00  0.00000000E+00  0.00000000E+00
  0.00000000E+00  0.00000000E+00  0.00000000E+00
  0.00000000E+00  0.00000000E+00  0.00000000E+00
  0.00000000E+00  0.00000000E+00  0.00000000E+00
  0.00000000E+00  0.00000000E+00  0.00000000E+00
  0.00000000E+00  0.00000000E+00  0.00000000E+00
  0.00000000E+00  0.00000000E+00  0.00000000E+00
  0.00000000E+00  0.00000000E+00  0.00000000E+00
  0.00000000E+00  0.00000000E+00  0.00000000E+00
  0.00000000E+00  0.00000000E+00  0.00000000E+00
  0.00000000E+00  0.00000000E+00  0.00000000E+00
  0.00000000E+00  0.00000000E+00  0.00000000E+00
  0.00000000E+00  0.00000000E+00  0.00000000E+00
  0.00000000E+00  0.00000000E+00  0.00000000E+00
  0.00000000E+00  0.00000000E+00  0.00000000E+00
  0.00000000E+00  0.00000000E+00  0.00000000E+00
  0.00000000E+00  0.00000000E+00  0.00000000E+00
  0.00000000E+00  0.00000000E+00  0.00000000E+00
  0.00000000E+00  0.00000000E+00  0.00000000E+00
  0.00000000E+00  0.00000000E+00  0.00000000E+00
  0.00000000E+00  0.00000000E+00  0.00000000E+00
  0.00000000E+00  0.00000000E+00  0.00000000E+00
  0.00000000E+00  0.00000000E+00  0.00000000E+00
  0.00000000E+00  0.00000000E+00  0.00000000E+00
  0.00000000E+00  0.00000000E+00  0.00000000E+00
  0.00000000E+00  0.00000000E+00  0.00000000E+00
  0.00000000E+00  0.00000000E+00  0.00000000E+00
  0.00000000E+00  0.00000000E+00  0.00000000E+00
  0.00000000E+00  0.00000000E+00  0.00000000E+00
  0.00000000E+00  0.00000000E+00  0.00000000E+00
  0.00000000E+00  0.00000000E+00  0.00000000E+00
  0.00000000E+00  0.00000000E+00  0.00000000E+00
  0.00000000E+00  0.00000000E+00  0.00000000E+00
  0.00000000E+00  0.00000000E+00  0.00000000E+00
  0.00000000E+00  0.00000000E+00  0.00000000E+00
  0.00000000E+00  0.00000000E+00  0.00000000E+00
  0.00000000E+00  0.00000000E+00  0.00000000E+00
  0.00000000E+00  0.00000000E+00  0.00000000E+00
  0.00000000E+00  0.00000000E+00  0.00000000E+00
  0.00000000E+00  0.00000000E+00  0.00000000E+00
  0.00000000E+00  0.00000000E+00  0.00000000E+00
  0.00000000E+00  0.00000000E+00  0.00000000E+00
  0.00000000E+00  0.00000000E+00  0.00000000E+00
  0.00000000E+00  0.00000000E+00  0.00000000E+00
  0.00000000E+00  0.00000000E+00  0.00000000E+00
  0.00000000E+00  0.00000000E+00  0.00000000E+00
  0.00000000E+00  0.00000000E+00  0.00000000E+00
  0.00000000E+00  0.00000000E+00  0.00000000E+00
  0.00000000E+00  0.00000000E+00  0.00000000E+00
  0.00000000E+00  0.00000000E+00  0.00000000E+00
  0.00000000E+00  0.00000000E+00  0.00000000E+00
  0.00000000E+00  0.00000000E+00  0.00000000E+00
