Bi La Sn O  C  H                        
   1.00000000000000     
    29.0000000000000000    0.0000000000000000    0.0000000000000000
     0.2488180851000000   28.9989325590000000    0.0000000000000000
    -0.0631677343000000   -0.4515975666000000   28.9964147692999994
   Bi   La   Sn   O    C    H 
    22    23    23     2     1     1
Selective dynamics
Direct
  0.7601475539675189  0.4764216542492960  0.3992180007052449   T   T   T
  0.6475173884106100  0.6852642936290159  0.5504506706495983   T   T   T
  0.3603513510022217  0.4586540912299448  0.4271044165128754   T   T   T
  0.5511741604125093  0.7137133479938561  0.5834629957517987   T   T   T
  0.5915029568994470  0.5209714444905416  0.5841479689498996   F   F   F
  0.6402772749578310  0.6801945436860134  0.4452103209749913   T   T   T
  0.6950240701279198  0.5210803985796805  0.6528608923353887   T   T   T
  0.4872392141291985  0.7017527214537606  0.4982028376123241   T   T   T
  0.5004839460855024  0.5502791173970252  0.5477141156400123   F   F   F
  0.3276404216391842  0.4851016832748228  0.5776935455888700   T   T   T
  0.3825067538155824  0.6086335597330541  0.5372650141743835   T   T   T
  0.6667129484492236  0.4827404655721850  0.5105018184570156   F   F   F
  0.5763997220267569  0.4263140504383500  0.5448328182496311   F   F   F
  0.6670108575364002  0.3738022817323329  0.5071506948468771   T   T   T
  0.4614739592446160  0.3377351841598896  0.4947590054995492   T   T   T
  0.6484934028780529  0.5775373212088155  0.4602701624361103   F   F   F
  0.5535882944130062  0.4361169467092941  0.7501500483960536   T   T   T
  0.5920675202964079  0.3483174525204051  0.6674079998856348   T   T   T
  0.4926454312371677  0.3000647375764854  0.4046583285105511   T   T   T
  0.6603790544394522  0.6166406683842511  0.6676481787168185   T   T   T
  0.4920224802757778  0.4108126439210695  0.3046702741381260   T   T   T
  0.6222274799959931  0.3151127636541022  0.5740829644462896   T   T   T
  0.5399588895976770  0.6836244420463528  0.4038718602909593   T   T   T
  0.3896456736068364  0.4154071452588606  0.5249995419915268   T   T   T
  0.6291970401472552  0.5515333657847553  0.2824973720903756   T   T   T
  0.4726193016800067  0.4806301443921976  0.6925023058105707   T   T   T
  0.5683115009887700  0.5094300495444983  0.4784716241115703   F   F   F
  0.4203210565129183  0.5084107200613417  0.5018573595042781   F   F   F
  0.4527790183413119  0.4018077331046792  0.4047677746146966   T   T   T
  0.5643942555891344  0.3498731981381805  0.3517771829291975   T   T   T
  0.4128880916652878  0.5393773356361136  0.6121952081112753   T   T   T
  0.5991932316815546  0.4421898452386505  0.3047404202905259   T   T   T
  0.4550425962354916  0.6002383080886116  0.3633503345427796   T   T   T
  0.4188398563810916  0.4880901703792440  0.3391892003827746   T   T   T
  0.6631130176504869  0.4244569257409381  0.6056553988217553   T   T   T
  0.6735850997069665  0.5791586016922766  0.5639333549632459   T   T   T
  0.5261291132987059  0.5095729865564231  0.3279987422819598   T   T   T
  0.5648066298955066  0.3568376120953887  0.4682770413827740   T   T   T
  0.3161463157889706  0.5398317675610446  0.4930687397378859   T   T   T
  0.6600563143026662  0.4292428117439178  0.4155594171368271   T   T   T
  0.5660841929594156  0.6261437171197244  0.5094829013827464   F   F   F
  0.5956419485965249  0.5268439849567121  0.6899812917802202   T   T   T
  0.4705004043726330  0.6429429511816183  0.5871233031993351   T   T   T
  0.4626910787610748  0.6036647174113869  0.4639172084025749   T   T   T
  0.7169184163474285  0.5723759613408748  0.3837629862480327   T   T   T
  0.5499310510395361  0.5822218838566187  0.4076968008106903   F   F   F
  0.4794126430662260  0.5072205383607624  0.4190535757241776   F   F   F
  0.6955611402391292  0.4798819838910915  0.3247517370917342   T   T   T
  0.7506555588930132  0.4278746324096751  0.4884223905181734   T   T   T
  0.7484299813395873  0.5377762692426525  0.4850803599578245   T   T   T
  0.7496847909916907  0.4899032894191932  0.5713606554858772   T   T   T
  0.6425390773619439  0.4300428806146718  0.7097587357035886   T   T   T
  0.5775028387398591  0.7440254551178849  0.4922914766703480   T   T   T
  0.6192554540844384  0.5183157687966542  0.3801816896793397   F   F   F
  0.5073094390546947  0.5652339266476378  0.6500828608738732   T   T   T
  0.4922009500451665  0.4366758245867572  0.4933013002826740   F   F   F
  0.5608844484509063  0.4404139570509003  0.6454865549417619   F   F   F
  0.5791148996340877  0.6175034404183176  0.6129444811854228   T   T   T
  0.5451559314023969  0.6169829638903308  0.3124033092321040   T   T   T
  0.6283773126789216  0.6243471077401297  0.3603832817539449   T   T   T
  0.3765731238173101  0.5573665023056839  0.4132334656272897   T   T   T
  0.4723078164089713  0.4557257050327763  0.5877273803360978   F   F   F
  0.7277991345325356  0.6348806503462030  0.4837575182456187   T   T   T
  0.4928270494985840  0.3777935145363710  0.6776083488680538   T   T   T
  0.3873734927596649  0.4365676171550663  0.6396500501113433   T   T   T
  0.5544592502646992  0.4379899399457940  0.4037542370104745   F   F   F
  0.4335181945389301  0.3565669288251812  0.6004057547117440   T   T   T
  0.5274886420404244  0.3473304643784962  0.5744452711813798   T   T   T
  0.7121293791455540  0.2962796447478129  0.6092837321309065   T   T   T
  0.7192269539972345  0.3726393029561554  0.6268952987695360   T   T   T
  0.7328204655657894  0.3297864119133205  0.6265793137620499   T   T   T
  0.7666504340268333  0.3240019968193329  0.6440538006324432   T   T   T
 
  0.00000000E+00  0.00000000E+00  0.00000000E+00
  0.00000000E+00  0.00000000E+00  0.00000000E+00
  0.00000000E+00  0.00000000E+00  0.00000000E+00
  0.00000000E+00  0.00000000E+00  0.00000000E+00
  0.00000000E+00  0.00000000E+00  0.00000000E+00
  0.00000000E+00  0.00000000E+00  0.00000000E+00
  0.00000000E+00  0.00000000E+00  0.00000000E+00
  0.00000000E+00  0.00000000E+00  0.00000000E+00
  0.00000000E+00  0.00000000E+00  0.00000000E+00
  0.00000000E+00  0.00000000E+00  0.00000000E+00
  0.00000000E+00  0.00000000E+00  0.00000000E+00
  0.00000000E+00  0.00000000E+00  0.00000000E+00
  0.00000000E+00  0.00000000E+00  0.00000000E+00
  0.00000000E+00  0.00000000E+00  0.00000000E+00
  0.00000000E+00  0.00000000E+00  0.00000000E+00
  0.00000000E+00  0.00000000E+00  0.00000000E+00
  0.00000000E+00  0.00000000E+00  0.00000000E+00
  0.00000000E+00  0.00000000E+00  0.00000000E+00
  0.00000000E+00  0.00000000E+00  0.00000000E+00
  0.00000000E+00  0.00000000E+00  0.00000000E+00
  0.00000000E+00  0.00000000E+00  0.00000000E+00
  0.00000000E+00  0.00000000E+00  0.00000000E+00
  0.00000000E+00  0.00000000E+00  0.00000000E+00
  0.00000000E+00  0.00000000E+00  0.00000000E+00
  0.00000000E+00  0.00000000E+00  0.00000000E+00
  0.00000000E+00  0.00000000E+00  0.00000000E+00
  0.00000000E+00  0.00000000E+00  0.00000000E+00
  0.00000000E+00  0.00000000E+00  0.00000000E+00
  0.00000000E+00  0.00000000E+00  0.00000000E+00
  0.00000000E+00  0.00000000E+00  0.00000000E+00
  0.00000000E+00  0.00000000E+00  0.00000000E+00
  0.00000000E+00  0.00000000E+00  0.00000000E+00
  0.00000000E+00  0.00000000E+00  0.00000000E+00
  0.00000000E+00  0.00000000E+00  0.00000000E+00
  0.00000000E+00  0.00000000E+00  0.00000000E+00
  0.00000000E+00  0.00000000E+00  0.00000000E+00
  0.00000000E+00  0.00000000E+00  0.00000000E+00
  0.00000000E+00  0.00000000E+00  0.00000000E+00
  0.00000000E+00  0.00000000E+00  0.00000000E+00
  0.00000000E+00  0.00000000E+00  0.00000000E+00
  0.00000000E+00  0.00000000E+00  0.00000000E+00
  0.00000000E+00  0.00000000E+00  0.00000000E+00
  0.00000000E+00  0.00000000E+00  0.00000000E+00
  0.00000000E+00  0.00000000E+00  0.00000000E+00
  0.00000000E+00  0.00000000E+00  0.00000000E+00
  0.00000000E+00  0.00000000E+00  0.00000000E+00
  0.00000000E+00  0.00000000E+00  0.00000000E+00
  0.00000000E+00  0.00000000E+00  0.00000000E+00
  0.00000000E+00  0.00000000E+00  0.00000000E+00
  0.00000000E+00  0.00000000E+00  0.00000000E+00
  0.00000000E+00  0.00000000E+00  0.00000000E+00
  0.00000000E+00  0.00000000E+00  0.00000000E+00
  0.00000000E+00  0.00000000E+00  0.00000000E+00
  0.00000000E+00  0.00000000E+00  0.00000000E+00
  0.00000000E+00  0.00000000E+00  0.00000000E+00
  0.00000000E+00  0.00000000E+00  0.00000000E+00
  0.00000000E+00  0.00000000E+00  0.00000000E+00
  0.00000000E+00  0.00000000E+00  0.00000000E+00
  0.00000000E+00  0.00000000E+00  0.00000000E+00
  0.00000000E+00  0.00000000E+00  0.00000000E+00
  0.00000000E+00  0.00000000E+00  0.00000000E+00
  0.00000000E+00  0.00000000E+00  0.00000000E+00
  0.00000000E+00  0.00000000E+00  0.00000000E+00
  0.00000000E+00  0.00000000E+00  0.00000000E+00
  0.00000000E+00  0.00000000E+00  0.00000000E+00
  0.00000000E+00  0.00000000E+00  0.00000000E+00
  0.00000000E+00  0.00000000E+00  0.00000000E+00
  0.00000000E+00  0.00000000E+00  0.00000000E+00
  0.00000000E+00  0.00000000E+00  0.00000000E+00
  0.00000000E+00  0.00000000E+00  0.00000000E+00
  0.00000000E+00  0.00000000E+00  0.00000000E+00
  0.00000000E+00  0.00000000E+00  0.00000000E+00
