Bi La Sn O  C  H                        
   1.00000000000000     
    29.0000000000000000    0.0000000000000000    0.0000000000000000
     0.2488180851000000   28.9989325590000000    0.0000000000000000
    -0.0631677343000000   -0.4515975666000000   28.9964147692999994
   Bi   La   Sn   O    C    H 
    22    23    23     2     1     1
Selective dynamics
Direct
  0.7597845140400044  0.4779229397394582  0.3979520713293149   T   T   T
  0.6469073679916876  0.6845379068258829  0.5517622417920794   T   T   T
  0.3594561780730791  0.4588222417075391  0.4281953327050940   T   T   T
  0.5504061090530533  0.7133358451938363  0.5838920060234811   T   T   T
  0.5915029568994470  0.5209714444905416  0.5841479689498996   F   F   F
  0.6400139002650970  0.6801209116503304  0.4456555074105579   T   T   T
  0.6962725492916516  0.5219100270740328  0.6543034839557306   T   T   T
  0.4862377264034102  0.7007395291332261  0.4989917741743286   T   T   T
  0.5004839460855024  0.5502791173970252  0.5477141156400123   F   F   F
  0.3246561856077326  0.4878516388021805  0.5747499540016984   T   T   T
  0.3819824469943450  0.6108155480387345  0.5344169282077863   T   T   T
  0.6667129484492236  0.4827404655721850  0.5105018184570156   F   F   F
  0.5763997220267569  0.4263140504383500  0.5448328182496311   F   F   F
  0.6685738813016888  0.3744739491402657  0.5072818403334897   T   T   T
  0.4634953661680379  0.3396769796310077  0.5005594124756011   T   T   T
  0.6484934028780529  0.5775373212088155  0.4602701624361103   F   F   F
  0.5576572431220131  0.4361438466016872  0.7497833539822976   T   T   T
  0.6038763080081027  0.3510246588772837  0.6689499302362419   T   T   T
  0.4918851700714638  0.2991975216833148  0.4106680985454641   T   T   T
  0.6602440969304045  0.6183306393029152  0.6660078514741009   T   T   T
  0.4915849122944361  0.4104380267067315  0.3066676740152434   T   T   T
  0.6217227429948767  0.3158576088347569  0.5728226891578168   T   T   T
  0.5388687086928403  0.6834526365625005  0.4040834143460493   T   T   T
  0.3875617496758011  0.4152016316444754  0.5276354711433173   T   T   T
  0.6283776198699879  0.5517913581703905  0.2827847956884899   T   T   T
  0.4710810710782060  0.4703923453732128  0.6914364062123880   T   T   T
  0.5683115009887700  0.5094300495444983  0.4784716241115703   F   F   F
  0.4203210565129183  0.5084107200613417  0.5018573595042781   F   F   F
  0.4519386431639140  0.4009692592366668  0.4067899230901007   T   T   T
  0.5623194668234315  0.3483970380126227  0.3541070822457554   T   T   T
  0.4109579487024566  0.5409062608536451  0.6089577541712794   T   T   T
  0.5984286169730297  0.4420975122345118  0.3040587819282574   T   T   T
  0.4548193622197507  0.6000322420133070  0.3636386463639273   T   T   T
  0.4178698417547265  0.4878211867890465  0.3398261217024264   T   T   T
  0.6612210559231240  0.4287772820696897  0.6046093691238273   T   T   T
  0.6733486091838603  0.5784577836737510  0.5639003067983271   T   T   T
  0.5259777205227264  0.5094213932555615  0.3282030573391506   T   T   T
  0.5661457738114110  0.3575757968495572  0.4686429492562625   T   T   T
  0.3145256018000981  0.5424232147649657  0.4911902921789717   T   T   T
  0.6603224317835398  0.4297298148945558  0.4158620324450203   T   T   T
  0.5660841929594156  0.6261437171197244  0.5094829013827464   F   F   F
  0.5960223133192331  0.5289269473385146  0.6895823668446354   T   T   T
  0.4700271212764102  0.6414271797133227  0.5879654026918161   T   T   T
  0.4630711713537293  0.6030548927255475  0.4634470641184235   T   T   T
  0.7159706805316246  0.5733476562491817  0.3825730019249848   T   T   T
  0.5499310510395361  0.5822218838566187  0.4076968008106903   F   F   F
  0.4794126430662260  0.5072205383607624  0.4190535757241776   F   F   F
  0.6947999627464984  0.4795635426835430  0.3241391431948552   T   T   T
  0.7514585689756664  0.4298557794011880  0.4875972002117578   T   T   T
  0.7479666864684911  0.5376771998144242  0.4845504780850511   T   T   T
  0.7491810632790632  0.4908806465904733  0.5726454405530270   T   T   T
  0.6478502935942445  0.4373337204296529  0.7090397519978726   T   T   T
  0.5767142925099060  0.7432724644974141  0.4927009299806240   T   T   T
  0.6192554540844384  0.5183157687966542  0.3801816896793397   F   F   F
  0.5049662793928759  0.5590341080151036  0.6498219278215387   T   T   T
  0.4922009500451665  0.4366758245867572  0.4933013002826740   F   F   F
  0.5608844484509063  0.4404139570509003  0.6454865549417619   F   F   F
  0.5771640417742865  0.6162014109329461  0.6135769997930982   T   T   T
  0.5437013090230254  0.6169926592699692  0.3117391635673063   T   T   T
  0.6265862048311489  0.6249123502423425  0.3605069888679820   T   T   T
  0.3767981650637907  0.5572085955280465  0.4130162570169642   T   T   T
  0.4723078164089713  0.4557257050327763  0.5877273803360978   F   F   F
  0.7271331511589755  0.6347579360249199  0.4841914859494565   T   T   T
  0.5051558401089534  0.3686794426583592  0.6856964052199672   T   T   T
  0.3810390477133695  0.4415871753690247  0.6389118648961138   T   T   T
  0.5544592502646992  0.4379899399457940  0.4037542370104745   F   F   F
  0.4360475746131115  0.3641993111004224  0.6124735425632388   T   T   T
  0.5284781781924017  0.3494631788812875  0.5798948566780764   T   T   T
  0.3186816351551250  0.3731161867198995  0.6304986398737223   T   T   T
  0.3377417536942965  0.3594145567598359  0.5548791952525929   T   T   T
  0.3146325577192644  0.3525971945379578  0.5925260669592270   T   T   T
  0.2885287474293954  0.3247779414050568  0.5894455885543206   T   T   T
 
  0.00000000E+00  0.00000000E+00  0.00000000E+00
  0.00000000E+00  0.00000000E+00  0.00000000E+00
  0.00000000E+00  0.00000000E+00  0.00000000E+00
  0.00000000E+00  0.00000000E+00  0.00000000E+00
  0.00000000E+00  0.00000000E+00  0.00000000E+00
  0.00000000E+00  0.00000000E+00  0.00000000E+00
  0.00000000E+00  0.00000000E+00  0.00000000E+00
  0.00000000E+00  0.00000000E+00  0.00000000E+00
  0.00000000E+00  0.00000000E+00  0.00000000E+00
  0.00000000E+00  0.00000000E+00  0.00000000E+00
  0.00000000E+00  0.00000000E+00  0.00000000E+00
  0.00000000E+00  0.00000000E+00  0.00000000E+00
  0.00000000E+00  0.00000000E+00  0.00000000E+00
  0.00000000E+00  0.00000000E+00  0.00000000E+00
  0.00000000E+00  0.00000000E+00  0.00000000E+00
  0.00000000E+00  0.00000000E+00  0.00000000E+00
  0.00000000E+00  0.00000000E+00  0.00000000E+00
  0.00000000E+00  0.00000000E+00  0.00000000E+00
  0.00000000E+00  0.00000000E+00  0.00000000E+00
  0.00000000E+00  0.00000000E+00  0.00000000E+00
  0.00000000E+00  0.00000000E+00  0.00000000E+00
  0.00000000E+00  0.00000000E+00  0.00000000E+00
  0.00000000E+00  0.00000000E+00  0.00000000E+00
  0.00000000E+00  0.00000000E+00  0.00000000E+00
  0.00000000E+00  0.00000000E+00  0.00000000E+00
  0.00000000E+00  0.00000000E+00  0.00000000E+00
  0.00000000E+00  0.00000000E+00  0.00000000E+00
  0.00000000E+00  0.00000000E+00  0.00000000E+00
  0.00000000E+00  0.00000000E+00  0.00000000E+00
  0.00000000E+00  0.00000000E+00  0.00000000E+00
  0.00000000E+00  0.00000000E+00  0.00000000E+00
  0.00000000E+00  0.00000000E+00  0.00000000E+00
  0.00000000E+00  0.00000000E+00  0.00000000E+00
  0.00000000E+00  0.00000000E+00  0.00000000E+00
  0.00000000E+00  0.00000000E+00  0.00000000E+00
  0.00000000E+00  0.00000000E+00  0.00000000E+00
  0.00000000E+00  0.00000000E+00  0.00000000E+00
  0.00000000E+00  0.00000000E+00  0.00000000E+00
  0.00000000E+00  0.00000000E+00  0.00000000E+00
  0.00000000E+00  0.00000000E+00  0.00000000E+00
  0.00000000E+00  0.00000000E+00  0.00000000E+00
  0.00000000E+00  0.00000000E+00  0.00000000E+00
  0.00000000E+00  0.00000000E+00  0.00000000E+00
  0.00000000E+00  0.00000000E+00  0.00000000E+00
  0.00000000E+00  0.00000000E+00  0.00000000E+00
  0.00000000E+00  0.00000000E+00  0.00000000E+00
  0.00000000E+00  0.00000000E+00  0.00000000E+00
  0.00000000E+00  0.00000000E+00  0.00000000E+00
  0.00000000E+00  0.00000000E+00  0.00000000E+00
  0.00000000E+00  0.00000000E+00  0.00000000E+00
  0.00000000E+00  0.00000000E+00  0.00000000E+00
  0.00000000E+00  0.00000000E+00  0.00000000E+00
  0.00000000E+00  0.00000000E+00  0.00000000E+00
  0.00000000E+00  0.00000000E+00  0.00000000E+00
  0.00000000E+00  0.00000000E+00  0.00000000E+00
  0.00000000E+00  0.00000000E+00  0.00000000E+00
  0.00000000E+00  0.00000000E+00  0.00000000E+00
  0.00000000E+00  0.00000000E+00  0.00000000E+00
  0.00000000E+00  0.00000000E+00  0.00000000E+00
  0.00000000E+00  0.00000000E+00  0.00000000E+00
  0.00000000E+00  0.00000000E+00  0.00000000E+00
  0.00000000E+00  0.00000000E+00  0.00000000E+00
  0.00000000E+00  0.00000000E+00  0.00000000E+00
  0.00000000E+00  0.00000000E+00  0.00000000E+00
  0.00000000E+00  0.00000000E+00  0.00000000E+00
  0.00000000E+00  0.00000000E+00  0.00000000E+00
  0.00000000E+00  0.00000000E+00  0.00000000E+00
  0.00000000E+00  0.00000000E+00  0.00000000E+00
  0.00000000E+00  0.00000000E+00  0.00000000E+00
  0.00000000E+00  0.00000000E+00  0.00000000E+00
  0.00000000E+00  0.00000000E+00  0.00000000E+00
  0.00000000E+00  0.00000000E+00  0.00000000E+00
