Bi La Sn O  C  H                        
   1.00000000000000     
    29.0000000000000000    0.0000000000000000    0.0000000000000000
     0.2488180851000000   28.9989325590000000    0.0000000000000000
    -0.0631677343000000   -0.4515975666000000   28.9964147692999994
   Bi   La   Sn   O    C    H 
    22    23    23     2     1     1
Selective dynamics
Direct
  0.7613193197555175  0.4763455636006272  0.4024095114844796   T   T   T
  0.6472801587835753  0.6848111187087196  0.5490779746991817   T   T   T
  0.3607370788077374  0.4590954646546195  0.4268449630935358   T   T   T
  0.5520174822471522  0.7142229056800764  0.5842894826367659   T   T   T
  0.5915029568994470  0.5209714444905416  0.5841479689498996   F   F   F
  0.6382266164255656  0.6795714676052679  0.4419981124513314   T   T   T
  0.6953736735807406  0.5203167147069411  0.6533867135240218   T   T   T
  0.4878984199871269  0.7038172127887300  0.5027455484038562   T   T   T
  0.5004839460855024  0.5502791173970252  0.5477141156400123   F   F   F
  0.3267660821233949  0.4868863528712809  0.5745054867631142   T   T   T
  0.3835806612345827  0.6100613783175016  0.5377851299201551   T   T   T
  0.6667129484492236  0.4827404655721850  0.5105018184570156   F   F   F
  0.5763997220267569  0.4263140504383500  0.5448328182496311   F   F   F
  0.6685453586529442  0.3729218408746565  0.5053561659623975   T   T   T
  0.4616571915458085  0.3378250269325038  0.4964736108427181   T   T   T
  0.6484934028780529  0.5775373212088155  0.4602701624361103   F   F   F
  0.5567171971605555  0.4351126834608417  0.7495150887177754   T   T   T
  0.5967495406427140  0.3491829161735694  0.6684436947231036   T   T   T
  0.4935789078345529  0.2998514422595475  0.4071630730678334   T   T   T
  0.6604189745603556  0.6168349249494581  0.6667875989142427   T   T   T
  0.4956674529490348  0.4069546230247362  0.3053944313835701   T   T   T
  0.6238067525602413  0.3165263668614225  0.5741630267927907   T   T   T
  0.5335542848017139  0.6834940651087686  0.4023156558775338   T   T   T
  0.3900508430662447  0.4144553313642558  0.5258819753732362   T   T   T
  0.6325007397764798  0.5497524564766618  0.2826120797194601   T   T   T
  0.4717676525597096  0.4754309885375947  0.6921712192349351   T   T   T
  0.5683115009887700  0.5094300495444983  0.4784716241115703   F   F   F
  0.4203210565129183  0.5084107200613417  0.5018573595042781   F   F   F
  0.4530266065898374  0.4009382272559565  0.4048901717776077   T   T   T
  0.5674756192374352  0.3482912639250520  0.3551246129301849   T   T   T
  0.4124461969793997  0.5397047287786733  0.6117616401296750   T   T   T
  0.6027995260728353  0.4399565419021974  0.3067520492564941   T   T   T
  0.4557600171679747  0.6025342057594902  0.3549242332180222   T   T   T
  0.4217198330751633  0.4829424459582839  0.3381342642201118   T   T   T
  0.6610617429870843  0.4263444462084504  0.6035249647325278   T   T   T
  0.6735352863110934  0.5788702121208976  0.5641694152935406   T   T   T
  0.5263411164023319  0.5075682831614406  0.3274098304333258   T   T   T
  0.5657488316644693  0.3567385294732727  0.4697116241459167   T   T   T
  0.3187998533347685  0.5427978031907839  0.4901062608308946   T   T   T
  0.6601258479844438  0.4292327067280656  0.4158038254854480   T   T   T
  0.5660841929594156  0.6261437171197244  0.5094829013827464   F   F   F
  0.5963614042499084  0.5272521552101117  0.6901126694584276   T   T   T
  0.4717291468050862  0.6422544908269296  0.5894403532282892   T   T   T
  0.4638858233907995  0.6049314417871932  0.4658250781732469   T   T   T
  0.7183214270080859  0.5721855665438534  0.3851892142575010   T   T   T
  0.5499310510395361  0.5822218838566187  0.4076968008106903   F   F   F
  0.4794126430662260  0.5072205383607624  0.4190535757241776   F   F   F
  0.6982504292826095  0.4799509878003990  0.3266939159144193   T   T   T
  0.7515580776589603  0.4271380424955694  0.4902744796253148   T   T   T
  0.7492640144008544  0.5385236669855511  0.4875333966830299   T   T   T
  0.7491850876181217  0.4886133046745905  0.5729618259023129   T   T   T
  0.6462250495350949  0.4328417465418876  0.7075914838210060   T   T   T
  0.5782522407760733  0.7433671271232970  0.4909338738218066   T   T   T
  0.6192554540844384  0.5183157687966542  0.3801816896793397   F   F   F
  0.5066735025229905  0.5617292931979287  0.6505606370124374   T   T   T
  0.4922009500451665  0.4366758245867572  0.4933013002826740   F   F   F
  0.5608844484509063  0.4404139570509003  0.6454865549417619   F   F   F
  0.5783640971747228  0.6171646989085853  0.6136663211920972   T   T   T
  0.5498305249668037  0.6139818383485874  0.3123556713935371   T   T   T
  0.6314676169270828  0.6239124618034123  0.3592683923095236   T   T   T
  0.3817971692493187  0.5554584396799427  0.4103866746414705   T   T   T
  0.4723078164089713  0.4557257050327763  0.5877273803360978   F   F   F
  0.7263434366704914  0.6356092578921620  0.4839184853462588   T   T   T
  0.4981310047990834  0.3725816328317260  0.6825294057809236   T   T   T
  0.3830732464419925  0.4390360862979280  0.6386158622319393   T   T   T
  0.5544592502646992  0.4379899399457940  0.4037542370104745   F   F   F
  0.4350950885523358  0.3609477636708969  0.6053318682260962   T   T   T
  0.5285870472159472  0.3476006336808509  0.5762751691955447   T   T   T
  0.4609127541606513  0.6899630341183873  0.3448956727474147   T   T   T
  0.4379124654924416  0.6666283189110355  0.4145844910216162   T   T   T
  0.4421042716220086  0.6998028881005428  0.3846978474049177   T   T   T
  0.4255655654406060  0.7333789513787465  0.3918899543809747   T   T   T
 
  0.00000000E+00  0.00000000E+00  0.00000000E+00
  0.00000000E+00  0.00000000E+00  0.00000000E+00
  0.00000000E+00  0.00000000E+00  0.00000000E+00
  0.00000000E+00  0.00000000E+00  0.00000000E+00
  0.00000000E+00  0.00000000E+00  0.00000000E+00
  0.00000000E+00  0.00000000E+00  0.00000000E+00
  0.00000000E+00  0.00000000E+00  0.00000000E+00
  0.00000000E+00  0.00000000E+00  0.00000000E+00
  0.00000000E+00  0.00000000E+00  0.00000000E+00
  0.00000000E+00  0.00000000E+00  0.00000000E+00
  0.00000000E+00  0.00000000E+00  0.00000000E+00
  0.00000000E+00  0.00000000E+00  0.00000000E+00
  0.00000000E+00  0.00000000E+00  0.00000000E+00
  0.00000000E+00  0.00000000E+00  0.00000000E+00
  0.00000000E+00  0.00000000E+00  0.00000000E+00
  0.00000000E+00  0.00000000E+00  0.00000000E+00
  0.00000000E+00  0.00000000E+00  0.00000000E+00
  0.00000000E+00  0.00000000E+00  0.00000000E+00
  0.00000000E+00  0.00000000E+00  0.00000000E+00
  0.00000000E+00  0.00000000E+00  0.00000000E+00
  0.00000000E+00  0.00000000E+00  0.00000000E+00
  0.00000000E+00  0.00000000E+00  0.00000000E+00
  0.00000000E+00  0.00000000E+00  0.00000000E+00
  0.00000000E+00  0.00000000E+00  0.00000000E+00
  0.00000000E+00  0.00000000E+00  0.00000000E+00
  0.00000000E+00  0.00000000E+00  0.00000000E+00
  0.00000000E+00  0.00000000E+00  0.00000000E+00
  0.00000000E+00  0.00000000E+00  0.00000000E+00
  0.00000000E+00  0.00000000E+00  0.00000000E+00
  0.00000000E+00  0.00000000E+00  0.00000000E+00
  0.00000000E+00  0.00000000E+00  0.00000000E+00
  0.00000000E+00  0.00000000E+00  0.00000000E+00
  0.00000000E+00  0.00000000E+00  0.00000000E+00
  0.00000000E+00  0.00000000E+00  0.00000000E+00
  0.00000000E+00  0.00000000E+00  0.00000000E+00
  0.00000000E+00  0.00000000E+00  0.00000000E+00
  0.00000000E+00  0.00000000E+00  0.00000000E+00
  0.00000000E+00  0.00000000E+00  0.00000000E+00
  0.00000000E+00  0.00000000E+00  0.00000000E+00
  0.00000000E+00  0.00000000E+00  0.00000000E+00
  0.00000000E+00  0.00000000E+00  0.00000000E+00
  0.00000000E+00  0.00000000E+00  0.00000000E+00
  0.00000000E+00  0.00000000E+00  0.00000000E+00
  0.00000000E+00  0.00000000E+00  0.00000000E+00
  0.00000000E+00  0.00000000E+00  0.00000000E+00
  0.00000000E+00  0.00000000E+00  0.00000000E+00
  0.00000000E+00  0.00000000E+00  0.00000000E+00
  0.00000000E+00  0.00000000E+00  0.00000000E+00
  0.00000000E+00  0.00000000E+00  0.00000000E+00
  0.00000000E+00  0.00000000E+00  0.00000000E+00
  0.00000000E+00  0.00000000E+00  0.00000000E+00
  0.00000000E+00  0.00000000E+00  0.00000000E+00
  0.00000000E+00  0.00000000E+00  0.00000000E+00
  0.00000000E+00  0.00000000E+00  0.00000000E+00
  0.00000000E+00  0.00000000E+00  0.00000000E+00
  0.00000000E+00  0.00000000E+00  0.00000000E+00
  0.00000000E+00  0.00000000E+00  0.00000000E+00
  0.00000000E+00  0.00000000E+00  0.00000000E+00
  0.00000000E+00  0.00000000E+00  0.00000000E+00
  0.00000000E+00  0.00000000E+00  0.00000000E+00
  0.00000000E+00  0.00000000E+00  0.00000000E+00
  0.00000000E+00  0.00000000E+00  0.00000000E+00
  0.00000000E+00  0.00000000E+00  0.00000000E+00
  0.00000000E+00  0.00000000E+00  0.00000000E+00
  0.00000000E+00  0.00000000E+00  0.00000000E+00
  0.00000000E+00  0.00000000E+00  0.00000000E+00
  0.00000000E+00  0.00000000E+00  0.00000000E+00
  0.00000000E+00  0.00000000E+00  0.00000000E+00
  0.00000000E+00  0.00000000E+00  0.00000000E+00
  0.00000000E+00  0.00000000E+00  0.00000000E+00
  0.00000000E+00  0.00000000E+00  0.00000000E+00
  0.00000000E+00  0.00000000E+00  0.00000000E+00
