Bi La Sn O  C  H                        
   1.00000000000000     
    29.0000000000000000    0.0000000000000000    0.0000000000000000
     0.2488180851000000   28.9989325590000000    0.0000000000000000
    -0.0631677343000000   -0.4515975666000000   28.9964147692999994
   Bi   La   Sn   O    C    H 
    22    23    23     2     1     1
Selective dynamics
Direct
  0.7597593192205988  0.4786329324067133  0.3981224458540492   T   T   T
  0.6479128723202165  0.6849930178352288  0.5498981558989762   T   T   T
  0.3607625113255977  0.4599104911178286  0.4257361235482791   T   T   T
  0.5511752655401654  0.7134661441538603  0.5837159647933892   T   T   T
  0.5915029568994470  0.5209714444905416  0.5841479689498996   F   F   F
  0.6398258249155409  0.6795898207962489  0.4444609104040503   T   T   T
  0.6949620084945981  0.5200523499014215  0.6538132155596073   T   T   T
  0.4869708422613653  0.7016903120025948  0.4986717425100599   T   T   T
  0.5004839460855024  0.5502791173970252  0.5477141156400123   F   F   F
  0.3268230771121419  0.4865040005564996  0.5776455350612204   T   T   T
  0.3822183550461801  0.6091360540939317  0.5362437218669986   T   T   T
  0.6667129484492236  0.4827404655721850  0.5105018184570156   F   F   F
  0.5763997220267569  0.4263140504383500  0.5448328182496311   F   F   F
  0.6685079841609745  0.3740880237456258  0.5069225503465061   T   T   T
  0.4620464195916488  0.3393486896229477  0.4967193056956165   T   T   T
  0.6484934028780529  0.5775373212088155  0.4602701624361103   F   F   F
  0.5543928036607459  0.4329233427481766  0.7491918255558735   T   T   T
  0.5954371570026216  0.3491441133352222  0.6676598205658227   T   T   T
  0.4930476945304713  0.2996330841195833  0.4074551373036748   T   T   T
  0.6603327949993874  0.6158957402312574  0.6679279460212160   T   T   T
  0.4907891738151752  0.4118283196238176  0.3045125740585881   T   T   T
  0.6201649296823641  0.3160955705690189  0.5722265427181399   T   T   T
  0.5390033324391392  0.6838032730684952  0.4038831450776428   T   T   T
  0.3874918149046701  0.4159167775320655  0.5237539630907573   T   T   T
  0.6274229271731422  0.5517800963417003  0.2821171245579884   T   T   T
  0.4723466375536580  0.4778578723864751  0.6919960723989202   T   T   T
  0.5683115009887700  0.5094300495444983  0.4784716241115703   F   F   F
  0.4203210565129183  0.5084107200613417  0.5018573595042781   F   F   F
  0.4528464699757249  0.4016676955389127  0.4049915157605659   T   T   T
  0.5623895290106308  0.3500557313256877  0.3516496812224436   T   T   T
  0.4126386024755742  0.5396655263032373  0.6113282151849483   T   T   T
  0.5989604466752441  0.4416174422929657  0.3047198737399174   T   T   T
  0.4547420734982084  0.6010932533805062  0.3639379348916862   T   T   T
  0.4187954327930840  0.4901037566572767  0.3381813637051927   T   T   T
  0.6606752888474562  0.4265275332415798  0.6045352709865871   T   T   T
  0.6737182983066619  0.5789593395743583  0.5640611839693400   T   T   T
  0.5258439582377586  0.5099794842697707  0.3283299058045672   T   T   T
  0.5658393113593878  0.3570310962754299  0.4688452292207355   T   T   T
  0.3155222703639747  0.5402827269034695  0.4925554226817438   T   T   T
  0.6606217685201450  0.4297207668733503  0.4152614052256148   T   T   T
  0.5660841929594156  0.6261437171197244  0.5094829013827464   F   F   F
  0.5954054277621627  0.5271270565391850  0.6902935562436738   T   T   T
  0.4703058634226037  0.6426100718553515  0.5873006855408724   T   T   T
  0.4633903454539517  0.6034916280289498  0.4641248647883379   T   T   T
  0.7161260359291018  0.5738569202575470  0.3829932665329103   T   T   T
  0.5499310510395361  0.5822218838566187  0.4076968008106903   F   F   F
  0.4794126430662260  0.5072205383607624  0.4190535757241776   F   F   F
  0.6949306829115055  0.4809756052731213  0.3235385596408610   T   T   T
  0.7514428562122175  0.4295365029540203  0.4866040249822716   T   T   T
  0.7481177638960578  0.5378012481738288  0.4848859223315121   T   T   T
  0.7486628069674091  0.4894944731865248  0.5720850111768340   T   T   T
  0.6447542127072323  0.4324410961835828  0.7089079888032401   T   T   T
  0.5776628249066188  0.7435996475574921  0.4924554055391449   T   T   T
  0.6192554540844384  0.5183157687966542  0.3801816896793397   F   F   F
  0.5066731189572254  0.5640752811669484  0.6500793113191539   T   T   T
  0.4922009500451665  0.4366758245867572  0.4933013002826740   F   F   F
  0.5608844484509063  0.4404139570509003  0.6454865549417619   F   F   F
  0.5789318716609199  0.6171723541338615  0.6131806614926780   T   T   T
  0.5435022721202651  0.6173547120018769  0.3118370861651904   T   T   T
  0.6269412695886867  0.6246956303950302  0.3595055367750966   T   T   T
  0.3763981524381028  0.5580473587158213  0.4134756305879380   T   T   T
  0.4723078164089713  0.4557257050327763  0.5877273803360978   F   F   F
  0.7271678716242201  0.6352701641909468  0.4837903633349848   T   T   T
  0.4954627692584114  0.3750978797991167  0.6773366652338083   T   T   T
  0.3856629781547148  0.4371801148517918  0.6391921343255013   T   T   T
  0.5544592502646992  0.4379899399457940  0.4037542370104745   F   F   F
  0.4299653698760368  0.3552128257165612  0.6027871810335301   T   T   T
  0.5258898642227421  0.3497995751087828  0.5767213276430312   T   T   T
  0.3466414619628444  0.3480986502824048  0.5304897076037716   T   T   T
  0.3729299242078811  0.2907926482897649  0.5765903699446741   T   T   T
  0.3451527847536682  0.3073795293591736  0.5481590352983079   T   T   T
  0.3158725688506728  0.2858253943371771  0.5359879597432866   T   T   T
 
  0.00000000E+00  0.00000000E+00  0.00000000E+00
  0.00000000E+00  0.00000000E+00  0.00000000E+00
  0.00000000E+00  0.00000000E+00  0.00000000E+00
  0.00000000E+00  0.00000000E+00  0.00000000E+00
  0.00000000E+00  0.00000000E+00  0.00000000E+00
  0.00000000E+00  0.00000000E+00  0.00000000E+00
  0.00000000E+00  0.00000000E+00  0.00000000E+00
  0.00000000E+00  0.00000000E+00  0.00000000E+00
  0.00000000E+00  0.00000000E+00  0.00000000E+00
  0.00000000E+00  0.00000000E+00  0.00000000E+00
  0.00000000E+00  0.00000000E+00  0.00000000E+00
  0.00000000E+00  0.00000000E+00  0.00000000E+00
  0.00000000E+00  0.00000000E+00  0.00000000E+00
  0.00000000E+00  0.00000000E+00  0.00000000E+00
  0.00000000E+00  0.00000000E+00  0.00000000E+00
  0.00000000E+00  0.00000000E+00  0.00000000E+00
  0.00000000E+00  0.00000000E+00  0.00000000E+00
  0.00000000E+00  0.00000000E+00  0.00000000E+00
  0.00000000E+00  0.00000000E+00  0.00000000E+00
  0.00000000E+00  0.00000000E+00  0.00000000E+00
  0.00000000E+00  0.00000000E+00  0.00000000E+00
  0.00000000E+00  0.00000000E+00  0.00000000E+00
  0.00000000E+00  0.00000000E+00  0.00000000E+00
  0.00000000E+00  0.00000000E+00  0.00000000E+00
  0.00000000E+00  0.00000000E+00  0.00000000E+00
  0.00000000E+00  0.00000000E+00  0.00000000E+00
  0.00000000E+00  0.00000000E+00  0.00000000E+00
  0.00000000E+00  0.00000000E+00  0.00000000E+00
  0.00000000E+00  0.00000000E+00  0.00000000E+00
  0.00000000E+00  0.00000000E+00  0.00000000E+00
  0.00000000E+00  0.00000000E+00  0.00000000E+00
  0.00000000E+00  0.00000000E+00  0.00000000E+00
  0.00000000E+00  0.00000000E+00  0.00000000E+00
  0.00000000E+00  0.00000000E+00  0.00000000E+00
  0.00000000E+00  0.00000000E+00  0.00000000E+00
  0.00000000E+00  0.00000000E+00  0.00000000E+00
  0.00000000E+00  0.00000000E+00  0.00000000E+00
  0.00000000E+00  0.00000000E+00  0.00000000E+00
  0.00000000E+00  0.00000000E+00  0.00000000E+00
  0.00000000E+00  0.00000000E+00  0.00000000E+00
  0.00000000E+00  0.00000000E+00  0.00000000E+00
  0.00000000E+00  0.00000000E+00  0.00000000E+00
  0.00000000E+00  0.00000000E+00  0.00000000E+00
  0.00000000E+00  0.00000000E+00  0.00000000E+00
  0.00000000E+00  0.00000000E+00  0.00000000E+00
  0.00000000E+00  0.00000000E+00  0.00000000E+00
  0.00000000E+00  0.00000000E+00  0.00000000E+00
  0.00000000E+00  0.00000000E+00  0.00000000E+00
  0.00000000E+00  0.00000000E+00  0.00000000E+00
  0.00000000E+00  0.00000000E+00  0.00000000E+00
  0.00000000E+00  0.00000000E+00  0.00000000E+00
  0.00000000E+00  0.00000000E+00  0.00000000E+00
  0.00000000E+00  0.00000000E+00  0.00000000E+00
  0.00000000E+00  0.00000000E+00  0.00000000E+00
  0.00000000E+00  0.00000000E+00  0.00000000E+00
  0.00000000E+00  0.00000000E+00  0.00000000E+00
  0.00000000E+00  0.00000000E+00  0.00000000E+00
  0.00000000E+00  0.00000000E+00  0.00000000E+00
  0.00000000E+00  0.00000000E+00  0.00000000E+00
  0.00000000E+00  0.00000000E+00  0.00000000E+00
  0.00000000E+00  0.00000000E+00  0.00000000E+00
  0.00000000E+00  0.00000000E+00  0.00000000E+00
  0.00000000E+00  0.00000000E+00  0.00000000E+00
  0.00000000E+00  0.00000000E+00  0.00000000E+00
  0.00000000E+00  0.00000000E+00  0.00000000E+00
  0.00000000E+00  0.00000000E+00  0.00000000E+00
  0.00000000E+00  0.00000000E+00  0.00000000E+00
  0.00000000E+00  0.00000000E+00  0.00000000E+00
  0.00000000E+00  0.00000000E+00  0.00000000E+00
  0.00000000E+00  0.00000000E+00  0.00000000E+00
  0.00000000E+00  0.00000000E+00  0.00000000E+00
  0.00000000E+00  0.00000000E+00  0.00000000E+00
