Bi La Sn O  C  H                        
   1.00000000000000     
    29.0000000000000000    0.0000000000000000    0.0000000000000000
     0.2488180851000000   28.9989325590000000    0.0000000000000000
    -0.0631677343000000   -0.4515975666000000   28.9964147692999994
   Bi   La   Sn   O    C    H 
    22    23    23     2     1     1
Selective dynamics
Direct
  0.7607206114121818  0.4766055535858317  0.3984925251468626   T   T   T
  0.6476367883212569  0.6849586123150924  0.5498408292351868   T   T   T
  0.3601392237884308  0.4587591871283954  0.4275019544053421   T   T   T
  0.5512029272984943  0.7129642162862334  0.5840195701063740   T   T   T
  0.5915029568994470  0.5209714444905416  0.5841479689498996   F   F   F
  0.6398232911581541  0.6804307692081114  0.4441796832036787   T   T   T
  0.6929803952890479  0.5198738323593814  0.6534640647962476   T   T   T
  0.4869674474882532  0.7018610205612178  0.4988750057724650   T   T   T
  0.5004839460855024  0.5502791173970252  0.5477141156400123   F   F   F
  0.3260846070502758  0.4852587900667068  0.5766322333156445   T   T   T
  0.3819132148417225  0.6093507796242116  0.5362138688130130   T   T   T
  0.6667129484492236  0.4827404655721850  0.5105018184570156   F   F   F
  0.5763997220267569  0.4263140504383500  0.5448328182496311   F   F   F
  0.6687655636969930  0.3736308597057136  0.5065798705420227   T   T   T
  0.4618426633056001  0.3382040461536343  0.4966560654715385   T   T   T
  0.6484934028780529  0.5775373212088155  0.4602701624361103   F   F   F
  0.5558902789963001  0.4336318317292464  0.7495347870836263   T   T   T
  0.5964665337481599  0.3493205015831224  0.6682397648037740   T   T   T
  0.4927849179925052  0.2996805575184499  0.4072876765191569   T   T   T
  0.6606688844439244  0.6162859357916625  0.6679591649872221   T   T   T
  0.4917354048050806  0.4104296627060159  0.3050813913937776   T   T   T
  0.6214793358938877  0.3160849786966827  0.5731567797811562   T   T   T
  0.5394844755028166  0.6834802482064823  0.4042626724988921   T   T   T
  0.3898007324656571  0.4155553445631620  0.5257825134840000   T   T   T
  0.6288747782834674  0.5508481528646538  0.2823410412737871   T   T   T
  0.4723789080770986  0.4771314216894154  0.6923300990704780   T   T   T
  0.5683115009887700  0.5094300495444983  0.4784716241115703   F   F   F
  0.4203210565129183  0.5084107200613417  0.5018573595042781   F   F   F
  0.4524717571810182  0.4014386073491187  0.4052690088321249   T   T   T
  0.5636932147577070  0.3495956118990068  0.3525596743235173   T   T   T
  0.4117597577947720  0.5393031154149435  0.6106985905420136   T   T   T
  0.5990061939610412  0.4418602405975702  0.3045849465258172   T   T   T
  0.4549201630448226  0.6001859629938400  0.3630774028809818   T   T   T
  0.4186971295873468  0.4877183964725402  0.3395401416712648   T   T   T
  0.6608970124933612  0.4260143615838541  0.6040715988613780   T   T   T
  0.6770997431624773  0.5804082592668366  0.5649036661830534   T   T   T
  0.5261107880787428  0.5093616952533487  0.3280109039180333   T   T   T
  0.5656496328241040  0.3569006988005601  0.4690184229135547   T   T   T
  0.3155873336293959  0.5403300365344371  0.4922989863684464   T   T   T
  0.6601038416125222  0.4292908793875648  0.4156325997708186   T   T   T
  0.5660841929594156  0.6261437171197244  0.5094829013827464   F   F   F
  0.5937818189768234  0.5277196374180380  0.6907807523986451   T   T   T
  0.4699850790530734  0.6425100243512543  0.5872175411234029   T   T   T
  0.4628270461050161  0.6035815909247061  0.4640553534943169   T   T   T
  0.7164294384049364  0.5722261897261105  0.3825824206752941   T   T   T
  0.5499310510395361  0.5822218838566187  0.4076968008106903   F   F   F
  0.4794126430662260  0.5072205383607624  0.4190535757241776   F   F   F
  0.6951723398597968  0.4793370010113123  0.3246174767506618   T   T   T
  0.7513139462722735  0.4285699117945190  0.4872977319305226   T   T   T
  0.7476439554601123  0.5377275697166740  0.4833222125717194   T   T   T
  0.7489249145742595  0.4900513914662415  0.5710395528243601   T   T   T
  0.6455867365277069  0.4340907308449859  0.7080200866772307   T   T   T
  0.5776275572292320  0.7436960947282790  0.4929103904517431   T   T   T
  0.6192554540844384  0.5183157687966542  0.3801816896793397   F   F   F
  0.5055984612854949  0.5636173342469708  0.6498004161672613   T   T   T
  0.4922009500451665  0.4366758245867572  0.4933013002826740   F   F   F
  0.5608844484509063  0.4404139570509003  0.6454865549417619   F   F   F
  0.5786959692801249  0.6165050791675817  0.6136450417839967   T   T   T
  0.5451340068750501  0.6170556928797084  0.3125299289450180   T   T   T
  0.6283921607329406  0.6242488881027869  0.3599224152660359   T   T   T
  0.3766505425140825  0.5573666192923860  0.4131960281849768   T   T   T
  0.4723078164089713  0.4557257050327763  0.5877273803360978   F   F   F
  0.7265997687819472  0.6362385931457730  0.4820367871692485   T   T   T
  0.4969035092082223  0.3740718933544709  0.6797003722257943   T   T   T
  0.3844078216184866  0.4383948730854331  0.6400261979400400   T   T   T
  0.5544592502646992  0.4379899399457940  0.4037542370104745   F   F   F
  0.4325966467328993  0.3593317376920672  0.6041810700239889   T   T   T
  0.5272127336280904  0.3486480650610048  0.5766697747045425   T   T   T
  0.7590019311574007  0.6183190190308779  0.6691905577895493   T   T   T
  0.7482712094111295  0.6092011531124255  0.5916258206743605   T   T   T
  0.7717788544022197  0.6203907302711831  0.6282158102456141   T   T   T
  0.8072497420261306  0.6330791341162855  0.6207711000470385   T   T   T
 
  0.00000000E+00  0.00000000E+00  0.00000000E+00
  0.00000000E+00  0.00000000E+00  0.00000000E+00
  0.00000000E+00  0.00000000E+00  0.00000000E+00
  0.00000000E+00  0.00000000E+00  0.00000000E+00
  0.00000000E+00  0.00000000E+00  0.00000000E+00
  0.00000000E+00  0.00000000E+00  0.00000000E+00
  0.00000000E+00  0.00000000E+00  0.00000000E+00
  0.00000000E+00  0.00000000E+00  0.00000000E+00
  0.00000000E+00  0.00000000E+00  0.00000000E+00
  0.00000000E+00  0.00000000E+00  0.00000000E+00
  0.00000000E+00  0.00000000E+00  0.00000000E+00
  0.00000000E+00  0.00000000E+00  0.00000000E+00
  0.00000000E+00  0.00000000E+00  0.00000000E+00
  0.00000000E+00  0.00000000E+00  0.00000000E+00
  0.00000000E+00  0.00000000E+00  0.00000000E+00
  0.00000000E+00  0.00000000E+00  0.00000000E+00
  0.00000000E+00  0.00000000E+00  0.00000000E+00
  0.00000000E+00  0.00000000E+00  0.00000000E+00
  0.00000000E+00  0.00000000E+00  0.00000000E+00
  0.00000000E+00  0.00000000E+00  0.00000000E+00
  0.00000000E+00  0.00000000E+00  0.00000000E+00
  0.00000000E+00  0.00000000E+00  0.00000000E+00
  0.00000000E+00  0.00000000E+00  0.00000000E+00
  0.00000000E+00  0.00000000E+00  0.00000000E+00
  0.00000000E+00  0.00000000E+00  0.00000000E+00
  0.00000000E+00  0.00000000E+00  0.00000000E+00
  0.00000000E+00  0.00000000E+00  0.00000000E+00
  0.00000000E+00  0.00000000E+00  0.00000000E+00
  0.00000000E+00  0.00000000E+00  0.00000000E+00
  0.00000000E+00  0.00000000E+00  0.00000000E+00
  0.00000000E+00  0.00000000E+00  0.00000000E+00
  0.00000000E+00  0.00000000E+00  0.00000000E+00
  0.00000000E+00  0.00000000E+00  0.00000000E+00
  0.00000000E+00  0.00000000E+00  0.00000000E+00
  0.00000000E+00  0.00000000E+00  0.00000000E+00
  0.00000000E+00  0.00000000E+00  0.00000000E+00
  0.00000000E+00  0.00000000E+00  0.00000000E+00
  0.00000000E+00  0.00000000E+00  0.00000000E+00
  0.00000000E+00  0.00000000E+00  0.00000000E+00
  0.00000000E+00  0.00000000E+00  0.00000000E+00
  0.00000000E+00  0.00000000E+00  0.00000000E+00
  0.00000000E+00  0.00000000E+00  0.00000000E+00
  0.00000000E+00  0.00000000E+00  0.00000000E+00
  0.00000000E+00  0.00000000E+00  0.00000000E+00
  0.00000000E+00  0.00000000E+00  0.00000000E+00
  0.00000000E+00  0.00000000E+00  0.00000000E+00
  0.00000000E+00  0.00000000E+00  0.00000000E+00
  0.00000000E+00  0.00000000E+00  0.00000000E+00
  0.00000000E+00  0.00000000E+00  0.00000000E+00
  0.00000000E+00  0.00000000E+00  0.00000000E+00
  0.00000000E+00  0.00000000E+00  0.00000000E+00
  0.00000000E+00  0.00000000E+00  0.00000000E+00
  0.00000000E+00  0.00000000E+00  0.00000000E+00
  0.00000000E+00  0.00000000E+00  0.00000000E+00
  0.00000000E+00  0.00000000E+00  0.00000000E+00
  0.00000000E+00  0.00000000E+00  0.00000000E+00
  0.00000000E+00  0.00000000E+00  0.00000000E+00
  0.00000000E+00  0.00000000E+00  0.00000000E+00
  0.00000000E+00  0.00000000E+00  0.00000000E+00
  0.00000000E+00  0.00000000E+00  0.00000000E+00
  0.00000000E+00  0.00000000E+00  0.00000000E+00
  0.00000000E+00  0.00000000E+00  0.00000000E+00
  0.00000000E+00  0.00000000E+00  0.00000000E+00
  0.00000000E+00  0.00000000E+00  0.00000000E+00
  0.00000000E+00  0.00000000E+00  0.00000000E+00
  0.00000000E+00  0.00000000E+00  0.00000000E+00
  0.00000000E+00  0.00000000E+00  0.00000000E+00
  0.00000000E+00  0.00000000E+00  0.00000000E+00
  0.00000000E+00  0.00000000E+00  0.00000000E+00
  0.00000000E+00  0.00000000E+00  0.00000000E+00
  0.00000000E+00  0.00000000E+00  0.00000000E+00
  0.00000000E+00  0.00000000E+00  0.00000000E+00
