Bi La Sn O  C  H                        
   1.00000000000000     
    29.0000000000000000    0.0000000000000000    0.0000000000000000
     0.2488180851000000   28.9989325590000000    0.0000000000000000
    -0.0631677343000000   -0.4515975666000000   28.9964147692999994
   Bi   La   Sn   O    C    H 
    22    23    23     2     1     1
Selective dynamics
Direct
  0.7596940104475495  0.4786957855461648  0.4001713374502018   T   T   T
  0.6473425213409789  0.6854112615573226  0.5495796187067132   T   T   T
  0.3606644028861639  0.4580871226019665  0.4271167942810897   T   T   T
  0.5504561682732074  0.7133597336380121  0.5833628332131082   T   T   T
  0.5915029568994470  0.5209714444905416  0.5841479689498996   F   F   F
  0.6398291641408733  0.6800786753346841  0.4444021806822042   T   T   T
  0.6906523237164959  0.5197479172055307  0.6550147770839162   T   T   T
  0.4866713506135053  0.7018059778675467  0.4983203266659200   T   T   T
  0.5004839460855024  0.5502791173970252  0.5477141156400123   F   F   F
  0.3265027423634956  0.4848116284864810  0.5770211593399402   T   T   T
  0.3816302943694133  0.6091478373433827  0.5361258086879613   T   T   T
  0.6667129484492236  0.4827404655721850  0.5105018184570156   F   F   F
  0.5763997220267569  0.4263140504383500  0.5448328182496311   F   F   F
  0.6687241417026433  0.3737947248850054  0.5054226282019499   T   T   T
  0.4613477904356074  0.3376714953558178  0.4956392024944495   T   T   T
  0.6484934028780529  0.5775373212088155  0.4602701624361103   F   F   F
  0.5545936398719523  0.4324331049519848  0.7498933921745647   T   T   T
  0.5942284293026779  0.3485579732799158  0.6672773084539110   T   T   T
  0.4933307063824965  0.2996617033590859  0.4062810727693715   T   T   T
  0.6570839503952025  0.6151814688957079  0.6703429622232789   T   T   T
  0.4923513325309031  0.4102143714029157  0.3045806096493442   T   T   T
  0.6220620784911128  0.3166296254611183  0.5726825217779815   T   T   T
  0.5394426227428760  0.6834420008265584  0.4040315302384542   T   T   T
  0.3898005645278226  0.4152829097962945  0.5254631206351742   T   T   T
  0.6277563406144090  0.5511072868145475  0.2818493775165000   T   T   T
  0.4724633183803010  0.4784857382299306  0.6924193786173213   T   T   T
  0.5683115009887700  0.5094300495444983  0.4784716241115703   F   F   F
  0.4203210565129183  0.5084107200613417  0.5018573595042781   F   F   F
  0.4528987168363543  0.4014429469613517  0.4048318177473261   T   T   T
  0.5643796589749859  0.3502105115518855  0.3524719288942693   T   T   T
  0.4118517376592817  0.5391977355545386  0.6107902494596813   T   T   T
  0.6007453266556055  0.4409036230900003  0.3051936142248247   T   T   T
  0.4546717263612304  0.5997034075082044  0.3632129292134400   T   T   T
  0.4191424735706500  0.4874004799614280  0.3390062639417489   T   T   T
  0.6615981656024980  0.4256688266479878  0.6036146400225316   T   T   T
  0.6765219887648732  0.5805749325117229  0.5656740980882835   T   T   T
  0.5258819349586498  0.5091491008769604  0.3280630275729751   T   T   T
  0.5652337161790615  0.3566221476230325  0.4691692592799799   T   T   T
  0.3159036605500108  0.5394185730098734  0.4923269366813115   T   T   T
  0.6599410603750968  0.4292527464621083  0.4147362404713418   T   T   T
  0.5660841929594156  0.6261437171197244  0.5094829013827464   F   F   F
  0.5920160487628826  0.5269507702266210  0.6917558866929173   T   T   T
  0.4693579433816644  0.6427649092752757  0.5868456676729339   T   T   T
  0.4627321849993788  0.6034215729724243  0.4641769103678486   T   T   T
  0.7166386421992696  0.5742053939126019  0.3835328097435637   T   T   T
  0.5499310510395361  0.5822218838566187  0.4076968008106903   F   F   F
  0.4794126430662260  0.5072205383607624  0.4190535757241776   F   F   F
  0.6959461339929042  0.4819989912661584  0.3248001269635845   T   T   T
  0.7514363404017593  0.4299828559334181  0.4886966510843528   T   T   T
  0.7476893914685048  0.5388237389557321  0.4857907746268272   T   T   T
  0.7491621708462768  0.4931615547381453  0.5738479512330514   T   T   T
  0.6442114088422517  0.4326606244167923  0.7075574031080739   T   T   T
  0.5772660510054838  0.7438311540056888  0.4924051888920255   T   T   T
  0.6192554540844384  0.5183157687966542  0.3801816896793397   F   F   F
  0.5051848582619891  0.5648370303557232  0.6498356074539795   T   T   T
  0.4922009500451665  0.4366758245867572  0.4933013002826740   F   F   F
  0.5608844484509063  0.4404139570509003  0.6454865549417619   F   F   F
  0.5781849142843061  0.6167891156989384  0.6130083372731789   T   T   T
  0.5441771637010296  0.6165734536163153  0.3121566115231987   T   T   T
  0.6274716458530206  0.6245429111777056  0.3596458982859886   T   T   T
  0.3764895332472661  0.5566320214953366  0.4128373038685815   T   T   T
  0.4723078164089713  0.4557257050327763  0.5877273803360978   F   F   F
  0.7267736448850990  0.6364697182923699  0.4829011108846415   T   T   T
  0.4952026728055343  0.3754944113344958  0.6780407362506475   T   T   T
  0.3854523622236109  0.4376033859360394  0.6400131778721111   T   T   T
  0.5544592502646992  0.4379899399457940  0.4037542370104745   F   F   F
  0.4321141429867669  0.3578598208989492  0.6027278363265069   T   T   T
  0.5268492290401343  0.3484237449041488  0.5754553261753340   T   T   T
  0.8033814109564215  0.5448956048173030  0.6118638362347416   T   T   T
  0.7520627064975121  0.6021966769770172  0.5948141761884173   T   T   T
  0.7898906284092584  0.5866877219876270  0.6110668535983336   T   T   T
  0.8136983893591236  0.6127220420499319  0.6262909306934160   T   T   T
 
  0.00000000E+00  0.00000000E+00  0.00000000E+00
  0.00000000E+00  0.00000000E+00  0.00000000E+00
  0.00000000E+00  0.00000000E+00  0.00000000E+00
  0.00000000E+00  0.00000000E+00  0.00000000E+00
  0.00000000E+00  0.00000000E+00  0.00000000E+00
  0.00000000E+00  0.00000000E+00  0.00000000E+00
  0.00000000E+00  0.00000000E+00  0.00000000E+00
  0.00000000E+00  0.00000000E+00  0.00000000E+00
  0.00000000E+00  0.00000000E+00  0.00000000E+00
  0.00000000E+00  0.00000000E+00  0.00000000E+00
  0.00000000E+00  0.00000000E+00  0.00000000E+00
  0.00000000E+00  0.00000000E+00  0.00000000E+00
  0.00000000E+00  0.00000000E+00  0.00000000E+00
  0.00000000E+00  0.00000000E+00  0.00000000E+00
  0.00000000E+00  0.00000000E+00  0.00000000E+00
  0.00000000E+00  0.00000000E+00  0.00000000E+00
  0.00000000E+00  0.00000000E+00  0.00000000E+00
  0.00000000E+00  0.00000000E+00  0.00000000E+00
  0.00000000E+00  0.00000000E+00  0.00000000E+00
  0.00000000E+00  0.00000000E+00  0.00000000E+00
  0.00000000E+00  0.00000000E+00  0.00000000E+00
  0.00000000E+00  0.00000000E+00  0.00000000E+00
  0.00000000E+00  0.00000000E+00  0.00000000E+00
  0.00000000E+00  0.00000000E+00  0.00000000E+00
  0.00000000E+00  0.00000000E+00  0.00000000E+00
  0.00000000E+00  0.00000000E+00  0.00000000E+00
  0.00000000E+00  0.00000000E+00  0.00000000E+00
  0.00000000E+00  0.00000000E+00  0.00000000E+00
  0.00000000E+00  0.00000000E+00  0.00000000E+00
  0.00000000E+00  0.00000000E+00  0.00000000E+00
  0.00000000E+00  0.00000000E+00  0.00000000E+00
  0.00000000E+00  0.00000000E+00  0.00000000E+00
  0.00000000E+00  0.00000000E+00  0.00000000E+00
  0.00000000E+00  0.00000000E+00  0.00000000E+00
  0.00000000E+00  0.00000000E+00  0.00000000E+00
  0.00000000E+00  0.00000000E+00  0.00000000E+00
  0.00000000E+00  0.00000000E+00  0.00000000E+00
  0.00000000E+00  0.00000000E+00  0.00000000E+00
  0.00000000E+00  0.00000000E+00  0.00000000E+00
  0.00000000E+00  0.00000000E+00  0.00000000E+00
  0.00000000E+00  0.00000000E+00  0.00000000E+00
  0.00000000E+00  0.00000000E+00  0.00000000E+00
  0.00000000E+00  0.00000000E+00  0.00000000E+00
  0.00000000E+00  0.00000000E+00  0.00000000E+00
  0.00000000E+00  0.00000000E+00  0.00000000E+00
  0.00000000E+00  0.00000000E+00  0.00000000E+00
  0.00000000E+00  0.00000000E+00  0.00000000E+00
  0.00000000E+00  0.00000000E+00  0.00000000E+00
  0.00000000E+00  0.00000000E+00  0.00000000E+00
  0.00000000E+00  0.00000000E+00  0.00000000E+00
  0.00000000E+00  0.00000000E+00  0.00000000E+00
  0.00000000E+00  0.00000000E+00  0.00000000E+00
  0.00000000E+00  0.00000000E+00  0.00000000E+00
  0.00000000E+00  0.00000000E+00  0.00000000E+00
  0.00000000E+00  0.00000000E+00  0.00000000E+00
  0.00000000E+00  0.00000000E+00  0.00000000E+00
  0.00000000E+00  0.00000000E+00  0.00000000E+00
  0.00000000E+00  0.00000000E+00  0.00000000E+00
  0.00000000E+00  0.00000000E+00  0.00000000E+00
  0.00000000E+00  0.00000000E+00  0.00000000E+00
  0.00000000E+00  0.00000000E+00  0.00000000E+00
  0.00000000E+00  0.00000000E+00  0.00000000E+00
  0.00000000E+00  0.00000000E+00  0.00000000E+00
  0.00000000E+00  0.00000000E+00  0.00000000E+00
  0.00000000E+00  0.00000000E+00  0.00000000E+00
  0.00000000E+00  0.00000000E+00  0.00000000E+00
  0.00000000E+00  0.00000000E+00  0.00000000E+00
  0.00000000E+00  0.00000000E+00  0.00000000E+00
  0.00000000E+00  0.00000000E+00  0.00000000E+00
  0.00000000E+00  0.00000000E+00  0.00000000E+00
  0.00000000E+00  0.00000000E+00  0.00000000E+00
  0.00000000E+00  0.00000000E+00  0.00000000E+00
