Bi La Sn O  C  H                        
   1.00000000000000     
    29.0000000000000000    0.0000000000000000    0.0000000000000000
     0.2488180851000000   28.9989325590000000    0.0000000000000000
    -0.0631677343000000   -0.4515975666000000   28.9964147692999994
   Bi   La   Sn   O    C    H 
    22    23    23     2     1     1
Selective dynamics
Direct
  0.7589728367006300  0.4767234567188947  0.4002700098406922   T   T   T
  0.6482896674933900  0.6846774985466617  0.5512028097299649   T   T   T
  0.3592754117057180  0.4589295223707837  0.4273253044520730   T   T   T
  0.5522072799826783  0.7137730542874213  0.5837973667783158   T   T   T
  0.5915029568994470  0.5209714444905416  0.5841479689498996   F   F   F
  0.6404167282888543  0.6801147350099592  0.4458151278881852   T   T   T
  0.6949191571284740  0.5206761159267063  0.6544820781584825   T   T   T
  0.4875060668354776  0.7018733732828819  0.4982376762539091   T   T   T
  0.5004839460855024  0.5502791173970252  0.5477141156400123   F   F   F
  0.3274067173562821  0.4840334904665310  0.5772172878848710   T   T   T
  0.3826974502389300  0.6090697841886161  0.5374987067972300   T   T   T
  0.6667129484492236  0.4827404655721850  0.5105018184570156   F   F   F
  0.5763997220267569  0.4263140504383500  0.5448328182496311   F   F   F
  0.6674254894513488  0.3726142928060802  0.5084832991103102   T   T   T
  0.4595863125686773  0.3371854684718673  0.4946325314473957   T   T   T
  0.6484934028780529  0.5775373212088155  0.4602701624361103   F   F   F
  0.5543001292219898  0.4341759208753394  0.7487789357962685   T   T   T
  0.5907104608078384  0.3506918573811638  0.6694679663320855   T   T   T
  0.4919580792406664  0.3006270105822872  0.4052166103224775   T   T   T
  0.6606425787593363  0.6168454618947046  0.6675118044651545   T   T   T
  0.4918393320197643  0.4109640208584322  0.3051150817811864   T   T   T
  0.6146412688616666  0.3182875687487138  0.5740739625756913   T   T   T
  0.5398424311156494  0.6835040687961227  0.4040958830409280   T   T   T
  0.3901505122997566  0.4156541603745889  0.5245781412579775   T   T   T
  0.6290713168265482  0.5517129428939938  0.2830307918421617   T   T   T
  0.4738235935061427  0.4806508771513545  0.6941161083226324   T   T   T
  0.5683115009887700  0.5094300495444983  0.4784716241115703   F   F   F
  0.4203210565129183  0.5084107200613417  0.5018573595042781   F   F   F
  0.4518981827988147  0.4023089600509674  0.4048418709971877   T   T   T
  0.5641131606089060  0.3496371431458702  0.3522784698554887   T   T   T
  0.4118284503612217  0.5386869147168204  0.6115588549426915   T   T   T
  0.5986678114481367  0.4421963315711400  0.3047422869998340   T   T   T
  0.4549388505482380  0.6002216812576339  0.3639497233995228   T   T   T
  0.4183211148018364  0.4883339126547859  0.3396582238448536   T   T   T
  0.6607370844854397  0.4261227467589173  0.6053188429625947   T   T   T
  0.6739323389125259  0.5784536121676059  0.5641056712540213   T   T   T
  0.5257765362511192  0.5098860663198749  0.3279367819939908   T   T   T
  0.5642267905788055  0.3567097827550979  0.4691360872538057   T   T   T
  0.3157198955188533  0.5397629653508542  0.4936138998145400   T   T   T
  0.6588420655194032  0.4287084595003326  0.4169539006888611   T   T   T
  0.5660841929594156  0.6261437171197244  0.5094829013827464   F   F   F
  0.5952293831505628  0.5273711136300550  0.6895886092925928   T   T   T
  0.4706769760883275  0.6436797058820151  0.5870985695791322   T   T   T
  0.4626430480155466  0.6037911557395126  0.4643350534909547   T   T   T
  0.7164499019247792  0.5728128733002474  0.3831596032018393   T   T   T
  0.5499310510395361  0.5822218838566187  0.4076968008106903   F   F   F
  0.4794126430662260  0.5072205383607624  0.4190535757241776   F   F   F
  0.6948604388964564  0.4791380496096501  0.3253374390392725   T   T   T
  0.7502247026084953  0.4275483151911404  0.4890419651655392   T   T   T
  0.7483359601377879  0.5376474788465035  0.4856240531954166   T   T   T
  0.7483000684171464  0.4891357400350370  0.5727059776380458   T   T   T
  0.6444392266888697  0.4326256443361504  0.7090500571431307   T   T   T
  0.5780133024447400  0.7440247798852522  0.4926714083294025   T   T   T
  0.6192554540844384  0.5183157687966542  0.3801816896793397   F   F   F
  0.5062830529957443  0.5652772272595386  0.6492559671778090   T   T   T
  0.4922009500451665  0.4366758245867572  0.4933013002826740   F   F   F
  0.5608844484509063  0.4404139570509003  0.6454865549417619   F   F   F
  0.5794284886366006  0.6173204497712051  0.6128611402349295   T   T   T
  0.5443846623169943  0.6170544570787423  0.3122931688094208   T   T   T
  0.6273653811797245  0.6246831813780969  0.3609250582842675   T   T   T
  0.3764110881566811  0.5575181858806526  0.4140329126889070   T   T   T
  0.4723078164089713  0.4557257050327763  0.5877273803360978   F   F   F
  0.7280846546752201  0.6343237994325034  0.4839078279898327   T   T   T
  0.4874608303469371  0.3780435226330146  0.6724082652750133   T   T   T
  0.3885037206917208  0.4354718351126975  0.6391854333243452   T   T   T
  0.5544592502646992  0.4379899399457940  0.4037542370104745   F   F   F
  0.4194229964579774  0.3495508469675406  0.6019176240740699   T   T   T
  0.5191306580499736  0.3535535039400994  0.5759487598864217   T   T   T
  0.3276225721454368  0.4056000525305570  0.6759183799757420   T   T   T
  0.3428308960439562  0.3334930892082200  0.6453738697918311   T   T   T
  0.3209528029613951  0.3618263119670614  0.6704252630825378   T   T   T
  0.2917431605863396  0.3485545794443878  0.6911119585607327   T   T   T
 
  0.00000000E+00  0.00000000E+00  0.00000000E+00
  0.00000000E+00  0.00000000E+00  0.00000000E+00
  0.00000000E+00  0.00000000E+00  0.00000000E+00
  0.00000000E+00  0.00000000E+00  0.00000000E+00
  0.00000000E+00  0.00000000E+00  0.00000000E+00
  0.00000000E+00  0.00000000E+00  0.00000000E+00
  0.00000000E+00  0.00000000E+00  0.00000000E+00
  0.00000000E+00  0.00000000E+00  0.00000000E+00
  0.00000000E+00  0.00000000E+00  0.00000000E+00
  0.00000000E+00  0.00000000E+00  0.00000000E+00
  0.00000000E+00  0.00000000E+00  0.00000000E+00
  0.00000000E+00  0.00000000E+00  0.00000000E+00
  0.00000000E+00  0.00000000E+00  0.00000000E+00
  0.00000000E+00  0.00000000E+00  0.00000000E+00
  0.00000000E+00  0.00000000E+00  0.00000000E+00
  0.00000000E+00  0.00000000E+00  0.00000000E+00
  0.00000000E+00  0.00000000E+00  0.00000000E+00
  0.00000000E+00  0.00000000E+00  0.00000000E+00
  0.00000000E+00  0.00000000E+00  0.00000000E+00
  0.00000000E+00  0.00000000E+00  0.00000000E+00
  0.00000000E+00  0.00000000E+00  0.00000000E+00
  0.00000000E+00  0.00000000E+00  0.00000000E+00
  0.00000000E+00  0.00000000E+00  0.00000000E+00
  0.00000000E+00  0.00000000E+00  0.00000000E+00
  0.00000000E+00  0.00000000E+00  0.00000000E+00
  0.00000000E+00  0.00000000E+00  0.00000000E+00
  0.00000000E+00  0.00000000E+00  0.00000000E+00
  0.00000000E+00  0.00000000E+00  0.00000000E+00
  0.00000000E+00  0.00000000E+00  0.00000000E+00
  0.00000000E+00  0.00000000E+00  0.00000000E+00
  0.00000000E+00  0.00000000E+00  0.00000000E+00
  0.00000000E+00  0.00000000E+00  0.00000000E+00
  0.00000000E+00  0.00000000E+00  0.00000000E+00
  0.00000000E+00  0.00000000E+00  0.00000000E+00
  0.00000000E+00  0.00000000E+00  0.00000000E+00
  0.00000000E+00  0.00000000E+00  0.00000000E+00
  0.00000000E+00  0.00000000E+00  0.00000000E+00
  0.00000000E+00  0.00000000E+00  0.00000000E+00
  0.00000000E+00  0.00000000E+00  0.00000000E+00
  0.00000000E+00  0.00000000E+00  0.00000000E+00
  0.00000000E+00  0.00000000E+00  0.00000000E+00
  0.00000000E+00  0.00000000E+00  0.00000000E+00
  0.00000000E+00  0.00000000E+00  0.00000000E+00
  0.00000000E+00  0.00000000E+00  0.00000000E+00
  0.00000000E+00  0.00000000E+00  0.00000000E+00
  0.00000000E+00  0.00000000E+00  0.00000000E+00
  0.00000000E+00  0.00000000E+00  0.00000000E+00
  0.00000000E+00  0.00000000E+00  0.00000000E+00
  0.00000000E+00  0.00000000E+00  0.00000000E+00
  0.00000000E+00  0.00000000E+00  0.00000000E+00
  0.00000000E+00  0.00000000E+00  0.00000000E+00
  0.00000000E+00  0.00000000E+00  0.00000000E+00
  0.00000000E+00  0.00000000E+00  0.00000000E+00
  0.00000000E+00  0.00000000E+00  0.00000000E+00
  0.00000000E+00  0.00000000E+00  0.00000000E+00
  0.00000000E+00  0.00000000E+00  0.00000000E+00
  0.00000000E+00  0.00000000E+00  0.00000000E+00
  0.00000000E+00  0.00000000E+00  0.00000000E+00
  0.00000000E+00  0.00000000E+00  0.00000000E+00
  0.00000000E+00  0.00000000E+00  0.00000000E+00
  0.00000000E+00  0.00000000E+00  0.00000000E+00
  0.00000000E+00  0.00000000E+00  0.00000000E+00
  0.00000000E+00  0.00000000E+00  0.00000000E+00
  0.00000000E+00  0.00000000E+00  0.00000000E+00
  0.00000000E+00  0.00000000E+00  0.00000000E+00
  0.00000000E+00  0.00000000E+00  0.00000000E+00
  0.00000000E+00  0.00000000E+00  0.00000000E+00
  0.00000000E+00  0.00000000E+00  0.00000000E+00
  0.00000000E+00  0.00000000E+00  0.00000000E+00
  0.00000000E+00  0.00000000E+00  0.00000000E+00
  0.00000000E+00  0.00000000E+00  0.00000000E+00
  0.00000000E+00  0.00000000E+00  0.00000000E+00
