Bi La Sn O  C  H                        
   1.00000000000000     
    29.0000000000000000    0.0000000000000000    0.0000000000000000
     0.2488180851000000   28.9989325590000000    0.0000000000000000
    -0.0631677343000000   -0.4515975666000000   28.9964147692999994
   Bi   La   Sn   O    C    H 
    22    23    23     2     1     1
Selective dynamics
Direct
  0.7597671843556423  0.4786662881921843  0.3978635621260214   T   T   T
  0.6482171954650808  0.6851876052202094  0.5487782823282722   T   T   T
  0.3603908823506010  0.4578932551387083  0.4274815955148310   T   T   T
  0.5509892560786166  0.7158920143534917  0.5836471437702623   T   T   T
  0.5915029568994470  0.5209714444905416  0.5841479689498996   F   F   F
  0.6394676634053267  0.6793692030572760  0.4442814517459888   T   T   T
  0.6940829139176438  0.5180669638076225  0.6531851372120405   T   T   T
  0.4875842576990617  0.7019301279408949  0.4990650632931485   T   T   T
  0.5004839460855024  0.5502791173970252  0.5477141156400123   F   F   F
  0.3281115708928472  0.4848853086302244  0.5782555849093024   T   T   T
  0.3820092399672640  0.6081377320571081  0.5372351580115727   T   T   T
  0.6667129484492236  0.4827404655721850  0.5105018184570156   F   F   F
  0.5763997220267569  0.4263140504383500  0.5448328182496311   F   F   F
  0.6682501696817054  0.3744628765760821  0.5065328502821528   T   T   T
  0.4612340731938072  0.3376709118809118  0.4944462821779250   T   T   T
  0.6484934028780529  0.5775373212088155  0.4602701624361103   F   F   F
  0.5541934557675048  0.4358298179893197  0.7498862289697842   T   T   T
  0.5911648754598879  0.3482417257552174  0.6666190586121340   T   T   T
  0.4927878092533231  0.3004024192959552  0.4045853475481702   T   T   T
  0.6618879258372079  0.6140456356536493  0.6694852237717696   T   T   T
  0.4913385130569550  0.4106654048441378  0.3039207365239552   T   T   T
  0.6212642271771027  0.3161206586538743  0.5727792978555549   T   T   T
  0.5385344870170028  0.6832289387332967  0.4033370686240873   T   T   T
  0.3896689884026278  0.4151197821682557  0.5253945674150706   T   T   T
  0.6272141022316231  0.5512597103892626  0.2822418389691069   T   T   T
  0.4732077873180116  0.4816017254391447  0.6922974666322305   T   T   T
  0.5683115009887700  0.5094300495444983  0.4784716241115703   F   F   F
  0.4203210565129183  0.5084107200613417  0.5018573595042781   F   F   F
  0.4528480630069239  0.4018868865874358  0.4043219262761710   T   T   T
  0.5641538776549728  0.3506519149928887  0.3516775871562771   T   T   T
  0.4134000898903217  0.5391504014012704  0.6121728352057724   T   T   T
  0.5989046267309917  0.4420076847694032  0.3038600829050895   T   T   T
  0.4543708735456000  0.5997133019059747  0.3639047317908278   T   T   T
  0.4184867742390593  0.4879554522834468  0.3393896304974425   T   T   T
  0.6608402470943178  0.4257776021544537  0.6044722184237397   T   T   T
  0.6740346220715815  0.5793925658895579  0.5643836021040772   T   T   T
  0.5256019772387137  0.5091160939865987  0.3282795130331938   T   T   T
  0.5652069666894339  0.3566099644677119  0.4689495460187995   T   T   T
  0.3155593004787488  0.5389389617332186  0.4933185398824533   T   T   T
  0.6603725983523977  0.4295448098492833  0.4150034493664311   T   T   T
  0.5660841929594156  0.6261437171197244  0.5094829013827464   F   F   F
  0.5949140137160690  0.5274767125791133  0.6901907866354116   T   T   T
  0.4698829022900773  0.6432910636540821  0.5864271086470029   T   T   T
  0.4624559025312548  0.6035949357892811  0.4638178001015910   T   T   T
  0.7157878291814306  0.5742311975988454  0.3826543093809095   T   T   T
  0.5499310510395361  0.5822218838566187  0.4076968008106903   F   F   F
  0.4794126430662260  0.5072205383607624  0.4190535757241776   F   F   F
  0.6948726199659199  0.4809944022896691  0.3236601631371300   T   T   T
  0.7517666940851589  0.4295972229702605  0.4861307036518107   T   T   T
  0.7481127994519368  0.5381367527294284  0.4839416787776621   T   T   T
  0.7486667653394985  0.4901833091457046  0.5712129252839518   T   T   T
  0.6435483266452686  0.4305661296326078  0.7084979981580550   T   T   T
  0.5776443361582149  0.7439088405007249  0.4921808697186258   T   T   T
  0.6192554540844384  0.5183157687966542  0.3801816896793397   F   F   F
  0.5076971721090714  0.5669185358646938  0.6496650477460674   T   T   T
  0.4922009500451665  0.4366758245867572  0.4933013002826740   F   F   F
  0.5608844484509063  0.4404139570509003  0.6454865549417619   F   F   F
  0.5806745012868444  0.6179962156379578  0.6124342626163848   T   T   T
  0.5430945685643768  0.6168971015740539  0.3117745905120916   T   T   T
  0.6266354311244240  0.6250273395019826  0.3587353003862145   T   T   T
  0.3760029645490320  0.5568749695094053  0.4137113126767460   T   T   T
  0.4723078164089713  0.4557257050327763  0.5877273803360978   F   F   F
  0.7270337214832212  0.6357294403851738  0.4834081179379504   T   T   T
  0.4920376615069469  0.3782055934327019  0.6775514334409197   T   T   T
  0.3878501097144378  0.4365061613225630  0.6404497251142617   T   T   T
  0.5544592502646992  0.4379899399457940  0.4037542370104745   F   F   F
  0.4315683008435064  0.3557386451014489  0.6011751993260226   T   T   T
  0.5261274294127475  0.3487563548771687  0.5747962503243622   T   T   T
  0.6114583728064219  0.7644776487428409  0.6394442528253956   T   T   T
  0.6056982751573694  0.6908700159348012  0.6646577469612619   T   T   T
  0.6233342649549584  0.7316516155525360  0.6646457083097689   T   T   T
  0.6519920214355562  0.7374476628076884  0.6898707140722508   T   T   T
 
  0.00000000E+00  0.00000000E+00  0.00000000E+00
  0.00000000E+00  0.00000000E+00  0.00000000E+00
  0.00000000E+00  0.00000000E+00  0.00000000E+00
  0.00000000E+00  0.00000000E+00  0.00000000E+00
  0.00000000E+00  0.00000000E+00  0.00000000E+00
  0.00000000E+00  0.00000000E+00  0.00000000E+00
  0.00000000E+00  0.00000000E+00  0.00000000E+00
  0.00000000E+00  0.00000000E+00  0.00000000E+00
  0.00000000E+00  0.00000000E+00  0.00000000E+00
  0.00000000E+00  0.00000000E+00  0.00000000E+00
  0.00000000E+00  0.00000000E+00  0.00000000E+00
  0.00000000E+00  0.00000000E+00  0.00000000E+00
  0.00000000E+00  0.00000000E+00  0.00000000E+00
  0.00000000E+00  0.00000000E+00  0.00000000E+00
  0.00000000E+00  0.00000000E+00  0.00000000E+00
  0.00000000E+00  0.00000000E+00  0.00000000E+00
  0.00000000E+00  0.00000000E+00  0.00000000E+00
  0.00000000E+00  0.00000000E+00  0.00000000E+00
  0.00000000E+00  0.00000000E+00  0.00000000E+00
  0.00000000E+00  0.00000000E+00  0.00000000E+00
  0.00000000E+00  0.00000000E+00  0.00000000E+00
  0.00000000E+00  0.00000000E+00  0.00000000E+00
  0.00000000E+00  0.00000000E+00  0.00000000E+00
  0.00000000E+00  0.00000000E+00  0.00000000E+00
  0.00000000E+00  0.00000000E+00  0.00000000E+00
  0.00000000E+00  0.00000000E+00  0.00000000E+00
  0.00000000E+00  0.00000000E+00  0.00000000E+00
  0.00000000E+00  0.00000000E+00  0.00000000E+00
  0.00000000E+00  0.00000000E+00  0.00000000E+00
  0.00000000E+00  0.00000000E+00  0.00000000E+00
  0.00000000E+00  0.00000000E+00  0.00000000E+00
  0.00000000E+00  0.00000000E+00  0.00000000E+00
  0.00000000E+00  0.00000000E+00  0.00000000E+00
  0.00000000E+00  0.00000000E+00  0.00000000E+00
  0.00000000E+00  0.00000000E+00  0.00000000E+00
  0.00000000E+00  0.00000000E+00  0.00000000E+00
  0.00000000E+00  0.00000000E+00  0.00000000E+00
  0.00000000E+00  0.00000000E+00  0.00000000E+00
  0.00000000E+00  0.00000000E+00  0.00000000E+00
  0.00000000E+00  0.00000000E+00  0.00000000E+00
  0.00000000E+00  0.00000000E+00  0.00000000E+00
  0.00000000E+00  0.00000000E+00  0.00000000E+00
  0.00000000E+00  0.00000000E+00  0.00000000E+00
  0.00000000E+00  0.00000000E+00  0.00000000E+00
  0.00000000E+00  0.00000000E+00  0.00000000E+00
  0.00000000E+00  0.00000000E+00  0.00000000E+00
  0.00000000E+00  0.00000000E+00  0.00000000E+00
  0.00000000E+00  0.00000000E+00  0.00000000E+00
  0.00000000E+00  0.00000000E+00  0.00000000E+00
  0.00000000E+00  0.00000000E+00  0.00000000E+00
  0.00000000E+00  0.00000000E+00  0.00000000E+00
  0.00000000E+00  0.00000000E+00  0.00000000E+00
  0.00000000E+00  0.00000000E+00  0.00000000E+00
  0.00000000E+00  0.00000000E+00  0.00000000E+00
  0.00000000E+00  0.00000000E+00  0.00000000E+00
  0.00000000E+00  0.00000000E+00  0.00000000E+00
  0.00000000E+00  0.00000000E+00  0.00000000E+00
  0.00000000E+00  0.00000000E+00  0.00000000E+00
  0.00000000E+00  0.00000000E+00  0.00000000E+00
  0.00000000E+00  0.00000000E+00  0.00000000E+00
  0.00000000E+00  0.00000000E+00  0.00000000E+00
  0.00000000E+00  0.00000000E+00  0.00000000E+00
  0.00000000E+00  0.00000000E+00  0.00000000E+00
  0.00000000E+00  0.00000000E+00  0.00000000E+00
  0.00000000E+00  0.00000000E+00  0.00000000E+00
  0.00000000E+00  0.00000000E+00  0.00000000E+00
  0.00000000E+00  0.00000000E+00  0.00000000E+00
  0.00000000E+00  0.00000000E+00  0.00000000E+00
  0.00000000E+00  0.00000000E+00  0.00000000E+00
  0.00000000E+00  0.00000000E+00  0.00000000E+00
  0.00000000E+00  0.00000000E+00  0.00000000E+00
  0.00000000E+00  0.00000000E+00  0.00000000E+00
