Bi La Sn O  C  H                        
   1.00000000000000     
    29.0000000000000000    0.0000000000000000    0.0000000000000000
     0.2488180851000000   28.9989325590000000    0.0000000000000000
    -0.0631677343000000   -0.4515975666000000   28.9964147692999994
   Bi   La   Sn   O    C    H 
    22    23    23     2     1     1
Selective dynamics
Direct
  0.7603734366887143  0.4760904017838594  0.3995702514313913   T   T   T
  0.6462841213029906  0.6841839163015033  0.5525351160713264   T   T   T
  0.3600941850146202  0.4593182107233619  0.4276642722796200   T   T   T
  0.5504370066860141  0.7130252135669205  0.5855659533725159   T   T   T
  0.5915029568994470  0.5209714444905416  0.5841479689498996   F   F   F
  0.6387250785915012  0.6819478963978904  0.4469451930288818   T   T   T
  0.6964264197721043  0.5225296386779608  0.6537013737478522   T   T   T
  0.4870932152190778  0.7012143818495131  0.5014256404691269   T   T   T
  0.5004839460855024  0.5502791173970252  0.5477141156400123   F   F   F
  0.3252456555844842  0.4865386265883768  0.5749154742497550   T   T   T
  0.3822566572116141  0.6102208903899560  0.5356435210319026   T   T   T
  0.6667129484492236  0.4827404655721850  0.5105018184570156   F   F   F
  0.5763997220267569  0.4263140504383500  0.5448328182496311   F   F   F
  0.6681227306476544  0.3738376384877495  0.5068994100761328   T   T   T
  0.4629294319647451  0.3386845658258815  0.4996102573145600   T   T   T
  0.6484934028780529  0.5775373212088155  0.4602701624361103   F   F   F
  0.5591114189226597  0.4366545539035639  0.7493643481486477   T   T   T
  0.6038330437584311  0.3515864597322183  0.6691899539192800   T   T   T
  0.4918833669982146  0.2990472677806509  0.4095994514750525   T   T   T
  0.6604205357947123  0.6185209221944934  0.6659867484284994   T   T   T
  0.4924720548880430  0.4105119585529636  0.3071146125870986   T   T   T
  0.6215932516097834  0.3159209807283921  0.5732866635266285   T   T   T
  0.5383495998989243  0.6864943537383198  0.4042454005359969   T   T   T
  0.3902652283998224  0.4158206228894180  0.5270923605787662   T   T   T
  0.6305780768439878  0.5523456439863530  0.2834538365799598   T   T   T
  0.4716739705932781  0.4709493258629290  0.6920995621971076   T   T   T
  0.5683115009887700  0.5094300495444983  0.4784716241115703   F   F   F
  0.4203210565129183  0.5084107200613417  0.5018573595042781   F   F   F
  0.4521499405142377  0.4008985954962667  0.4068051201374038   T   T   T
  0.5632485715445629  0.3482649951847849  0.3541597841955054   T   T   T
  0.4111270021819819  0.5400962762553591  0.6101473755269251   T   T   T
  0.5992502289713578  0.4421829511021420  0.3047779758950946   T   T   T
  0.4555486891512979  0.6005966529967420  0.3626764487558013   T   T   T
  0.4187210104100183  0.4878049700537057  0.3393562205532225   T   T   T
  0.6614723900367824  0.4279448170253140  0.6043593619189443   T   T   T
  0.6735980254431885  0.5785817024781899  0.5638093928830853   T   T   T
  0.5266499854711060  0.5097998567761904  0.3277430265974198   T   T   T
  0.5654136786309967  0.3573366055555836  0.4689179226420245   T   T   T
  0.3158635865948376  0.5420173672486894  0.4912490858521800   T   T   T
  0.6602022117112750  0.4291998213159580  0.4158757053970073   T   T   T
  0.5660841929594156  0.6261437171197244  0.5094829013827464   F   F   F
  0.5964362839317278  0.5286381784086709  0.6897225729022290   T   T   T
  0.4698103170228775  0.6411664424677003  0.5890660677205728   T   T   T
  0.4630837756061862  0.6039187381783446  0.4641030368266593   T   T   T
  0.7173020703704702  0.5719820563664209  0.3838415008574932   T   T   T
  0.5499310510395361  0.5822218838566187  0.4076968008106903   F   F   F
  0.4794126430662260  0.5072205383607624  0.4190535757241776   F   F   F
  0.6956365299221530  0.4793184244335528  0.3250684190798903   T   T   T
  0.7512374845013525  0.4283407605314073  0.4886654217342229   T   T   T
  0.7484901210925501  0.5379712559011960  0.4854419318845523   T   T   T
  0.7494904848219036  0.4898317639924190  0.5721098914008149   T   T   T
  0.6487733380560845  0.4368985259244217  0.7085013488450099   T   T   T
  0.5757014826108715  0.7469024017361930  0.4943726926411484   T   T   T
  0.6192554540844384  0.5183157687966542  0.3801816896793397   F   F   F
  0.5054963360390865  0.5594547593614536  0.6503044665025588   T   T   T
  0.4922009500451665  0.4366758245867572  0.4933013002826740   F   F   F
  0.5608844484509063  0.4404139570509003  0.6454865549417619   F   F   F
  0.5772757272592863  0.6163667850470486  0.6134859488321098   T   T   T
  0.5468538681638774  0.6176385588945895  0.3137386343207778   T   T   T
  0.6297581352093817  0.6255229795763819  0.3621304638548665   T   T   T
  0.3774938818729819  0.5575888358178489  0.4125280445383711   T   T   T
  0.4723078164089713  0.4557257050327763  0.5877273803360978   F   F   F
  0.7262565065393108  0.6357282521190709  0.4837788967188238   T   T   T
  0.5035565690819607  0.3685350353798235  0.6843760199200760   T   T   T
  0.3810879060023539  0.4411781285342234  0.6403627867121982   T   T   T
  0.5544592502646992  0.4379899399457940  0.4037542370104745   F   F   F
  0.4341850338512719  0.3638600120663460  0.6103343236111408   T   T   T
  0.5279970745811761  0.3491807301866298  0.5795965637243333   T   T   T
  0.5049194760539951  0.7592871632530224  0.3946509108433085   T   T   T
  0.5168128394938100  0.8084638560716259  0.4554931586404936   T   T   T
  0.4979739120707865  0.7971638706133192  0.4183323613950848   T   T   T
  0.4720652370972591  0.8210593770998473  0.4029939061996995   T   T   T
 
  0.00000000E+00  0.00000000E+00  0.00000000E+00
  0.00000000E+00  0.00000000E+00  0.00000000E+00
  0.00000000E+00  0.00000000E+00  0.00000000E+00
  0.00000000E+00  0.00000000E+00  0.00000000E+00
  0.00000000E+00  0.00000000E+00  0.00000000E+00
  0.00000000E+00  0.00000000E+00  0.00000000E+00
  0.00000000E+00  0.00000000E+00  0.00000000E+00
  0.00000000E+00  0.00000000E+00  0.00000000E+00
  0.00000000E+00  0.00000000E+00  0.00000000E+00
  0.00000000E+00  0.00000000E+00  0.00000000E+00
  0.00000000E+00  0.00000000E+00  0.00000000E+00
  0.00000000E+00  0.00000000E+00  0.00000000E+00
  0.00000000E+00  0.00000000E+00  0.00000000E+00
  0.00000000E+00  0.00000000E+00  0.00000000E+00
  0.00000000E+00  0.00000000E+00  0.00000000E+00
  0.00000000E+00  0.00000000E+00  0.00000000E+00
  0.00000000E+00  0.00000000E+00  0.00000000E+00
  0.00000000E+00  0.00000000E+00  0.00000000E+00
  0.00000000E+00  0.00000000E+00  0.00000000E+00
  0.00000000E+00  0.00000000E+00  0.00000000E+00
  0.00000000E+00  0.00000000E+00  0.00000000E+00
  0.00000000E+00  0.00000000E+00  0.00000000E+00
  0.00000000E+00  0.00000000E+00  0.00000000E+00
  0.00000000E+00  0.00000000E+00  0.00000000E+00
  0.00000000E+00  0.00000000E+00  0.00000000E+00
  0.00000000E+00  0.00000000E+00  0.00000000E+00
  0.00000000E+00  0.00000000E+00  0.00000000E+00
  0.00000000E+00  0.00000000E+00  0.00000000E+00
  0.00000000E+00  0.00000000E+00  0.00000000E+00
  0.00000000E+00  0.00000000E+00  0.00000000E+00
  0.00000000E+00  0.00000000E+00  0.00000000E+00
  0.00000000E+00  0.00000000E+00  0.00000000E+00
  0.00000000E+00  0.00000000E+00  0.00000000E+00
  0.00000000E+00  0.00000000E+00  0.00000000E+00
  0.00000000E+00  0.00000000E+00  0.00000000E+00
  0.00000000E+00  0.00000000E+00  0.00000000E+00
  0.00000000E+00  0.00000000E+00  0.00000000E+00
  0.00000000E+00  0.00000000E+00  0.00000000E+00
  0.00000000E+00  0.00000000E+00  0.00000000E+00
  0.00000000E+00  0.00000000E+00  0.00000000E+00
  0.00000000E+00  0.00000000E+00  0.00000000E+00
  0.00000000E+00  0.00000000E+00  0.00000000E+00
  0.00000000E+00  0.00000000E+00  0.00000000E+00
  0.00000000E+00  0.00000000E+00  0.00000000E+00
  0.00000000E+00  0.00000000E+00  0.00000000E+00
  0.00000000E+00  0.00000000E+00  0.00000000E+00
  0.00000000E+00  0.00000000E+00  0.00000000E+00
  0.00000000E+00  0.00000000E+00  0.00000000E+00
  0.00000000E+00  0.00000000E+00  0.00000000E+00
  0.00000000E+00  0.00000000E+00  0.00000000E+00
  0.00000000E+00  0.00000000E+00  0.00000000E+00
  0.00000000E+00  0.00000000E+00  0.00000000E+00
  0.00000000E+00  0.00000000E+00  0.00000000E+00
  0.00000000E+00  0.00000000E+00  0.00000000E+00
  0.00000000E+00  0.00000000E+00  0.00000000E+00
  0.00000000E+00  0.00000000E+00  0.00000000E+00
  0.00000000E+00  0.00000000E+00  0.00000000E+00
  0.00000000E+00  0.00000000E+00  0.00000000E+00
  0.00000000E+00  0.00000000E+00  0.00000000E+00
  0.00000000E+00  0.00000000E+00  0.00000000E+00
  0.00000000E+00  0.00000000E+00  0.00000000E+00
  0.00000000E+00  0.00000000E+00  0.00000000E+00
  0.00000000E+00  0.00000000E+00  0.00000000E+00
  0.00000000E+00  0.00000000E+00  0.00000000E+00
  0.00000000E+00  0.00000000E+00  0.00000000E+00
  0.00000000E+00  0.00000000E+00  0.00000000E+00
  0.00000000E+00  0.00000000E+00  0.00000000E+00
  0.00000000E+00  0.00000000E+00  0.00000000E+00
  0.00000000E+00  0.00000000E+00  0.00000000E+00
  0.00000000E+00  0.00000000E+00  0.00000000E+00
  0.00000000E+00  0.00000000E+00  0.00000000E+00
  0.00000000E+00  0.00000000E+00  0.00000000E+00
