Bi La Sn O  C  H                        
   1.00000000000000     
    29.0000000000000000    0.0000000000000000    0.0000000000000000
     0.2488180851000000   28.9989325590000000    0.0000000000000000
    -0.0631677343000000   -0.4515975666000000   28.9964147692999994
   Bi   La   Sn   O    C    H 
    22    23    23     2     1     1
Selective dynamics
Direct
  0.7595565668692923  0.4787655957201535  0.3999192005649818   T   T   T
  0.6472291033265322  0.6843901684980914  0.5505738148193642   T   T   T
  0.3610967891724957  0.4581076059950090  0.4279534773567133   T   T   T
  0.5502195026230230  0.7136946219268369  0.5837285168654586   T   T   T
  0.5915029568994470  0.5209714444905416  0.5841479689498996   F   F   F
  0.6396403850591271  0.6786092408906387  0.4438607170284102   T   T   T
  0.6957295220445197  0.5223761010998298  0.6537663027408570   T   T   T
  0.4872539229103277  0.7021212689280895  0.4989257088365274   T   T   T
  0.5004839460855024  0.5502791173970252  0.5477141156400123   F   F   F
  0.3253770687699994  0.4862462061102242  0.5751124307981417   T   T   T
  0.3817419636143478  0.6099899692400060  0.5350969576688636   T   T   T
  0.6667129484492236  0.4827404655721850  0.5105018184570156   F   F   F
  0.5763997220267569  0.4263140504383500  0.5448328182496311   F   F   F
  0.6682323938702365  0.3742020468123002  0.5071319724109700   T   T   T
  0.4627779705079019  0.3384979373046172  0.4997800586865878   T   T   T
  0.6484934028780529  0.5775373212088155  0.4602701624361103   F   F   F
  0.5575626440744832  0.4372728481438743  0.7499619278460092   T   T   T
  0.6026929528435382  0.3511237734139717  0.6690453408127217   T   T   T
  0.4923460493457454  0.2981257646611391  0.4103602080220619   T   T   T
  0.6599750468792763  0.6183775407267290  0.6662341042153092   T   T   T
  0.4919974313352206  0.4091829432638578  0.3062947744745237   T   T   T
  0.6220515643290625  0.3157520391152683  0.5734461961669010   T   T   T
  0.5396018497211851  0.6856766398138034  0.4015501130064016   T   T   T
  0.3904464945857122  0.4154463875170398  0.5273302763511168   T   T   T
  0.6285379592853763  0.5509285385029730  0.2823270109413718   T   T   T
  0.4717828636854530  0.4725762069584345  0.6918595814038153   T   T   T
  0.5683115009887700  0.5094300495444983  0.4784716241115703   F   F   F
  0.4203210565129183  0.5084107200613417  0.5018573595042781   F   F   F
  0.4528629747551209  0.4001093910532940  0.4065776078465433   T   T   T
  0.5631215714012014  0.3483580052170466  0.3548034998239332   T   T   T
  0.4112659647930635  0.5402101470102175  0.6098400740679943   T   T   T
  0.6002143463048560  0.4393955414206220  0.3057017379616036   T   T   T
  0.4549744472371354  0.5995685821864277  0.3627646871675183   T   T   T
  0.4187949294987851  0.4868965515643032  0.3390273580139918   T   T   T
  0.6613675212251664  0.4278273011280885  0.6044646266557890   T   T   T
  0.6734391148747859  0.5787617888457880  0.5638547798258723   T   T   T
  0.5265062657985823  0.5081804416268874  0.3279763198594415   T   T   T
  0.5654807446600018  0.3572928019561600  0.4692421216304984   T   T   T
  0.3158084826772952  0.5408901142902585  0.4910421161275960   T   T   T
  0.6602425187088349  0.4293944584028244  0.4155143121682138   T   T   T
  0.5660841929594156  0.6261437171197244  0.5094829013827464   F   F   F
  0.5958125180098547  0.5286670658657660  0.6896467507560879   T   T   T
  0.4698185042627887  0.6419771756515450  0.5875902731692831   T   T   T
  0.4633568356180971  0.6038334746531775  0.4645017807820919   T   T   T
  0.7162979584473721  0.5742355243997049  0.3832050123973917   T   T   T
  0.5499310510395361  0.5822218838566187  0.4076968008106903   F   F   F
  0.4794126430662260  0.5072205383607624  0.4190535757241776   F   F   F
  0.6954036843310182  0.4806302563960745  0.3249531543693120   T   T   T
  0.7514695003122229  0.4288153600152373  0.4881131768609822   T   T   T
  0.7482510263748041  0.5384831344341200  0.4856512780743004   T   T   T
  0.7488549573805260  0.4898306273558866  0.5722772100041384   T   T   T
  0.6473618215913305  0.4363578390150659  0.7087142695446748   T   T   T
  0.5785517278739355  0.7432170906740241  0.4927826895137740   T   T   T
  0.6192554540844384  0.5183157687966542  0.3801816896793397   F   F   F
  0.5051824479030292  0.5610751452660742  0.6502148570754575   T   T   T
  0.4922009500451665  0.4366758245867572  0.4933013002826740   F   F   F
  0.5608844484509063  0.4404139570509003  0.6454865549417619   F   F   F
  0.5773201734139758  0.6165979172139550  0.6131774973656580   T   T   T
  0.5443719210772856  0.6146805555407414  0.3124305333653055   T   T   T
  0.6283087583842480  0.6271576380638013  0.3573685854303291   T   T   T
  0.3773964829341667  0.5564757485321047  0.4123680554613233   T   T   T
  0.4723078164089713  0.4557257050327763  0.5877273803360978   F   F   F
  0.7268800811781101  0.6355735972212387  0.4842821389822358   T   T   T
  0.5029902551524401  0.3695111399328040  0.6845473377831933   T   T   T
  0.3814626672593920  0.4411128030713844  0.6405891937015168   T   T   T
  0.5544592502646992  0.4379899399457940  0.4037542370104745   F   F   F
  0.4344588929857769  0.3635283799902559  0.6102872801383286   T   T   T
  0.5282590002198086  0.3489697793255747  0.5792703254094731   T   T   T
  0.5748285265778976  0.7342977063271391  0.3479338440845102   T   T   T
  0.6404717297222150  0.7043009113079014  0.3156938563578213   T   T   T
  0.6098515041117655  0.7348765688998607  0.3205292695319279   T   T   T
  0.6125261381231148  0.7662864782441718  0.2991317163038676   T   T   T
 
  0.00000000E+00  0.00000000E+00  0.00000000E+00
  0.00000000E+00  0.00000000E+00  0.00000000E+00
  0.00000000E+00  0.00000000E+00  0.00000000E+00
  0.00000000E+00  0.00000000E+00  0.00000000E+00
  0.00000000E+00  0.00000000E+00  0.00000000E+00
  0.00000000E+00  0.00000000E+00  0.00000000E+00
  0.00000000E+00  0.00000000E+00  0.00000000E+00
  0.00000000E+00  0.00000000E+00  0.00000000E+00
  0.00000000E+00  0.00000000E+00  0.00000000E+00
  0.00000000E+00  0.00000000E+00  0.00000000E+00
  0.00000000E+00  0.00000000E+00  0.00000000E+00
  0.00000000E+00  0.00000000E+00  0.00000000E+00
  0.00000000E+00  0.00000000E+00  0.00000000E+00
  0.00000000E+00  0.00000000E+00  0.00000000E+00
  0.00000000E+00  0.00000000E+00  0.00000000E+00
  0.00000000E+00  0.00000000E+00  0.00000000E+00
  0.00000000E+00  0.00000000E+00  0.00000000E+00
  0.00000000E+00  0.00000000E+00  0.00000000E+00
  0.00000000E+00  0.00000000E+00  0.00000000E+00
  0.00000000E+00  0.00000000E+00  0.00000000E+00
  0.00000000E+00  0.00000000E+00  0.00000000E+00
  0.00000000E+00  0.00000000E+00  0.00000000E+00
  0.00000000E+00  0.00000000E+00  0.00000000E+00
  0.00000000E+00  0.00000000E+00  0.00000000E+00
  0.00000000E+00  0.00000000E+00  0.00000000E+00
  0.00000000E+00  0.00000000E+00  0.00000000E+00
  0.00000000E+00  0.00000000E+00  0.00000000E+00
  0.00000000E+00  0.00000000E+00  0.00000000E+00
  0.00000000E+00  0.00000000E+00  0.00000000E+00
  0.00000000E+00  0.00000000E+00  0.00000000E+00
  0.00000000E+00  0.00000000E+00  0.00000000E+00
  0.00000000E+00  0.00000000E+00  0.00000000E+00
  0.00000000E+00  0.00000000E+00  0.00000000E+00
  0.00000000E+00  0.00000000E+00  0.00000000E+00
  0.00000000E+00  0.00000000E+00  0.00000000E+00
  0.00000000E+00  0.00000000E+00  0.00000000E+00
  0.00000000E+00  0.00000000E+00  0.00000000E+00
  0.00000000E+00  0.00000000E+00  0.00000000E+00
  0.00000000E+00  0.00000000E+00  0.00000000E+00
  0.00000000E+00  0.00000000E+00  0.00000000E+00
  0.00000000E+00  0.00000000E+00  0.00000000E+00
  0.00000000E+00  0.00000000E+00  0.00000000E+00
  0.00000000E+00  0.00000000E+00  0.00000000E+00
  0.00000000E+00  0.00000000E+00  0.00000000E+00
  0.00000000E+00  0.00000000E+00  0.00000000E+00
  0.00000000E+00  0.00000000E+00  0.00000000E+00
  0.00000000E+00  0.00000000E+00  0.00000000E+00
  0.00000000E+00  0.00000000E+00  0.00000000E+00
  0.00000000E+00  0.00000000E+00  0.00000000E+00
  0.00000000E+00  0.00000000E+00  0.00000000E+00
  0.00000000E+00  0.00000000E+00  0.00000000E+00
  0.00000000E+00  0.00000000E+00  0.00000000E+00
  0.00000000E+00  0.00000000E+00  0.00000000E+00
  0.00000000E+00  0.00000000E+00  0.00000000E+00
  0.00000000E+00  0.00000000E+00  0.00000000E+00
  0.00000000E+00  0.00000000E+00  0.00000000E+00
  0.00000000E+00  0.00000000E+00  0.00000000E+00
  0.00000000E+00  0.00000000E+00  0.00000000E+00
  0.00000000E+00  0.00000000E+00  0.00000000E+00
  0.00000000E+00  0.00000000E+00  0.00000000E+00
  0.00000000E+00  0.00000000E+00  0.00000000E+00
  0.00000000E+00  0.00000000E+00  0.00000000E+00
  0.00000000E+00  0.00000000E+00  0.00000000E+00
  0.00000000E+00  0.00000000E+00  0.00000000E+00
  0.00000000E+00  0.00000000E+00  0.00000000E+00
  0.00000000E+00  0.00000000E+00  0.00000000E+00
  0.00000000E+00  0.00000000E+00  0.00000000E+00
  0.00000000E+00  0.00000000E+00  0.00000000E+00
  0.00000000E+00  0.00000000E+00  0.00000000E+00
  0.00000000E+00  0.00000000E+00  0.00000000E+00
  0.00000000E+00  0.00000000E+00  0.00000000E+00
  0.00000000E+00  0.00000000E+00  0.00000000E+00
