Bi La Sn O  C  H                        
   1.00000000000000     
    29.0000000000000000    0.0000000000000000    0.0000000000000000
     0.2488180851000000   28.9989325590000000    0.0000000000000000
    -0.0631677343000000   -0.4515975666000000   28.9964147692999994
   Bi   La   Sn   O    C    H 
    22    23    23     2     1     1
Selective dynamics
Direct
  0.7593668434362699  0.4787808185709660  0.3988872291106480   T   T   T
  0.6472859340305356  0.6856147099043298  0.5500742960536597   T   T   T
  0.3610660159091766  0.4579821566101572  0.4273703384425016   T   T   T
  0.5505192594435924  0.7136193869077407  0.5834032834423467   T   T   T
  0.5915029568994470  0.5209714444905416  0.5841479689498996   F   F   F
  0.6393489895456178  0.6797429829853480  0.4445976592237373   T   T   T
  0.6949624673157599  0.5211999409414914  0.6522525845007334   T   T   T
  0.4867867078280243  0.7018900284393531  0.4987560583877024   T   T   T
  0.5004839460855024  0.5502791173970252  0.5477141156400123   F   F   F
  0.3266436203592952  0.4852152350550213  0.5773441593335481   T   T   T
  0.3822410783521535  0.6088767575360878  0.5366059043120701   T   T   T
  0.6667129484492236  0.4827404655721850  0.5105018184570156   F   F   F
  0.5763997220267569  0.4263140504383500  0.5448328182496311   F   F   F
  0.6671638510810812  0.3752752335159525  0.5055765546972395   T   T   T
  0.4616468851938661  0.3379140648676799  0.4962419252020703   T   T   T
  0.6484934028780529  0.5775373212088155  0.4602701624361103   F   F   F
  0.5546935636869269  0.4363669768111232  0.7505278785808855   T   T   T
  0.5957231279327160  0.3477294946048782  0.6663676016580208   T   T   T
  0.4927749539669002  0.2988974529598942  0.4067443912622762   T   T   T
  0.6600745101266675  0.6168997030128083  0.6675677525998049   T   T   T
  0.4917172816953070  0.4104266867191470  0.3045007053096719   T   T   T
  0.6244310618645593  0.3151760710243570  0.5721170618808179   T   T   T
  0.5386731733525203  0.6836471249782609  0.4039206709015710   T   T   T
  0.3899635216953734  0.4154356206288340  0.5258545069474611   T   T   T
  0.6267109181717767  0.5516304111248413  0.2816912961197449   T   T   T
  0.4723869008804582  0.4779253395704595  0.6921176677466857   T   T   T
  0.5683115009887700  0.5094300495444983  0.4784716241115703   F   F   F
  0.4203210565129183  0.5084107200613417  0.5018573595042781   F   F   F
  0.4531722965033868  0.4011225340702916  0.4049793073285746   T   T   T
  0.5632100669841977  0.3498546217343561  0.3524525506069564   T   T   T
  0.4123609924078134  0.5393763594655747  0.6115446674009631   T   T   T
  0.6002056739885112  0.4405425232118835  0.3053874463117019   T   T   T
  0.4545662239279256  0.5997576293292971  0.3635371452308665   T   T   T
  0.4187894396837457  0.4877580761770572  0.3389762252623329   T   T   T
  0.6638346414942683  0.4237864661010199  0.6047858058273763   T   T   T
  0.6733012766794273  0.5796680522895635  0.5638293747953769   T   T   T
  0.5256390079046341  0.5091871064128587  0.3281326306227303   T   T   T
  0.5649195935795780  0.3568565877508835  0.4685933052495981   T   T   T
  0.3161698200827412  0.5396134776518156  0.4925878219238310   T   T   T
  0.6604360828274922  0.4297903969794453  0.4141851758636748   T   T   T
  0.5660841929594156  0.6261437171197244  0.5094829013827464   F   F   F
  0.5958260257703378  0.5270382403995746  0.6900207197222133   T   T   T
  0.4701356061717780  0.6425031032193627  0.5875140951279471   T   T   T
  0.4629888405812541  0.6036136955263284  0.4643056657743426   T   T   T
  0.7163657360101339  0.5744499069092567  0.3835097615274451   T   T   T
  0.5499310510395361  0.5822218838566187  0.4076968008106903   F   F   F
  0.4794126430662260  0.5072205383607624  0.4190535757241776   F   F   F
  0.6953527064711625  0.4826640432072507  0.3235682740513922   T   T   T
  0.7513732967968380  0.4288526377778026  0.4870811532098587   T   T   T
  0.7481736017791621  0.5392111309351162  0.4850808536438029   T   T   T
  0.7496422211428979  0.4900728653943845  0.5706288080063689   T   T   T
  0.6434491968605462  0.4309387400961861  0.7087730169406244   T   T   T
  0.5772228387935995  0.7440034886969177  0.4922663517375265   T   T   T
  0.6192554540844384  0.5183157687966542  0.3801816896793397   F   F   F
  0.5068375052047182  0.5637918086953484  0.6503256919488266   T   T   T
  0.4922009500451665  0.4366758245867572  0.4933013002826740   F   F   F
  0.5608844484509063  0.4404139570509003  0.6454865549417619   F   F   F
  0.5785070243814214  0.6173003671089775  0.6132067500375568   T   T   T
  0.5433444067151534  0.6169141041665629  0.3119231054264732   T   T   T
  0.6268762854770710  0.6248458920950527  0.3593770043708132   T   T   T
  0.3764187536385729  0.5566915010428076  0.4129627749484920   T   T   T
  0.4723078164089713  0.4557257050327763  0.5877273803360978   F   F   F
  0.7269970527488262  0.6361057320382381  0.4838058332114762   T   T   T
  0.4973628546877266  0.3747040298904210  0.6799119475028347   T   T   T
  0.3854085760596759  0.4374538871184511  0.6397428736807673   T   T   T
  0.5544592502646992  0.4379899399457940  0.4037542370104745   F   F   F
  0.4357719275293759  0.3589841637379398  0.6025505633789121   T   T   T
  0.5293472348750783  0.3463631738331041  0.5750418773037372   T   T   T
  0.7238508860472603  0.3047050568466246  0.5745971941000297   T   T   T
  0.7222919248857228  0.3710858880670753  0.6175991966065910   T   T   T
  0.7422479051472703  0.3346322722985133  0.5996567751057865   T   T   T
  0.7795471652350987  0.3312939666845370  0.6085334593594943   T   T   T
 
  0.00000000E+00  0.00000000E+00  0.00000000E+00
  0.00000000E+00  0.00000000E+00  0.00000000E+00
  0.00000000E+00  0.00000000E+00  0.00000000E+00
  0.00000000E+00  0.00000000E+00  0.00000000E+00
  0.00000000E+00  0.00000000E+00  0.00000000E+00
  0.00000000E+00  0.00000000E+00  0.00000000E+00
  0.00000000E+00  0.00000000E+00  0.00000000E+00
  0.00000000E+00  0.00000000E+00  0.00000000E+00
  0.00000000E+00  0.00000000E+00  0.00000000E+00
  0.00000000E+00  0.00000000E+00  0.00000000E+00
  0.00000000E+00  0.00000000E+00  0.00000000E+00
  0.00000000E+00  0.00000000E+00  0.00000000E+00
  0.00000000E+00  0.00000000E+00  0.00000000E+00
  0.00000000E+00  0.00000000E+00  0.00000000E+00
  0.00000000E+00  0.00000000E+00  0.00000000E+00
  0.00000000E+00  0.00000000E+00  0.00000000E+00
  0.00000000E+00  0.00000000E+00  0.00000000E+00
  0.00000000E+00  0.00000000E+00  0.00000000E+00
  0.00000000E+00  0.00000000E+00  0.00000000E+00
  0.00000000E+00  0.00000000E+00  0.00000000E+00
  0.00000000E+00  0.00000000E+00  0.00000000E+00
  0.00000000E+00  0.00000000E+00  0.00000000E+00
  0.00000000E+00  0.00000000E+00  0.00000000E+00
  0.00000000E+00  0.00000000E+00  0.00000000E+00
  0.00000000E+00  0.00000000E+00  0.00000000E+00
  0.00000000E+00  0.00000000E+00  0.00000000E+00
  0.00000000E+00  0.00000000E+00  0.00000000E+00
  0.00000000E+00  0.00000000E+00  0.00000000E+00
  0.00000000E+00  0.00000000E+00  0.00000000E+00
  0.00000000E+00  0.00000000E+00  0.00000000E+00
  0.00000000E+00  0.00000000E+00  0.00000000E+00
  0.00000000E+00  0.00000000E+00  0.00000000E+00
  0.00000000E+00  0.00000000E+00  0.00000000E+00
  0.00000000E+00  0.00000000E+00  0.00000000E+00
  0.00000000E+00  0.00000000E+00  0.00000000E+00
  0.00000000E+00  0.00000000E+00  0.00000000E+00
  0.00000000E+00  0.00000000E+00  0.00000000E+00
  0.00000000E+00  0.00000000E+00  0.00000000E+00
  0.00000000E+00  0.00000000E+00  0.00000000E+00
  0.00000000E+00  0.00000000E+00  0.00000000E+00
  0.00000000E+00  0.00000000E+00  0.00000000E+00
  0.00000000E+00  0.00000000E+00  0.00000000E+00
  0.00000000E+00  0.00000000E+00  0.00000000E+00
  0.00000000E+00  0.00000000E+00  0.00000000E+00
  0.00000000E+00  0.00000000E+00  0.00000000E+00
  0.00000000E+00  0.00000000E+00  0.00000000E+00
  0.00000000E+00  0.00000000E+00  0.00000000E+00
  0.00000000E+00  0.00000000E+00  0.00000000E+00
  0.00000000E+00  0.00000000E+00  0.00000000E+00
  0.00000000E+00  0.00000000E+00  0.00000000E+00
  0.00000000E+00  0.00000000E+00  0.00000000E+00
  0.00000000E+00  0.00000000E+00  0.00000000E+00
  0.00000000E+00  0.00000000E+00  0.00000000E+00
  0.00000000E+00  0.00000000E+00  0.00000000E+00
  0.00000000E+00  0.00000000E+00  0.00000000E+00
  0.00000000E+00  0.00000000E+00  0.00000000E+00
  0.00000000E+00  0.00000000E+00  0.00000000E+00
  0.00000000E+00  0.00000000E+00  0.00000000E+00
  0.00000000E+00  0.00000000E+00  0.00000000E+00
  0.00000000E+00  0.00000000E+00  0.00000000E+00
  0.00000000E+00  0.00000000E+00  0.00000000E+00
  0.00000000E+00  0.00000000E+00  0.00000000E+00
  0.00000000E+00  0.00000000E+00  0.00000000E+00
  0.00000000E+00  0.00000000E+00  0.00000000E+00
  0.00000000E+00  0.00000000E+00  0.00000000E+00
  0.00000000E+00  0.00000000E+00  0.00000000E+00
  0.00000000E+00  0.00000000E+00  0.00000000E+00
  0.00000000E+00  0.00000000E+00  0.00000000E+00
  0.00000000E+00  0.00000000E+00  0.00000000E+00
  0.00000000E+00  0.00000000E+00  0.00000000E+00
  0.00000000E+00  0.00000000E+00  0.00000000E+00
  0.00000000E+00  0.00000000E+00  0.00000000E+00
