Bi La Sn O  C  H                        
   1.00000000000000     
    29.0000000000000000    0.0000000000000000    0.0000000000000000
     0.2488180851000000   28.9989325590000000    0.0000000000000000
    -0.0631677343000000   -0.4515975666000000   28.9964147692999994
   Bi   La   Sn   O    C    H 
    22    23    23     2     1     1
Selective dynamics
Direct
  0.7606061165611820  0.4779738080468448  0.3977052916829028   T   T   T
  0.6496074766715083  0.6850397845366907  0.5461651194307185   T   T   T
  0.3609565324061256  0.4585221283090001  0.4275417657976260   T   T   T
  0.5520481974628302  0.7138198292191679  0.5818777354578129   T   T   T
  0.5915029568994470  0.5209714444905416  0.5841479689498996   F   F   F
  0.6390008226122321  0.6778208172976321  0.4410451775287685   T   T   T
  0.6918813138294978  0.5177122321910976  0.6527123288025015   T   T   T
  0.4876232451210569  0.7026119127538547  0.4971508047131129   T   T   T
  0.5004839460855024  0.5502791173970252  0.5477141156400123   F   F   F
  0.3275190747692301  0.4854415778545033  0.5780583572534215   T   T   T
  0.3823279743187243  0.6088195514853312  0.5368807369193154   T   T   T
  0.6667129484492236  0.4827404655721850  0.5105018184570156   F   F   F
  0.5763997220267569  0.4263140504383500  0.5448328182496311   F   F   F
  0.6687498536142746  0.3729487609518347  0.5051237807101131   T   T   T
  0.4612208598915606  0.3386022230874803  0.4957239772269039   T   T   T
  0.6484934028780529  0.5775373212088155  0.4602701624361103   F   F   F
  0.5541198453472295  0.4328695278446541  0.7497826609947250   T   T   T
  0.5911734980600765  0.3477687924780217  0.6671800770385241   T   T   T
  0.4926251730010932  0.2997058404889650  0.4068434930732684   T   T   T
  0.6596508923860226  0.6133950014210565  0.6701042480913257   T   T   T
  0.4913867766841645  0.4110194140920435  0.3037677934536390   T   T   T
  0.6209886431709586  0.3162807239851239  0.5724823158051261   T   T   T
  0.5384248660272628  0.6836807406714112  0.4020632909718755   T   T   T
  0.3894668447558137  0.4153674791861264  0.5260844928452887   T   T   T
  0.6264993684165342  0.5497500470467664  0.2803687487081197   T   T   T
  0.4731392659130323  0.4810426439885492  0.6922209440797649   T   T   T
  0.5683115009887700  0.5094300495444983  0.4784716241115703   F   F   F
  0.4203210565129183  0.5084107200613417  0.5018573595042781   F   F   F
  0.4530066035865574  0.4018377323354405  0.4045874119176696   T   T   T
  0.5625957028638333  0.3502257983774327  0.3518433440113163   T   T   T
  0.4131417462887455  0.5395788629179084  0.6118384061190115   T   T   T
  0.5998523018218026  0.4408522391985391  0.3047857960025805   T   T   T
  0.4543106848594707  0.5995091794837148  0.3627379988605094   T   T   T
  0.4187107236033471  0.4882710912900817  0.3389367361800302   T   T   T
  0.6605783289995836  0.4240013436995499  0.6034458820060845   T   T   T
  0.6773847889094836  0.5804451520505282  0.5643085810455895   T   T   T
  0.5262002868142215  0.5090881172140904  0.3284966546177648   T   T   T
  0.5653006233148561  0.3567498984932215  0.4691737628425838   T   T   T
  0.3159742568525403  0.5397185506003791  0.4931747022307645   T   T   T
  0.6603729448070038  0.4296437888417614  0.4148902931680170   T   T   T
  0.5660841929594156  0.6261437171197244  0.5094829013827464   F   F   F
  0.5933037409990015  0.5264184742247674  0.6913334032077108   T   T   T
  0.4707923115780691  0.6436355430416936  0.5860286373292811   T   T   T
  0.4631055841534404  0.6038640608862342  0.4643206307285827   T   T   T
  0.7162201719350215  0.5737357658891578  0.3828900084926341   T   T   T
  0.5499310510395361  0.5822218838566187  0.4076968008106903   F   F   F
  0.4794126430662260  0.5072205383607624  0.4190535757241776   F   F   F
  0.6951227666206151  0.4814982169466669  0.3236719742069026   T   T   T
  0.7512949330374780  0.4281679004484125  0.4860357836589437   T   T   T
  0.7472190873252248  0.5369825369586353  0.4829716634716615   T   T   T
  0.7487483066742846  0.4886817488772658  0.5704938165961160   T   T   T
  0.6437489349421818  0.4306116625419355  0.7076386066914383   T   T   T
  0.5792138409896829  0.7429901875002106  0.4905574031849663   T   T   T
  0.6192554540844384  0.5183157687966542  0.3801816896793397   F   F   F
  0.5070041519011199  0.5666773231036731  0.6497994965983751   T   T   T
  0.4922009500451665  0.4366758245867572  0.4933013002826740   F   F   F
  0.5608844484509063  0.4404139570509003  0.6454865549417619   F   F   F
  0.5805527714751005  0.6174900240388026  0.6126662353111597   T   T   T
  0.5432799486482910  0.6166293549824038  0.3112401570595982   T   T   T
  0.6273413131406237  0.6234832580990106  0.3564500713674825   T   T   T
  0.3762359262551861  0.5570965472815904  0.4135267906252593   T   T   T
  0.4723078164089713  0.4557257050327763  0.5877273803360978   F   F   F
  0.7289695956638529  0.6362926545159168  0.4830513862169105   T   T   T
  0.4925781992806411  0.3777133708700272  0.6787468816716773   T   T   T
  0.3868343779907104  0.4375333987189372  0.6407340978059995   T   T   T
  0.5544592502646992  0.4379899399457940  0.4037542370104745   F   F   F
  0.4318620692718279  0.3571136372344619  0.6026351151178122   T   T   T
  0.5263054577724376  0.3488760637799576  0.5757986854230549   T   T   T
  0.7531890482706627  0.6090975771435613  0.5853567119755803   T   T   T
  0.7997437977662798  0.6342014717634883  0.5280034987334241   T   T   T
  0.7917950325816443  0.6213871351817375  0.5688990651014676   T   T   T
  0.8217755932927153  0.6206879438469983  0.5929385516917813   T   T   T
 
  0.00000000E+00  0.00000000E+00  0.00000000E+00
  0.00000000E+00  0.00000000E+00  0.00000000E+00
  0.00000000E+00  0.00000000E+00  0.00000000E+00
  0.00000000E+00  0.00000000E+00  0.00000000E+00
  0.00000000E+00  0.00000000E+00  0.00000000E+00
  0.00000000E+00  0.00000000E+00  0.00000000E+00
  0.00000000E+00  0.00000000E+00  0.00000000E+00
  0.00000000E+00  0.00000000E+00  0.00000000E+00
  0.00000000E+00  0.00000000E+00  0.00000000E+00
  0.00000000E+00  0.00000000E+00  0.00000000E+00
  0.00000000E+00  0.00000000E+00  0.00000000E+00
  0.00000000E+00  0.00000000E+00  0.00000000E+00
  0.00000000E+00  0.00000000E+00  0.00000000E+00
  0.00000000E+00  0.00000000E+00  0.00000000E+00
  0.00000000E+00  0.00000000E+00  0.00000000E+00
  0.00000000E+00  0.00000000E+00  0.00000000E+00
  0.00000000E+00  0.00000000E+00  0.00000000E+00
  0.00000000E+00  0.00000000E+00  0.00000000E+00
  0.00000000E+00  0.00000000E+00  0.00000000E+00
  0.00000000E+00  0.00000000E+00  0.00000000E+00
  0.00000000E+00  0.00000000E+00  0.00000000E+00
  0.00000000E+00  0.00000000E+00  0.00000000E+00
  0.00000000E+00  0.00000000E+00  0.00000000E+00
  0.00000000E+00  0.00000000E+00  0.00000000E+00
  0.00000000E+00  0.00000000E+00  0.00000000E+00
  0.00000000E+00  0.00000000E+00  0.00000000E+00
  0.00000000E+00  0.00000000E+00  0.00000000E+00
  0.00000000E+00  0.00000000E+00  0.00000000E+00
  0.00000000E+00  0.00000000E+00  0.00000000E+00
  0.00000000E+00  0.00000000E+00  0.00000000E+00
  0.00000000E+00  0.00000000E+00  0.00000000E+00
  0.00000000E+00  0.00000000E+00  0.00000000E+00
  0.00000000E+00  0.00000000E+00  0.00000000E+00
  0.00000000E+00  0.00000000E+00  0.00000000E+00
  0.00000000E+00  0.00000000E+00  0.00000000E+00
  0.00000000E+00  0.00000000E+00  0.00000000E+00
  0.00000000E+00  0.00000000E+00  0.00000000E+00
  0.00000000E+00  0.00000000E+00  0.00000000E+00
  0.00000000E+00  0.00000000E+00  0.00000000E+00
  0.00000000E+00  0.00000000E+00  0.00000000E+00
  0.00000000E+00  0.00000000E+00  0.00000000E+00
  0.00000000E+00  0.00000000E+00  0.00000000E+00
  0.00000000E+00  0.00000000E+00  0.00000000E+00
  0.00000000E+00  0.00000000E+00  0.00000000E+00
  0.00000000E+00  0.00000000E+00  0.00000000E+00
  0.00000000E+00  0.00000000E+00  0.00000000E+00
  0.00000000E+00  0.00000000E+00  0.00000000E+00
  0.00000000E+00  0.00000000E+00  0.00000000E+00
  0.00000000E+00  0.00000000E+00  0.00000000E+00
  0.00000000E+00  0.00000000E+00  0.00000000E+00
  0.00000000E+00  0.00000000E+00  0.00000000E+00
  0.00000000E+00  0.00000000E+00  0.00000000E+00
  0.00000000E+00  0.00000000E+00  0.00000000E+00
  0.00000000E+00  0.00000000E+00  0.00000000E+00
  0.00000000E+00  0.00000000E+00  0.00000000E+00
  0.00000000E+00  0.00000000E+00  0.00000000E+00
  0.00000000E+00  0.00000000E+00  0.00000000E+00
  0.00000000E+00  0.00000000E+00  0.00000000E+00
  0.00000000E+00  0.00000000E+00  0.00000000E+00
  0.00000000E+00  0.00000000E+00  0.00000000E+00
  0.00000000E+00  0.00000000E+00  0.00000000E+00
  0.00000000E+00  0.00000000E+00  0.00000000E+00
  0.00000000E+00  0.00000000E+00  0.00000000E+00
  0.00000000E+00  0.00000000E+00  0.00000000E+00
  0.00000000E+00  0.00000000E+00  0.00000000E+00
  0.00000000E+00  0.00000000E+00  0.00000000E+00
  0.00000000E+00  0.00000000E+00  0.00000000E+00
  0.00000000E+00  0.00000000E+00  0.00000000E+00
  0.00000000E+00  0.00000000E+00  0.00000000E+00
  0.00000000E+00  0.00000000E+00  0.00000000E+00
  0.00000000E+00  0.00000000E+00  0.00000000E+00
  0.00000000E+00  0.00000000E+00  0.00000000E+00
