Bi La Sn O  C  H                        
   1.00000000000000     
    29.0000000000000000    0.0000000000000000    0.0000000000000000
     0.2488180851000000   28.9989325590000000    0.0000000000000000
    -0.0631677343000000   -0.4515975666000000   28.9964147692999994
   Bi   La   Sn   O    C    H 
    22    23    23     2     1     1
Selective dynamics
Direct
  0.7601738440080641  0.4784789649320788  0.3977526126596664   T   T   T
  0.6470810757479138  0.6862111515334653  0.5495492260137420   T   T   T
  0.3602736558409920  0.4575938341649182  0.4276213919575359   T   T   T
  0.5496094268494307  0.7161817671298085  0.5832274106079494   T   T   T
  0.5915029568994470  0.5209714444905416  0.5841479689498996   F   F   F
  0.6395751892258581  0.6796006325541977  0.4445954165645710   T   T   T
  0.6944907356934210  0.5181376928986373  0.6534157258110072   T   T   T
  0.4875078779671759  0.7015537754231074  0.4982853142935089   T   T   T
  0.5004839460855024  0.5502791173970252  0.5477141156400123   F   F   F
  0.3281895397787416  0.4847409387404256  0.5783451203909350   T   T   T
  0.3815865078013485  0.6079120375008058  0.5368344612894913   T   T   T
  0.6667129484492236  0.4827404655721850  0.5105018184570156   F   F   F
  0.5763997220267569  0.4263140504383500  0.5448328182496311   F   F   F
  0.6685089012702926  0.3742844960939798  0.5064319837523645   T   T   T
  0.4614679720693307  0.3374914852136154  0.4944495214939531   T   T   T
  0.6484934028780529  0.5775373212088155  0.4602701624361103   F   F   F
  0.5542664015826974  0.4361265254847300  0.7499328844851512   T   T   T
  0.5906907516614149  0.3481929920868341  0.6668733700093807   T   T   T
  0.4933704395005257  0.3003615511381293  0.4046160992229925   T   T   T
  0.6615398257190428  0.6129883273217092  0.6703359436883385   T   T   T
  0.4918770766035770  0.4103103290041911  0.3043509969923328   T   T   T
  0.6212238475010669  0.3165410281946034  0.5730158070460306   T   T   T
  0.5387472624119907  0.6832114665863480  0.4030585372700434   T   T   T
  0.3897402987809236  0.4149791215617994  0.5254459867959721   T   T   T
  0.6277252337685939  0.5513612820887129  0.2827116574479823   T   T   T
  0.4734084421272750  0.4820027401864895  0.6922992722001464   T   T   T
  0.5683115009887700  0.5094300495444983  0.4784716241115703   F   F   F
  0.4203210565129183  0.5084107200613417  0.5018573595042781   F   F   F
  0.4528814717450064  0.4017475159964415  0.4044730644663458   T   T   T
  0.5650325410754728  0.3505855418855618  0.3519576710845488   T   T   T
  0.4133709319775775  0.5391978390898544  0.6120525961865342   T   T   T
  0.5990035747655409  0.4422145027373754  0.3036201900713326   T   T   T
  0.4543226348758378  0.5993394329168663  0.3636779214571164   T   T   T
  0.4184654633190731  0.4875459966312898  0.3395477881488672   T   T   T
  0.6606895556284911  0.4260323757512744  0.6044162074260401   T   T   T
  0.6737257639055381  0.5798052432869023  0.5645787455340875   T   T   T
  0.5257211913828985  0.5090108333656830  0.3282027147710131   T   T   T
  0.5654812578651286  0.3566983765961354  0.4689961392149157   T   T   T
  0.3152549589338386  0.5384029073776249  0.4932003347536020   T   T   T
  0.6603434800646817  0.4296529426270892  0.4151643484419456   T   T   T
  0.5660841929594156  0.6261437171197244  0.5094829013827464   F   F   F
  0.5948280422516982  0.5272579126916858  0.6900794748564602   T   T   T
  0.4692711297623101  0.6432505913790443  0.5859533439600436   T   T   T
  0.4622827862426465  0.6033100738939996  0.4635467631414679   T   T   T
  0.7158549562731428  0.5740659202533801  0.3826691135318450   T   T   T
  0.5499310510395361  0.5822218838566187  0.4076968008106903   F   F   F
  0.4794126430662260  0.5072205383607624  0.4190535757241776   F   F   F
  0.6950676673791278  0.4805800156226949  0.3239358311253062   T   T   T
  0.7517746406023653  0.4297072045466800  0.4861666777815242   T   T   T
  0.7478978583784757  0.5381846329461264  0.4838821820176483   T   T   T
  0.7486067357960552  0.4904199345241710  0.5711215541232555   T   T   T
  0.6434522525416601  0.4302943128652294  0.7084738814037872   T   T   T
  0.5771942832276058  0.7441270653971853  0.4918683129224588   T   T   T
  0.6192554540844384  0.5183157687966542  0.3801816896793397   F   F   F
  0.5078130605406688  0.5673067943669491  0.6493903833228916   T   T   T
  0.4922009500451665  0.4366758245867572  0.4933013002826740   F   F   F
  0.5608844484509063  0.4404139570509003  0.6454865549417619   F   F   F
  0.5805123450720202  0.6185976572461298  0.6126124428286943   T   T   T
  0.5432505639230094  0.6167580612570409  0.3118748025286526   T   T   T
  0.6267018799174870  0.6252538333580490  0.3591676180443735   T   T   T
  0.3759256358563647  0.5566601034282330  0.4137597291724062   T   T   T
  0.4723078164089713  0.4557257050327763  0.5877273803360978   F   F   F
  0.7269773629965061  0.6357750701325836  0.4836731226287695   T   T   T
  0.4914129287278712  0.3787953415596955  0.6775153285269768   T   T   T
  0.3881397070339250  0.4364743849001756  0.6404874418171014   T   T   T
  0.5544592502646992  0.4379899399457940  0.4037542370104745   F   F   F
  0.4313477994988609  0.3554114892152244  0.6011809484121046   T   T   T
  0.5259126870972468  0.3489138586603036  0.5750280371631487   T   T   T
  0.5903863701300327  0.6826419926673010  0.6743410990159662   T   T   T
  0.5947207402942174  0.7580496136154609  0.6531106329626423   T   T   T
  0.6020737635929951  0.7251534586990239  0.6799380683532680   T   T   T
  0.6207488577539182  0.7330632930596207  0.7128210549957105   T   T   T
 
  0.00000000E+00  0.00000000E+00  0.00000000E+00
  0.00000000E+00  0.00000000E+00  0.00000000E+00
  0.00000000E+00  0.00000000E+00  0.00000000E+00
  0.00000000E+00  0.00000000E+00  0.00000000E+00
  0.00000000E+00  0.00000000E+00  0.00000000E+00
  0.00000000E+00  0.00000000E+00  0.00000000E+00
  0.00000000E+00  0.00000000E+00  0.00000000E+00
  0.00000000E+00  0.00000000E+00  0.00000000E+00
  0.00000000E+00  0.00000000E+00  0.00000000E+00
  0.00000000E+00  0.00000000E+00  0.00000000E+00
  0.00000000E+00  0.00000000E+00  0.00000000E+00
  0.00000000E+00  0.00000000E+00  0.00000000E+00
  0.00000000E+00  0.00000000E+00  0.00000000E+00
  0.00000000E+00  0.00000000E+00  0.00000000E+00
  0.00000000E+00  0.00000000E+00  0.00000000E+00
  0.00000000E+00  0.00000000E+00  0.00000000E+00
  0.00000000E+00  0.00000000E+00  0.00000000E+00
  0.00000000E+00  0.00000000E+00  0.00000000E+00
  0.00000000E+00  0.00000000E+00  0.00000000E+00
  0.00000000E+00  0.00000000E+00  0.00000000E+00
  0.00000000E+00  0.00000000E+00  0.00000000E+00
  0.00000000E+00  0.00000000E+00  0.00000000E+00
  0.00000000E+00  0.00000000E+00  0.00000000E+00
  0.00000000E+00  0.00000000E+00  0.00000000E+00
  0.00000000E+00  0.00000000E+00  0.00000000E+00
  0.00000000E+00  0.00000000E+00  0.00000000E+00
  0.00000000E+00  0.00000000E+00  0.00000000E+00
  0.00000000E+00  0.00000000E+00  0.00000000E+00
  0.00000000E+00  0.00000000E+00  0.00000000E+00
  0.00000000E+00  0.00000000E+00  0.00000000E+00
  0.00000000E+00  0.00000000E+00  0.00000000E+00
  0.00000000E+00  0.00000000E+00  0.00000000E+00
  0.00000000E+00  0.00000000E+00  0.00000000E+00
  0.00000000E+00  0.00000000E+00  0.00000000E+00
  0.00000000E+00  0.00000000E+00  0.00000000E+00
  0.00000000E+00  0.00000000E+00  0.00000000E+00
  0.00000000E+00  0.00000000E+00  0.00000000E+00
  0.00000000E+00  0.00000000E+00  0.00000000E+00
  0.00000000E+00  0.00000000E+00  0.00000000E+00
  0.00000000E+00  0.00000000E+00  0.00000000E+00
  0.00000000E+00  0.00000000E+00  0.00000000E+00
  0.00000000E+00  0.00000000E+00  0.00000000E+00
  0.00000000E+00  0.00000000E+00  0.00000000E+00
  0.00000000E+00  0.00000000E+00  0.00000000E+00
  0.00000000E+00  0.00000000E+00  0.00000000E+00
  0.00000000E+00  0.00000000E+00  0.00000000E+00
  0.00000000E+00  0.00000000E+00  0.00000000E+00
  0.00000000E+00  0.00000000E+00  0.00000000E+00
  0.00000000E+00  0.00000000E+00  0.00000000E+00
  0.00000000E+00  0.00000000E+00  0.00000000E+00
  0.00000000E+00  0.00000000E+00  0.00000000E+00
  0.00000000E+00  0.00000000E+00  0.00000000E+00
  0.00000000E+00  0.00000000E+00  0.00000000E+00
  0.00000000E+00  0.00000000E+00  0.00000000E+00
  0.00000000E+00  0.00000000E+00  0.00000000E+00
  0.00000000E+00  0.00000000E+00  0.00000000E+00
  0.00000000E+00  0.00000000E+00  0.00000000E+00
  0.00000000E+00  0.00000000E+00  0.00000000E+00
  0.00000000E+00  0.00000000E+00  0.00000000E+00
  0.00000000E+00  0.00000000E+00  0.00000000E+00
  0.00000000E+00  0.00000000E+00  0.00000000E+00
  0.00000000E+00  0.00000000E+00  0.00000000E+00
  0.00000000E+00  0.00000000E+00  0.00000000E+00
  0.00000000E+00  0.00000000E+00  0.00000000E+00
  0.00000000E+00  0.00000000E+00  0.00000000E+00
  0.00000000E+00  0.00000000E+00  0.00000000E+00
  0.00000000E+00  0.00000000E+00  0.00000000E+00
  0.00000000E+00  0.00000000E+00  0.00000000E+00
  0.00000000E+00  0.00000000E+00  0.00000000E+00
  0.00000000E+00  0.00000000E+00  0.00000000E+00
  0.00000000E+00  0.00000000E+00  0.00000000E+00
  0.00000000E+00  0.00000000E+00  0.00000000E+00
