Bi La Sn O  C  H                        
   1.00000000000000     
    29.0000000000000000    0.0000000000000000    0.0000000000000000
     0.2488180851000000   28.9989325590000000    0.0000000000000000
    -0.0631677343000000   -0.4515975666000000   28.9964147692999994
   Bi   La   Sn   O    C    H 
    22    23    23     2     1     1
Selective dynamics
Direct
  0.7596089801831651  0.4789540094146617  0.3986941285284534   T   T   T
  0.6464589825099513  0.6847276178504933  0.5524547222966852   T   T   T
  0.3621563818310959  0.4590255725459914  0.4253548661793239   T   T   T
  0.5496554500097999  0.7129403858757075  0.5853876261080795   T   T   T
  0.5915029568994470  0.5209714444905416  0.5841479689498996   F   F   F
  0.6399523338173919  0.6800757805742264  0.4456090658679706   T   T   T
  0.6953776794056868  0.5228715001784489  0.6542746297913512   T   T   T
  0.4862787161867705  0.7011881711993069  0.5005467203557836   T   T   T
  0.5004839460855024  0.5502791173970252  0.5477141156400123   F   F   F
  0.3244262058063538  0.4860861893341298  0.5735298376164544   T   T   T
  0.3818754509408136  0.6103652961643760  0.5345331672878739   T   T   T
  0.6667129484492236  0.4827404655721850  0.5105018184570156   F   F   F
  0.5763997220267569  0.4263140504383500  0.5448328182496311   F   F   F
  0.6690438462180861  0.3750394529236865  0.5067322565405531   T   T   T
  0.4637806239323261  0.3379470429274618  0.4997557794349755   T   T   T
  0.6484934028780529  0.5775373212088155  0.4602701624361103   F   F   F
  0.5570276281877323  0.4370509171715895  0.7495758613715369   T   T   T
  0.6036928134611403  0.3517008757852510  0.6698616849340273   T   T   T
  0.4932853359562718  0.2991259116388427  0.4089189980837433   T   T   T
  0.6595767900858913  0.6187977855120941  0.6662544459526273   T   T   T
  0.4951900115609689  0.4091932961790639  0.3108738007098107   T   T   T
  0.6231998751066538  0.3172216199064936  0.5739982118361838   T   T   T
  0.5388494954164952  0.6841382133018136  0.4055733474843463   T   T   T
  0.3906392330097177  0.4159835131081348  0.5255385833976265   T   T   T
  0.6272935103007992  0.5530190170762196  0.2819616669893310   T   T   T
  0.4710454974894949  0.4709089060508546  0.6918418961809946   T   T   T
  0.5683115009887700  0.5094300495444983  0.4784716241115703   F   F   F
  0.4203210565129183  0.5084107200613417  0.5018573595042781   F   F   F
  0.4526731463259346  0.4002772764287492  0.4073624238190945   T   T   T
  0.5670756949194752  0.3473430735167921  0.3564913758253526   T   T   T
  0.4103664711718640  0.5398519923262742  0.6091079363323798   T   T   T
  0.6009483191629361  0.4380434087583612  0.3052793652336008   T   T   T
  0.4559290953990499  0.6020389169393274  0.3639104259920459   T   T   T
  0.4220101389692057  0.4893683328755315  0.3354663445303946   T   T   T
  0.6610797260385078  0.4286427724609445  0.6046597497698029   T   T   T
  0.6727175898374713  0.5791854387420655  0.5638590074312059   T   T   T
  0.5258205081792138  0.5113377523013655  0.3285127790899907   T   T   T
  0.5663232556807128  0.3574718225311214  0.4692780992242644   T   T   T
  0.3165719603672089  0.5411517034398390  0.4893076504055202   T   T   T
  0.6607556890079270  0.4298952244027680  0.4146337526976350   T   T   T
  0.5660841929594156  0.6261437171197244  0.5094829013827464   F   F   F
  0.5953672156676698  0.5287914340886457  0.6896597750631251   T   T   T
  0.4693413352182925  0.6412965876625647  0.5886029734352217   T   T   T
  0.4634659661129368  0.6033895948169372  0.4642028425150770   T   T   T
  0.7167821180440969  0.5745686421373611  0.3836514265011653   T   T   T
  0.5499310510395361  0.5822218838566187  0.4076968008106903   F   F   F
  0.4794126430662260  0.5072205383607624  0.4190535757241776   F   F   F
  0.6949838785131009  0.4825625202798344  0.3237372312383254   T   T   T
  0.7524283095479242  0.4300662953520450  0.4877292013189992   T   T   T
  0.7483818890606649  0.5385271625673843  0.4849392977808296   T   T   T
  0.7482608805386395  0.4917619288891693  0.5723047270758286   T   T   T
  0.6473810131416035  0.4370873501214995  0.7093616681594020   T   T   T
  0.5772709195680292  0.7430010880966367  0.4943067798590431   T   T   T
  0.6192554540844384  0.5183157687966542  0.3801816896793397   F   F   F
  0.5044079041786902  0.5592718810129166  0.6499732368842858   T   T   T
  0.4922009500451665  0.4366758245867572  0.4933013002826740   F   F   F
  0.5608844484509063  0.4404139570509003  0.6454865549417619   F   F   F
  0.5765371670642309  0.6160415090987283  0.6137286109337781   T   T   T
  0.5447606437400649  0.6192342943188924  0.3125713761247101   T   T   T
  0.6277346422136001  0.6260044587916956  0.3602034680316710   T   T   T
  0.3784787529161634  0.5564329074525548  0.4107641818699177   T   T   T
  0.4723078164089713  0.4557257050327763  0.5877273803360978   F   F   F
  0.7269591547986882  0.6353160503236365  0.4848071591098677   T   T   T
  0.5031606375495545  0.3681920708846048  0.6830803849588596   T   T   T
  0.3812598396825719  0.4405412188940708  0.6382678735490366   T   T   T
  0.5544592502646992  0.4379899399457940  0.4037542370104745   F   F   F
  0.4341781296481033  0.3627122758329748  0.6083833563236946   T   T   T
  0.5289507924211595  0.3486248252029946  0.5795448045742216   T   T   T
  0.5701385741755064  0.4986250649935111  0.2455554873180102   T   T   T
  0.4926446268485759  0.5118908500390277  0.2453900285266581   T   T   T
  0.5310284174429019  0.5108950832489068  0.2256965457147403   T   T   T
  0.5338548120924977  0.5204918493837626  0.1889697428750500   T   T   T
 
  0.00000000E+00  0.00000000E+00  0.00000000E+00
  0.00000000E+00  0.00000000E+00  0.00000000E+00
  0.00000000E+00  0.00000000E+00  0.00000000E+00
  0.00000000E+00  0.00000000E+00  0.00000000E+00
  0.00000000E+00  0.00000000E+00  0.00000000E+00
  0.00000000E+00  0.00000000E+00  0.00000000E+00
  0.00000000E+00  0.00000000E+00  0.00000000E+00
  0.00000000E+00  0.00000000E+00  0.00000000E+00
  0.00000000E+00  0.00000000E+00  0.00000000E+00
  0.00000000E+00  0.00000000E+00  0.00000000E+00
  0.00000000E+00  0.00000000E+00  0.00000000E+00
  0.00000000E+00  0.00000000E+00  0.00000000E+00
  0.00000000E+00  0.00000000E+00  0.00000000E+00
  0.00000000E+00  0.00000000E+00  0.00000000E+00
  0.00000000E+00  0.00000000E+00  0.00000000E+00
  0.00000000E+00  0.00000000E+00  0.00000000E+00
  0.00000000E+00  0.00000000E+00  0.00000000E+00
  0.00000000E+00  0.00000000E+00  0.00000000E+00
  0.00000000E+00  0.00000000E+00  0.00000000E+00
  0.00000000E+00  0.00000000E+00  0.00000000E+00
  0.00000000E+00  0.00000000E+00  0.00000000E+00
  0.00000000E+00  0.00000000E+00  0.00000000E+00
  0.00000000E+00  0.00000000E+00  0.00000000E+00
  0.00000000E+00  0.00000000E+00  0.00000000E+00
  0.00000000E+00  0.00000000E+00  0.00000000E+00
  0.00000000E+00  0.00000000E+00  0.00000000E+00
  0.00000000E+00  0.00000000E+00  0.00000000E+00
  0.00000000E+00  0.00000000E+00  0.00000000E+00
  0.00000000E+00  0.00000000E+00  0.00000000E+00
  0.00000000E+00  0.00000000E+00  0.00000000E+00
  0.00000000E+00  0.00000000E+00  0.00000000E+00
  0.00000000E+00  0.00000000E+00  0.00000000E+00
  0.00000000E+00  0.00000000E+00  0.00000000E+00
  0.00000000E+00  0.00000000E+00  0.00000000E+00
  0.00000000E+00  0.00000000E+00  0.00000000E+00
  0.00000000E+00  0.00000000E+00  0.00000000E+00
  0.00000000E+00  0.00000000E+00  0.00000000E+00
  0.00000000E+00  0.00000000E+00  0.00000000E+00
  0.00000000E+00  0.00000000E+00  0.00000000E+00
  0.00000000E+00  0.00000000E+00  0.00000000E+00
  0.00000000E+00  0.00000000E+00  0.00000000E+00
  0.00000000E+00  0.00000000E+00  0.00000000E+00
  0.00000000E+00  0.00000000E+00  0.00000000E+00
  0.00000000E+00  0.00000000E+00  0.00000000E+00
  0.00000000E+00  0.00000000E+00  0.00000000E+00
  0.00000000E+00  0.00000000E+00  0.00000000E+00
  0.00000000E+00  0.00000000E+00  0.00000000E+00
  0.00000000E+00  0.00000000E+00  0.00000000E+00
  0.00000000E+00  0.00000000E+00  0.00000000E+00
  0.00000000E+00  0.00000000E+00  0.00000000E+00
  0.00000000E+00  0.00000000E+00  0.00000000E+00
  0.00000000E+00  0.00000000E+00  0.00000000E+00
  0.00000000E+00  0.00000000E+00  0.00000000E+00
  0.00000000E+00  0.00000000E+00  0.00000000E+00
  0.00000000E+00  0.00000000E+00  0.00000000E+00
  0.00000000E+00  0.00000000E+00  0.00000000E+00
  0.00000000E+00  0.00000000E+00  0.00000000E+00
  0.00000000E+00  0.00000000E+00  0.00000000E+00
  0.00000000E+00  0.00000000E+00  0.00000000E+00
  0.00000000E+00  0.00000000E+00  0.00000000E+00
  0.00000000E+00  0.00000000E+00  0.00000000E+00
  0.00000000E+00  0.00000000E+00  0.00000000E+00
  0.00000000E+00  0.00000000E+00  0.00000000E+00
  0.00000000E+00  0.00000000E+00  0.00000000E+00
  0.00000000E+00  0.00000000E+00  0.00000000E+00
  0.00000000E+00  0.00000000E+00  0.00000000E+00
  0.00000000E+00  0.00000000E+00  0.00000000E+00
  0.00000000E+00  0.00000000E+00  0.00000000E+00
  0.00000000E+00  0.00000000E+00  0.00000000E+00
  0.00000000E+00  0.00000000E+00  0.00000000E+00
  0.00000000E+00  0.00000000E+00  0.00000000E+00
  0.00000000E+00  0.00000000E+00  0.00000000E+00
