Bi La Sn O  C  H                        
   1.00000000000000     
    29.0000000000000000    0.0000000000000000    0.0000000000000000
     0.2488180851000000   28.9989325590000000    0.0000000000000000
    -0.0631677343000000   -0.4515975666000000   28.9964147692999994
   Bi   La   Sn   O    C    H 
    22    23    23     2     1     1
Selective dynamics
Direct
  0.7589555039251895  0.4802037451590503  0.4002588646629917   T   T   T
  0.6472660453670399  0.6845321296548428  0.5517175631022843   T   T   T
  0.3598816879237436  0.4582955038343456  0.4280232997978678   T   T   T
  0.5510847063481016  0.7134336799077468  0.5841339655219437   T   T   T
  0.5915029568994470  0.5209714444905416  0.5841479689498996   F   F   F
  0.6401263061808140  0.6802729703050272  0.4459504037748336   T   T   T
  0.6952952877278175  0.5209966435160771  0.6539121526416376   T   T   T
  0.4867727465016202  0.7015788941137142  0.4990595648305539   T   T   T
  0.5004839460855024  0.5502791173970252  0.5477141156400123   F   F   F
  0.3267493592734289  0.4850750140969414  0.5773018103391941   T   T   T
  0.3822396020799267  0.6090056270858887  0.5363836987449954   T   T   T
  0.6667129484492236  0.4827404655721850  0.5105018184570156   F   F   F
  0.5763997220267569  0.4263140504383500  0.5448328182496311   F   F   F
  0.6682475160703785  0.3738805938392873  0.5073343673592987   T   T   T
  0.4618477062165061  0.3377430474684961  0.4968523923983844   T   T   T
  0.6484934028780529  0.5775373212088155  0.4602701624361103   F   F   F
  0.5564647584894412  0.4357624974679372  0.7500384964224607   T   T   T
  0.5967830703947429  0.3493760215035197  0.6683636454182176   T   T   T
  0.4929948321195098  0.2996303137180920  0.4070868604031351   T   T   T
  0.6599411426878750  0.6170452874227307  0.6673392132510282   T   T   T
  0.4918250761636316  0.4108489582844351  0.3061977186165599   T   T   T
  0.6217212957148583  0.3155824676686583  0.5736100124792852   T   T   T
  0.5387061269021717  0.6837384015084064  0.4042679782239549   T   T   T
  0.3900664938634227  0.4153550817661246  0.5260379932377715   T   T   T
  0.6307422486684450  0.5555690035389000  0.2813377071783056   T   T   T
  0.4727320745094433  0.4771502373172395  0.6928018366207649   T   T   T
  0.5683115009887700  0.5094300495444983  0.4784716241115703   F   F   F
  0.4203210565129183  0.5084107200613417  0.5018573595042781   F   F   F
  0.4522336808919247  0.4011992789518897  0.4057519526175578   T   T   T
  0.5643943246169829  0.3499406112132858  0.3531379768341417   T   T   T
  0.4122963271612207  0.5393947307412483  0.6112512147695464   T   T   T
  0.6000307591924428  0.4404402114194615  0.3051326193232062   T   T   T
  0.4544419714437877  0.5999026011483857  0.3639696284801900   T   T   T
  0.4179532991944949  0.4876449912597817  0.3398678015385913   T   T   T
  0.6610399641966097  0.4263530957401526  0.6045794054338077   T   T   T
  0.6734400954340564  0.5784590720379735  0.5642465330384525   T   T   T
  0.5264207359465461  0.5096792413816011  0.3280503718632630   T   T   T
  0.5653194474021513  0.3568626539990877  0.4692377120206943   T   T   T
  0.3155030884028585  0.5398384673867354  0.4930115356087377   T   T   T
  0.6599401846674886  0.4292105590873942  0.4156340026907197   T   T   T
  0.5660841929594156  0.6261437171197244  0.5094829013827464   F   F   F
  0.5957075269271010  0.5274949660088403  0.6900060508378201   T   T   T
  0.4702215773101923  0.6423021081981450  0.5877653830661060   T   T   T
  0.4630169652152876  0.6032641038201424  0.4641336611932611   T   T   T
  0.7175641400195383  0.5771954704653911  0.3817833640146234   T   T   T
  0.5499310510395361  0.5822218838566187  0.4076968008106903   F   F   F
  0.4794126430662260  0.5072205383607624  0.4190535757241776   F   F   F
  0.6948253661567746  0.4820784499139040  0.3257891845601467   T   T   T
  0.7511673153389117  0.4290173158732578  0.4876051292551019   T   T   T
  0.7485646792356939  0.5386918824118403  0.4864188808685158   T   T   T
  0.7486286330942349  0.4889519503900357  0.5725781542059680   T   T   T
  0.6457716461951352  0.4329293374479759  0.7084695810668574   T   T   T
  0.5771058750559031  0.7438372461417939  0.4927970036698209   T   T   T
  0.6192554540844384  0.5183157687966542  0.3801816896793397   F   F   F
  0.5063682965499128  0.5632367658764196  0.6502483149946086   T   T   T
  0.4922009500451665  0.4366758245867572  0.4933013002826740   F   F   F
  0.5608844484509063  0.4404139570509003  0.6454865549417619   F   F   F
  0.5782362568631445  0.6170355471498949  0.6132323561775188   T   T   T
  0.5429928264043135  0.6169670136175190  0.3116730221089163   T   T   T
  0.6249963258719619  0.6253962411135494  0.3618536946286847   T   T   T
  0.3759533324013776  0.5571237103084784  0.4135406810381786   T   T   T
  0.4723078164089713  0.4557257050327763  0.5877273803360978   F   F   F
  0.7273395868831730  0.6350675723253306  0.4852279900739187   T   T   T
  0.4972867265487517  0.3740158721586490  0.6801132164683767   T   T   T
  0.3852802682250479  0.4380747120931374  0.6403428859008465   T   T   T
  0.5544592502646992  0.4379899399457940  0.4037542370104745   F   F   F
  0.4328873800358789  0.3585782824282595  0.6043697994690886   T   T   T
  0.5273962350497742  0.3486952521563522  0.5765775637469468   T   T   T
  0.6917816619190063  0.6040455146602812  0.2542848875222034   T   T   T
  0.7401842239298568  0.6193511800001177  0.3140855597670525   T   T   T
  0.7268029566436220  0.6235001169978377  0.2726088686468133   T   T   T
  0.7472740905272095  0.6464067720488974  0.2502550496784435   T   T   T
 
  0.00000000E+00  0.00000000E+00  0.00000000E+00
  0.00000000E+00  0.00000000E+00  0.00000000E+00
  0.00000000E+00  0.00000000E+00  0.00000000E+00
  0.00000000E+00  0.00000000E+00  0.00000000E+00
  0.00000000E+00  0.00000000E+00  0.00000000E+00
  0.00000000E+00  0.00000000E+00  0.00000000E+00
  0.00000000E+00  0.00000000E+00  0.00000000E+00
  0.00000000E+00  0.00000000E+00  0.00000000E+00
  0.00000000E+00  0.00000000E+00  0.00000000E+00
  0.00000000E+00  0.00000000E+00  0.00000000E+00
  0.00000000E+00  0.00000000E+00  0.00000000E+00
  0.00000000E+00  0.00000000E+00  0.00000000E+00
  0.00000000E+00  0.00000000E+00  0.00000000E+00
  0.00000000E+00  0.00000000E+00  0.00000000E+00
  0.00000000E+00  0.00000000E+00  0.00000000E+00
  0.00000000E+00  0.00000000E+00  0.00000000E+00
  0.00000000E+00  0.00000000E+00  0.00000000E+00
  0.00000000E+00  0.00000000E+00  0.00000000E+00
  0.00000000E+00  0.00000000E+00  0.00000000E+00
  0.00000000E+00  0.00000000E+00  0.00000000E+00
  0.00000000E+00  0.00000000E+00  0.00000000E+00
  0.00000000E+00  0.00000000E+00  0.00000000E+00
  0.00000000E+00  0.00000000E+00  0.00000000E+00
  0.00000000E+00  0.00000000E+00  0.00000000E+00
  0.00000000E+00  0.00000000E+00  0.00000000E+00
  0.00000000E+00  0.00000000E+00  0.00000000E+00
  0.00000000E+00  0.00000000E+00  0.00000000E+00
  0.00000000E+00  0.00000000E+00  0.00000000E+00
  0.00000000E+00  0.00000000E+00  0.00000000E+00
  0.00000000E+00  0.00000000E+00  0.00000000E+00
  0.00000000E+00  0.00000000E+00  0.00000000E+00
  0.00000000E+00  0.00000000E+00  0.00000000E+00
  0.00000000E+00  0.00000000E+00  0.00000000E+00
  0.00000000E+00  0.00000000E+00  0.00000000E+00
  0.00000000E+00  0.00000000E+00  0.00000000E+00
  0.00000000E+00  0.00000000E+00  0.00000000E+00
  0.00000000E+00  0.00000000E+00  0.00000000E+00
  0.00000000E+00  0.00000000E+00  0.00000000E+00
  0.00000000E+00  0.00000000E+00  0.00000000E+00
  0.00000000E+00  0.00000000E+00  0.00000000E+00
  0.00000000E+00  0.00000000E+00  0.00000000E+00
  0.00000000E+00  0.00000000E+00  0.00000000E+00
  0.00000000E+00  0.00000000E+00  0.00000000E+00
  0.00000000E+00  0.00000000E+00  0.00000000E+00
  0.00000000E+00  0.00000000E+00  0.00000000E+00
  0.00000000E+00  0.00000000E+00  0.00000000E+00
  0.00000000E+00  0.00000000E+00  0.00000000E+00
  0.00000000E+00  0.00000000E+00  0.00000000E+00
  0.00000000E+00  0.00000000E+00  0.00000000E+00
  0.00000000E+00  0.00000000E+00  0.00000000E+00
  0.00000000E+00  0.00000000E+00  0.00000000E+00
  0.00000000E+00  0.00000000E+00  0.00000000E+00
  0.00000000E+00  0.00000000E+00  0.00000000E+00
  0.00000000E+00  0.00000000E+00  0.00000000E+00
  0.00000000E+00  0.00000000E+00  0.00000000E+00
  0.00000000E+00  0.00000000E+00  0.00000000E+00
  0.00000000E+00  0.00000000E+00  0.00000000E+00
  0.00000000E+00  0.00000000E+00  0.00000000E+00
  0.00000000E+00  0.00000000E+00  0.00000000E+00
  0.00000000E+00  0.00000000E+00  0.00000000E+00
  0.00000000E+00  0.00000000E+00  0.00000000E+00
  0.00000000E+00  0.00000000E+00  0.00000000E+00
  0.00000000E+00  0.00000000E+00  0.00000000E+00
  0.00000000E+00  0.00000000E+00  0.00000000E+00
  0.00000000E+00  0.00000000E+00  0.00000000E+00
  0.00000000E+00  0.00000000E+00  0.00000000E+00
  0.00000000E+00  0.00000000E+00  0.00000000E+00
  0.00000000E+00  0.00000000E+00  0.00000000E+00
  0.00000000E+00  0.00000000E+00  0.00000000E+00
  0.00000000E+00  0.00000000E+00  0.00000000E+00
  0.00000000E+00  0.00000000E+00  0.00000000E+00
  0.00000000E+00  0.00000000E+00  0.00000000E+00
