Bi La Sn O  C  H                        
   1.00000000000000     
    29.0000000000000000    0.0000000000000000    0.0000000000000000
     0.2488180851000000   28.9989325590000000    0.0000000000000000
    -0.0631677343000000   -0.4515975666000000   28.9964147692999994
   Bi   La   Sn   O    C    H 
    22    23    23     2     1     1
Selective dynamics
Direct
  0.7595701833622397  0.4785505278343509  0.3992469654809902   T   T   T
  0.6478836032147730  0.6850729181057008  0.5501624532697525   T   T   T
  0.3600484022019697  0.4570942516101061  0.4291249989082073   T   T   T
  0.5515971497615845  0.7133625524682210  0.5837965342566754   T   T   T
  0.5915029568994470  0.5209714444905416  0.5841479689498996   F   F   F
  0.6402506663512958  0.6802875528264960  0.4451814088248927   T   T   T
  0.6945375990517780  0.5192971146889170  0.6540943586256112   T   T   T
  0.4871032335693935  0.7012079111424624  0.4978724874245631   T   T   T
  0.5004839460855024  0.5502791173970252  0.5477141156400123   F   F   F
  0.3289341588798275  0.4838227985543107  0.5786946803453537   T   T   T
  0.3823496438431122  0.6083948420900648  0.5377491092803287   T   T   T
  0.6667129484492236  0.4827404655721850  0.5105018184570156   F   F   F
  0.5763997220267569  0.4263140504383500  0.5448328182496311   F   F   F
  0.6692591130355620  0.3734811050705928  0.5066236815451191   T   T   T
  0.4620322951850624  0.3373527349429998  0.4952473633914303   T   T   T
  0.6484934028780529  0.5775373212088155  0.4602701624361103   F   F   F
  0.5534478685776411  0.4320594284872948  0.7494304560456962   T   T   T
  0.5895807351213807  0.3488426669225902  0.6667699478025887   T   T   T
  0.4937878278878520  0.3002141241871104  0.4060683810176671   T   T   T
  0.6605846024399326  0.6150227074231213  0.6689545022108898   T   T   T
  0.4920426768194240  0.4104421668624607  0.3049477278472507   T   T   T
  0.6175207428161997  0.3181008890712942  0.5711871362055442   T   T   T
  0.5397599280700234  0.6837330107800074  0.4039992403604107   T   T   T
  0.3909210430850752  0.4136313380758317  0.5274550078232684   T   T   T
  0.6278961127347065  0.5519465167269690  0.2824463040270289   T   T   T
  0.4735956228825694  0.4813131336081090  0.6927188283514558   T   T   T
  0.5683115009887700  0.5094300495444983  0.4784716241115703   F   F   F
  0.4203210565129183  0.5084107200613417  0.5018573595042781   F   F   F
  0.4526437201472099  0.4015155855370761  0.4050047769141927   T   T   T
  0.5647392844216542  0.3498603383215936  0.3518852958882001   T   T   T
  0.4134404313685027  0.5391099786753615  0.6125138671180922   T   T   T
  0.5990186119574537  0.4425286041100694  0.3044687702298963   T   T   T
  0.4542086190144018  0.5993753607617150  0.3636820681307227   T   T   T
  0.4179710088606268  0.4865851674112871  0.3406509517962127   T   T   T
  0.6603771613109305  0.4255436974390810  0.6044314353110121   T   T   T
  0.6739949048607521  0.5788630342646516  0.5645078928069165   T   T   T
  0.5255973233879546  0.5094843951001536  0.3278854338223696   T   T   T
  0.5659989148498339  0.3571349741733039  0.4692415945951598   T   T   T
  0.3159249846973229  0.5386452335471451  0.4942868304582808   T   T   T
  0.6601828064061547  0.4294037146391332  0.4156235531067669   T   T   T
  0.5660841929594156  0.6261437171197244  0.5094829013827464   F   F   F
  0.5948806402174633  0.5265597755055283  0.6906367589900758   T   T   T
  0.4705512433705162  0.6429930797106875  0.5870272067468890   T   T   T
  0.4617059294631494  0.6034008905620892  0.4634943902528589   T   T   T
  0.7163715153415057  0.5740965883656542  0.3834222711848594   T   T   T
  0.5499310510395361  0.5822218838566187  0.4076968008106903   F   F   F
  0.4794126430662260  0.5072205383607624  0.4190535757241776   F   F   F
  0.6950889740610201  0.4808988042712393  0.3245746064215587   T   T   T
  0.7516474568480148  0.4293065516055381  0.4876320183132743   T   T   T
  0.7484842057974015  0.5382593729513783  0.4857551357367854   T   T   T
  0.7485359671536095  0.4896304196328077  0.5724392845039313   T   T   T
  0.6436622690459390  0.4307762757823410  0.7087729384592160   T   T   T
  0.5773558466689843  0.7438207404036165  0.4926159771837323   T   T   T
  0.6192554540844384  0.5183157687966542  0.3801816896793397   F   F   F
  0.5077338625021867  0.5660378483163635  0.6499631577318816   T   T   T
  0.4922009500451665  0.4366758245867572  0.4933013002826740   F   F   F
  0.5608844484509063  0.4404139570509003  0.6454865549417619   F   F   F
  0.5801081610330476  0.6176745180385966  0.6129852741421090   T   T   T
  0.5436773474399849  0.6170892462316303  0.3123825797476388   T   T   T
  0.6269691794119441  0.6248583788212523  0.3603201334482499   T   T   T
  0.3753850465005952  0.5564843774029086  0.4138722384115094   T   T   T
  0.4723078164089713  0.4557257050327763  0.5877273803360978   F   F   F
  0.7276893147881480  0.6351815625394031  0.4840396966962049   T   T   T
  0.4893846141851768  0.3772772453284757  0.6791938932963409   T   T   T
  0.3883995304980204  0.4366653301975867  0.6419348194550062   T   T   T
  0.5544592502646992  0.4379899399457940  0.4037542370104745   F   F   F
  0.4273504402999047  0.3530659913802150  0.6059141557633008   T   T   T
  0.5221137654602662  0.3526145086534496  0.5768083679408679   T   T   T
  0.4555153998852399  0.3190060490917965  0.7224664916442282   T   T   T
  0.4007088224902020  0.3042650475762183  0.6668408322669035   T   T   T
  0.4238904831987104  0.2951267248012432  0.7028989748602233   T   T   T
  0.4156239275583566  0.2620496912464064  0.7199855817020187   T   T   T
 
  0.00000000E+00  0.00000000E+00  0.00000000E+00
  0.00000000E+00  0.00000000E+00  0.00000000E+00
  0.00000000E+00  0.00000000E+00  0.00000000E+00
  0.00000000E+00  0.00000000E+00  0.00000000E+00
  0.00000000E+00  0.00000000E+00  0.00000000E+00
  0.00000000E+00  0.00000000E+00  0.00000000E+00
  0.00000000E+00  0.00000000E+00  0.00000000E+00
  0.00000000E+00  0.00000000E+00  0.00000000E+00
  0.00000000E+00  0.00000000E+00  0.00000000E+00
  0.00000000E+00  0.00000000E+00  0.00000000E+00
  0.00000000E+00  0.00000000E+00  0.00000000E+00
  0.00000000E+00  0.00000000E+00  0.00000000E+00
  0.00000000E+00  0.00000000E+00  0.00000000E+00
  0.00000000E+00  0.00000000E+00  0.00000000E+00
  0.00000000E+00  0.00000000E+00  0.00000000E+00
  0.00000000E+00  0.00000000E+00  0.00000000E+00
  0.00000000E+00  0.00000000E+00  0.00000000E+00
  0.00000000E+00  0.00000000E+00  0.00000000E+00
  0.00000000E+00  0.00000000E+00  0.00000000E+00
  0.00000000E+00  0.00000000E+00  0.00000000E+00
  0.00000000E+00  0.00000000E+00  0.00000000E+00
  0.00000000E+00  0.00000000E+00  0.00000000E+00
  0.00000000E+00  0.00000000E+00  0.00000000E+00
  0.00000000E+00  0.00000000E+00  0.00000000E+00
  0.00000000E+00  0.00000000E+00  0.00000000E+00
  0.00000000E+00  0.00000000E+00  0.00000000E+00
  0.00000000E+00  0.00000000E+00  0.00000000E+00
  0.00000000E+00  0.00000000E+00  0.00000000E+00
  0.00000000E+00  0.00000000E+00  0.00000000E+00
  0.00000000E+00  0.00000000E+00  0.00000000E+00
  0.00000000E+00  0.00000000E+00  0.00000000E+00
  0.00000000E+00  0.00000000E+00  0.00000000E+00
  0.00000000E+00  0.00000000E+00  0.00000000E+00
  0.00000000E+00  0.00000000E+00  0.00000000E+00
  0.00000000E+00  0.00000000E+00  0.00000000E+00
  0.00000000E+00  0.00000000E+00  0.00000000E+00
  0.00000000E+00  0.00000000E+00  0.00000000E+00
  0.00000000E+00  0.00000000E+00  0.00000000E+00
  0.00000000E+00  0.00000000E+00  0.00000000E+00
  0.00000000E+00  0.00000000E+00  0.00000000E+00
  0.00000000E+00  0.00000000E+00  0.00000000E+00
  0.00000000E+00  0.00000000E+00  0.00000000E+00
  0.00000000E+00  0.00000000E+00  0.00000000E+00
  0.00000000E+00  0.00000000E+00  0.00000000E+00
  0.00000000E+00  0.00000000E+00  0.00000000E+00
  0.00000000E+00  0.00000000E+00  0.00000000E+00
  0.00000000E+00  0.00000000E+00  0.00000000E+00
  0.00000000E+00  0.00000000E+00  0.00000000E+00
  0.00000000E+00  0.00000000E+00  0.00000000E+00
  0.00000000E+00  0.00000000E+00  0.00000000E+00
  0.00000000E+00  0.00000000E+00  0.00000000E+00
  0.00000000E+00  0.00000000E+00  0.00000000E+00
  0.00000000E+00  0.00000000E+00  0.00000000E+00
  0.00000000E+00  0.00000000E+00  0.00000000E+00
  0.00000000E+00  0.00000000E+00  0.00000000E+00
  0.00000000E+00  0.00000000E+00  0.00000000E+00
  0.00000000E+00  0.00000000E+00  0.00000000E+00
  0.00000000E+00  0.00000000E+00  0.00000000E+00
  0.00000000E+00  0.00000000E+00  0.00000000E+00
  0.00000000E+00  0.00000000E+00  0.00000000E+00
  0.00000000E+00  0.00000000E+00  0.00000000E+00
  0.00000000E+00  0.00000000E+00  0.00000000E+00
  0.00000000E+00  0.00000000E+00  0.00000000E+00
  0.00000000E+00  0.00000000E+00  0.00000000E+00
  0.00000000E+00  0.00000000E+00  0.00000000E+00
  0.00000000E+00  0.00000000E+00  0.00000000E+00
  0.00000000E+00  0.00000000E+00  0.00000000E+00
  0.00000000E+00  0.00000000E+00  0.00000000E+00
  0.00000000E+00  0.00000000E+00  0.00000000E+00
  0.00000000E+00  0.00000000E+00  0.00000000E+00
  0.00000000E+00  0.00000000E+00  0.00000000E+00
  0.00000000E+00  0.00000000E+00  0.00000000E+00
