Bi La Sn O  C  H                        
   1.00000000000000     
    29.0000000000000000    0.0000000000000000    0.0000000000000000
     0.2488180851000000   28.9989325590000000    0.0000000000000000
    -0.0631677343000000   -0.4515975666000000   28.9964147692999994
   Bi   La   Sn   O    C    H 
    22    23    23     2     1     1
Selective dynamics
Direct
  0.7591641858774244  0.4796169883947913  0.3986997525260559   T   T   T
  0.6466230396060015  0.6847981216524488  0.5513529974338391   T   T   T
  0.3601968078230120  0.4577163820136030  0.4292901656108580   T   T   T
  0.5497658992199109  0.7128251956163023  0.5846503730248341   T   T   T
  0.5915029568994470  0.5209714444905416  0.5841479689498996   F   F   F
  0.6395488555932166  0.6799497574820308  0.4453502173405154   T   T   T
  0.6959590894196198  0.5212259003203691  0.6538704848950546   T   T   T
  0.4862576935236462  0.7007088283050168  0.5000936937738646   T   T   T
  0.5004839460855024  0.5502791173970252  0.5477141156400123   F   F   F
  0.3252432400222673  0.4852642677400828  0.5746416141227954   T   T   T
  0.3815586957503094  0.6102998635547200  0.5352071648765446   T   T   T
  0.6667129484492236  0.4827404655721850  0.5105018184570156   F   F   F
  0.5763997220267569  0.4263140504383500  0.5448328182496311   F   F   F
  0.6691478472551443  0.3743420199973253  0.5059792159394325   T   T   T
  0.4633264723645228  0.3382651244608085  0.4993609148422349   T   T   T
  0.6484934028780529  0.5775373212088155  0.4602701624361103   F   F   F
  0.5594856215201892  0.4346701765722282  0.7499829203944554   T   T   T
  0.6016914025386085  0.3493007732377615  0.6659248886554749   T   T   T
  0.4926026858948708  0.2981497548200104  0.4104673122736523   T   T   T
  0.6595080445025441  0.6170154215538641  0.6669240046718240   T   T   T
  0.4911379975834471  0.4099949103945770  0.3053829034093316   T   T   T
  0.6222711674736379  0.3148055743317196  0.5703557925535178   T   T   T
  0.5383015103614496  0.6834350653127057  0.4047134887592493   T   T   T
  0.3908793541063962  0.4141480451446278  0.5281453694356810   T   T   T
  0.6264970941633952  0.5517754260617150  0.2821546799685550   T   T   T
  0.4710372020521431  0.4694615798257055  0.6943988650902145   T   T   T
  0.5683115009887700  0.5094300495444983  0.4784716241115703   F   F   F
  0.4203210565129183  0.5084107200613417  0.5018573595042781   F   F   F
  0.4525852357892785  0.4004007419534628  0.4062527654438102   T   T   T
  0.5615725711447417  0.3492011310372549  0.3534291041255271   T   T   T
  0.4108618741012022  0.5399089681013084  0.6095442907775881   T   T   T
  0.5999436099862053  0.4402746076915107  0.3051635214463463   T   T   T
  0.4545140825434195  0.5992747006656076  0.3636822115683133   T   T   T
  0.4178956253387539  0.4866225911032757  0.3405354077566609   T   T   T
  0.6618088699375513  0.4269487682818875  0.6033594440212000   T   T   T
  0.6733137724882811  0.5788354163365861  0.5641285919061706   T   T   T
  0.5256149591306970  0.5089593152355850  0.3281029775278690   T   T   T
  0.5661655049134438  0.3574788155257367  0.4688801589325242   T   T   T
  0.3151491670075303  0.5413452287142984  0.4916484222409542   T   T   T
  0.6608757391912042  0.4296739677820716  0.4149679696698163   T   T   T
  0.5660841929594156  0.6261437171197244  0.5094829013827464   F   F   F
  0.5962666944954382  0.5270977988284997  0.6898062604778475   T   T   T
  0.4693500622403748  0.6411649639107250  0.5885919218391377   T   T   T
  0.4624634917494153  0.6031897800917260  0.4639816590499740   T   T   T
  0.7160049449400779  0.5748621331950559  0.3831888403554997   T   T   T
  0.5499310510395361  0.5822218838566187  0.4076968008106903   F   F   F
  0.4794126430662260  0.5072205383607624  0.4190535757241776   F   F   F
  0.6949765558443433  0.4822714897361083  0.3237068223027102   T   T   T
  0.7520627646143158  0.4302470685773715  0.4872767894029332   T   T   T
  0.7481429553578970  0.5389148195470262  0.4854840757999028   T   T   T
  0.7488014579509398  0.4905557684079860  0.5722566502426121   T   T   T
  0.6476041450450395  0.4337474233142944  0.7073912041874750   T   T   T
  0.5767433047771168  0.7433255877480358  0.4934011347933850   T   T   T
  0.6192554540844384  0.5183157687966542  0.3801816896793397   F   F   F
  0.5056582409627384  0.5583337518679568  0.6497436456170496   T   T   T
  0.4922009500451665  0.4366758245867572  0.4933013002826740   F   F   F
  0.5608844484509063  0.4404139570509003  0.6454865549417619   F   F   F
  0.5768570160400986  0.6161373938839866  0.6139432794488133   T   T   T
  0.5430124609813245  0.6170314662831071  0.3119871663207475   T   T   T
  0.6261073679065461  0.6253140341756621  0.3600021804822549   T   T   T
  0.3759883749994886  0.5567038093858288  0.4128838783788472   T   T   T
  0.4723078164089713  0.4557257050327763  0.5877273803360978   F   F   F
  0.7267997390727934  0.6358942167126618  0.4847833743192466   T   T   T
  0.5033067857077881  0.3681798548740478  0.6866117828387933   T   T   T
  0.3813725456598520  0.4412618095504098  0.6404634696834242   T   T   T
  0.5544592502646992  0.4379899399457940  0.4037542370104745   F   F   F
  0.4362413706925820  0.3637553756253437  0.6122945269937130   T   T   T
  0.5286716162797399  0.3490884474852115  0.5787976668287292   T   T   T
  0.4372959346333862  0.4267005310858920  0.7559571427609212   T   T   T
  0.4599590684799891  0.3513263296616044  0.7568812728493471   T   T   T
  0.4390450520260937  0.3862597865452537  0.7732711396127206   T   T   T
  0.4201174286896751  0.3817257449359713  0.8062499702627040   T   T   T
 
  0.00000000E+00  0.00000000E+00  0.00000000E+00
  0.00000000E+00  0.00000000E+00  0.00000000E+00
  0.00000000E+00  0.00000000E+00  0.00000000E+00
  0.00000000E+00  0.00000000E+00  0.00000000E+00
  0.00000000E+00  0.00000000E+00  0.00000000E+00
  0.00000000E+00  0.00000000E+00  0.00000000E+00
  0.00000000E+00  0.00000000E+00  0.00000000E+00
  0.00000000E+00  0.00000000E+00  0.00000000E+00
  0.00000000E+00  0.00000000E+00  0.00000000E+00
  0.00000000E+00  0.00000000E+00  0.00000000E+00
  0.00000000E+00  0.00000000E+00  0.00000000E+00
  0.00000000E+00  0.00000000E+00  0.00000000E+00
  0.00000000E+00  0.00000000E+00  0.00000000E+00
  0.00000000E+00  0.00000000E+00  0.00000000E+00
  0.00000000E+00  0.00000000E+00  0.00000000E+00
  0.00000000E+00  0.00000000E+00  0.00000000E+00
  0.00000000E+00  0.00000000E+00  0.00000000E+00
  0.00000000E+00  0.00000000E+00  0.00000000E+00
  0.00000000E+00  0.00000000E+00  0.00000000E+00
  0.00000000E+00  0.00000000E+00  0.00000000E+00
  0.00000000E+00  0.00000000E+00  0.00000000E+00
  0.00000000E+00  0.00000000E+00  0.00000000E+00
  0.00000000E+00  0.00000000E+00  0.00000000E+00
  0.00000000E+00  0.00000000E+00  0.00000000E+00
  0.00000000E+00  0.00000000E+00  0.00000000E+00
  0.00000000E+00  0.00000000E+00  0.00000000E+00
  0.00000000E+00  0.00000000E+00  0.00000000E+00
  0.00000000E+00  0.00000000E+00  0.00000000E+00
  0.00000000E+00  0.00000000E+00  0.00000000E+00
  0.00000000E+00  0.00000000E+00  0.00000000E+00
  0.00000000E+00  0.00000000E+00  0.00000000E+00
  0.00000000E+00  0.00000000E+00  0.00000000E+00
  0.00000000E+00  0.00000000E+00  0.00000000E+00
  0.00000000E+00  0.00000000E+00  0.00000000E+00
  0.00000000E+00  0.00000000E+00  0.00000000E+00
  0.00000000E+00  0.00000000E+00  0.00000000E+00
  0.00000000E+00  0.00000000E+00  0.00000000E+00
  0.00000000E+00  0.00000000E+00  0.00000000E+00
  0.00000000E+00  0.00000000E+00  0.00000000E+00
  0.00000000E+00  0.00000000E+00  0.00000000E+00
  0.00000000E+00  0.00000000E+00  0.00000000E+00
  0.00000000E+00  0.00000000E+00  0.00000000E+00
  0.00000000E+00  0.00000000E+00  0.00000000E+00
  0.00000000E+00  0.00000000E+00  0.00000000E+00
  0.00000000E+00  0.00000000E+00  0.00000000E+00
  0.00000000E+00  0.00000000E+00  0.00000000E+00
  0.00000000E+00  0.00000000E+00  0.00000000E+00
  0.00000000E+00  0.00000000E+00  0.00000000E+00
  0.00000000E+00  0.00000000E+00  0.00000000E+00
  0.00000000E+00  0.00000000E+00  0.00000000E+00
  0.00000000E+00  0.00000000E+00  0.00000000E+00
  0.00000000E+00  0.00000000E+00  0.00000000E+00
  0.00000000E+00  0.00000000E+00  0.00000000E+00
  0.00000000E+00  0.00000000E+00  0.00000000E+00
  0.00000000E+00  0.00000000E+00  0.00000000E+00
  0.00000000E+00  0.00000000E+00  0.00000000E+00
  0.00000000E+00  0.00000000E+00  0.00000000E+00
  0.00000000E+00  0.00000000E+00  0.00000000E+00
  0.00000000E+00  0.00000000E+00  0.00000000E+00
  0.00000000E+00  0.00000000E+00  0.00000000E+00
  0.00000000E+00  0.00000000E+00  0.00000000E+00
  0.00000000E+00  0.00000000E+00  0.00000000E+00
  0.00000000E+00  0.00000000E+00  0.00000000E+00
  0.00000000E+00  0.00000000E+00  0.00000000E+00
  0.00000000E+00  0.00000000E+00  0.00000000E+00
  0.00000000E+00  0.00000000E+00  0.00000000E+00
  0.00000000E+00  0.00000000E+00  0.00000000E+00
  0.00000000E+00  0.00000000E+00  0.00000000E+00
  0.00000000E+00  0.00000000E+00  0.00000000E+00
  0.00000000E+00  0.00000000E+00  0.00000000E+00
  0.00000000E+00  0.00000000E+00  0.00000000E+00
  0.00000000E+00  0.00000000E+00  0.00000000E+00
