Bi La Sn O  C  H                        
   1.00000000000000     
    29.0000000000000000    0.0000000000000000    0.0000000000000000
     0.2488180851000000   28.9989325590000000    0.0000000000000000
    -0.0631677343000000   -0.4515975666000000   28.9964147692999994
   Bi   La   Sn   O    C    H 
    22    23    23     2     1     1
Selective dynamics
Direct
  0.7594997902329694  0.4786223633263789  0.3990049560419814   T   T   T
  0.6477567625118377  0.6849829063249133  0.5504336451713134   T   T   T
  0.3598352654924535  0.4592241033837016  0.4276503760772060   T   T   T
  0.5511508640159364  0.7135912651208817  0.5840794347113286   T   T   T
  0.5915029568994470  0.5209714444905416  0.5841479689498996   F   F   F
  0.6400480541270892  0.6801349916157723  0.4446440270522658   T   T   T
  0.6958870623979797  0.5221787735582861  0.6540264996625951   T   T   T
  0.4869960928959007  0.7019936639792609  0.4990110271218706   T   T   T
  0.5004839460855024  0.5502791173970252  0.5477141156400123   F   F   F
  0.3278736613862226  0.4844734521113619  0.5778691583084459   T   T   T
  0.3822574521676856  0.6084840673326534  0.5374290939061098   T   T   T
  0.6667129484492236  0.4827404655721850  0.5105018184570156   F   F   F
  0.5763997220267569  0.4263140504383500  0.5448328182496311   F   F   F
  0.6689729017067511  0.3756391813797401  0.5076798792872301   T   T   T
  0.4627901336634270  0.3394221764885940  0.4933797226203152   T   T   T
  0.6484934028780529  0.5775373212088155  0.4602701624361103   F   F   F
  0.5546072131150892  0.4368211997018051  0.7504026534319514   T   T   T
  0.5932593491351150  0.3497399861625469  0.6707514716470555   T   T   T
  0.4899998994125644  0.3028461514353755  0.4023947304625424   T   T   T
  0.6603402783779615  0.6177299838245275  0.6675774064582091   T   T   T
  0.4901410034192870  0.4126021732332224  0.3022688298606649   T   T   T
  0.6291689390649868  0.3196464723551593  0.5796457576390444   T   T   T
  0.5391088375320969  0.6838252725440644  0.4044434045269741   T   T   T
  0.3900818584507401  0.4147548881493179  0.5252476521163961   T   T   T
  0.6271589274179108  0.5522210080355362  0.2823573223574009   T   T   T
  0.4728522059988141  0.4800017352016080  0.6928712689550057   T   T   T
  0.5683115009887700  0.5094300495444983  0.4784716241115703   F   F   F
  0.4203210565129183  0.5084107200613417  0.5018573595042781   F   F   F
  0.4521246568161805  0.4037419563509075  0.4029801540343164   T   T   T
  0.5618937736926335  0.3510972155137027  0.3496591795958862   T   T   T
  0.4130532761315835  0.5386979394592741  0.6121977772866443   T   T   T
  0.5986376282098665  0.4422742215108763  0.3048482516169918   T   T   T
  0.4543748943629951  0.6008518302147020  0.3638894158704011   T   T   T
  0.4183584344420720  0.4896152155297211  0.3392115996785871   T   T   T
  0.6611863357181905  0.4287647137328928  0.6053586987493346   T   T   T
  0.6735028727664177  0.5789334799221437  0.5641669550196591   T   T   T
  0.5253529032393667  0.5101781975790362  0.3282329133340378   T   T   T
  0.5669692077708118  0.3534639635963573  0.4690066365340000   T   T   T
  0.3154050236975279  0.5397337385134968  0.4937393029677963   T   T   T
  0.6606988606851857  0.4296910638068357  0.4153025570542611   T   T   T
  0.5660841929594156  0.6261437171197244  0.5094829013827464   F   F   F
  0.5957673102490828  0.5276973316445693  0.6899383095560785   T   T   T
  0.4701330828334708  0.6426876110044050  0.5874109604263846   T   T   T
  0.4629876668146752  0.6037174017851769  0.4646231598097116   T   T   T
  0.7164305038806009  0.5741296880003294  0.3835776770616460   T   T   T
  0.5499310510395361  0.5822218838566187  0.4076968008106903   F   F   F
  0.4794126430662260  0.5072205383607624  0.4190535757241776   F   F   F
  0.6949823418108575  0.4815256455339115  0.3241229139795054   T   T   T
  0.7521368106662168  0.4296494747932692  0.4879110308409957   T   T   T
  0.7484599749121609  0.5390555917448704  0.4856629096510817   T   T   T
  0.7493484075564910  0.4904125703947578  0.5720648352597902   T   T   T
  0.6440847414761980  0.4322894836146708  0.7093998307759095   T   T   T
  0.5776511919618642  0.7435540510671695  0.4928341448062405   T   T   T
  0.6192554540844384  0.5183157687966542  0.3801816896793397   F   F   F
  0.5070707492091191  0.5650577604784962  0.6500662213814008   T   T   T
  0.4922009500451665  0.4366758245867572  0.4933013002826740   F   F   F
  0.5608844484509063  0.4404139570509003  0.6454865549417619   F   F   F
  0.5789975405813901  0.6174538951998724  0.6129304788875508   T   T   T
  0.5437022868438105  0.6180535154227460  0.3126397518801179   T   T   T
  0.6274168396260098  0.6250941454000293  0.3599042167426255   T   T   T
  0.3761513878342741  0.5576972708955265  0.4140972933159952   T   T   T
  0.4723078164089713  0.4557257050327763  0.5877273803360978   F   F   F
  0.7271142448388531  0.6358313019701445  0.4842219258390154   T   T   T
  0.4940870457391847  0.3769977004234303  0.6788485322070982   T   T   T
  0.3877506938508429  0.4354602014849681  0.6393227830381172   T   T   T
  0.5544592502646992  0.4379899399457940  0.4037542370104745   F   F   F
  0.4381407681591217  0.3576857520751941  0.5991075443636638   T   T   T
  0.5323606292259870  0.3408527777631915  0.5732882004467091   T   T   T
  0.5271290721143055  0.2567895736844840  0.5473761595439883   T   T   T
  0.5727364133584972  0.2734007209332541  0.4859630686858363   T   T   T
  0.5521786726967528  0.2458617791258707  0.5132626062911895   T   T   T
  0.5572732293147233  0.2084496638128611  0.5055568791324906   T   T   T
 
  0.00000000E+00  0.00000000E+00  0.00000000E+00
  0.00000000E+00  0.00000000E+00  0.00000000E+00
  0.00000000E+00  0.00000000E+00  0.00000000E+00
  0.00000000E+00  0.00000000E+00  0.00000000E+00
  0.00000000E+00  0.00000000E+00  0.00000000E+00
  0.00000000E+00  0.00000000E+00  0.00000000E+00
  0.00000000E+00  0.00000000E+00  0.00000000E+00
  0.00000000E+00  0.00000000E+00  0.00000000E+00
  0.00000000E+00  0.00000000E+00  0.00000000E+00
  0.00000000E+00  0.00000000E+00  0.00000000E+00
  0.00000000E+00  0.00000000E+00  0.00000000E+00
  0.00000000E+00  0.00000000E+00  0.00000000E+00
  0.00000000E+00  0.00000000E+00  0.00000000E+00
  0.00000000E+00  0.00000000E+00  0.00000000E+00
  0.00000000E+00  0.00000000E+00  0.00000000E+00
  0.00000000E+00  0.00000000E+00  0.00000000E+00
  0.00000000E+00  0.00000000E+00  0.00000000E+00
  0.00000000E+00  0.00000000E+00  0.00000000E+00
  0.00000000E+00  0.00000000E+00  0.00000000E+00
  0.00000000E+00  0.00000000E+00  0.00000000E+00
  0.00000000E+00  0.00000000E+00  0.00000000E+00
  0.00000000E+00  0.00000000E+00  0.00000000E+00
  0.00000000E+00  0.00000000E+00  0.00000000E+00
  0.00000000E+00  0.00000000E+00  0.00000000E+00
  0.00000000E+00  0.00000000E+00  0.00000000E+00
  0.00000000E+00  0.00000000E+00  0.00000000E+00
  0.00000000E+00  0.00000000E+00  0.00000000E+00
  0.00000000E+00  0.00000000E+00  0.00000000E+00
  0.00000000E+00  0.00000000E+00  0.00000000E+00
  0.00000000E+00  0.00000000E+00  0.00000000E+00
  0.00000000E+00  0.00000000E+00  0.00000000E+00
  0.00000000E+00  0.00000000E+00  0.00000000E+00
  0.00000000E+00  0.00000000E+00  0.00000000E+00
  0.00000000E+00  0.00000000E+00  0.00000000E+00
  0.00000000E+00  0.00000000E+00  0.00000000E+00
  0.00000000E+00  0.00000000E+00  0.00000000E+00
  0.00000000E+00  0.00000000E+00  0.00000000E+00
  0.00000000E+00  0.00000000E+00  0.00000000E+00
  0.00000000E+00  0.00000000E+00  0.00000000E+00
  0.00000000E+00  0.00000000E+00  0.00000000E+00
  0.00000000E+00  0.00000000E+00  0.00000000E+00
  0.00000000E+00  0.00000000E+00  0.00000000E+00
  0.00000000E+00  0.00000000E+00  0.00000000E+00
  0.00000000E+00  0.00000000E+00  0.00000000E+00
  0.00000000E+00  0.00000000E+00  0.00000000E+00
  0.00000000E+00  0.00000000E+00  0.00000000E+00
  0.00000000E+00  0.00000000E+00  0.00000000E+00
  0.00000000E+00  0.00000000E+00  0.00000000E+00
  0.00000000E+00  0.00000000E+00  0.00000000E+00
  0.00000000E+00  0.00000000E+00  0.00000000E+00
  0.00000000E+00  0.00000000E+00  0.00000000E+00
  0.00000000E+00  0.00000000E+00  0.00000000E+00
  0.00000000E+00  0.00000000E+00  0.00000000E+00
  0.00000000E+00  0.00000000E+00  0.00000000E+00
  0.00000000E+00  0.00000000E+00  0.00000000E+00
  0.00000000E+00  0.00000000E+00  0.00000000E+00
  0.00000000E+00  0.00000000E+00  0.00000000E+00
  0.00000000E+00  0.00000000E+00  0.00000000E+00
  0.00000000E+00  0.00000000E+00  0.00000000E+00
  0.00000000E+00  0.00000000E+00  0.00000000E+00
  0.00000000E+00  0.00000000E+00  0.00000000E+00
  0.00000000E+00  0.00000000E+00  0.00000000E+00
  0.00000000E+00  0.00000000E+00  0.00000000E+00
  0.00000000E+00  0.00000000E+00  0.00000000E+00
  0.00000000E+00  0.00000000E+00  0.00000000E+00
  0.00000000E+00  0.00000000E+00  0.00000000E+00
  0.00000000E+00  0.00000000E+00  0.00000000E+00
  0.00000000E+00  0.00000000E+00  0.00000000E+00
  0.00000000E+00  0.00000000E+00  0.00000000E+00
  0.00000000E+00  0.00000000E+00  0.00000000E+00
  0.00000000E+00  0.00000000E+00  0.00000000E+00
  0.00000000E+00  0.00000000E+00  0.00000000E+00
