Bi La Sn O  C  H                        
   1.00000000000000     
    29.0000000000000000    0.0000000000000000    0.0000000000000000
     0.2488180851000000   28.9989325590000000    0.0000000000000000
    -0.0631677343000000   -0.4515975666000000   28.9964147692999994
   Bi   La   Sn   O    C    H 
    22    23    23     2     1     1
Selective dynamics
Direct
  0.7569010043082427  0.4779536594005924  0.3966388042070380   T   T   T
  0.6451433887911880  0.6846275958556826  0.5541803672289850   T   T   T
  0.3568310805426323  0.4551883140449426  0.4334765519382979   T   T   T
  0.5465865499534345  0.7121955185916317  0.5864381352070791   T   T   T
  0.5915029568994470  0.5209714444905416  0.5841479689498996   F   F   F
  0.6387799905602908  0.6804390531369228  0.4451707223391488   T   T   T
  0.6966265791716302  0.5250676884470895  0.6545310551505336   T   T   T
  0.4857703097415465  0.7023562740359584  0.5015701559023297   T   T   T
  0.5004839460855024  0.5502791173970252  0.5477141156400123   F   F   F
  0.3223472359060867  0.4828633295215537  0.5754470766991648   T   T   T
  0.3754237371091032  0.6074006695772738  0.5217587579362258   T   T   T
  0.6667129484492236  0.4827404655721850  0.5105018184570156   F   F   F
  0.5763997220267569  0.4263140504383500  0.5448328182496311   F   F   F
  0.6701569204460972  0.3751026804817037  0.5079758774788661   T   T   T
  0.4649601394548821  0.3395748842177058  0.5019721793946922   T   T   T
  0.6484934028780529  0.5775373212088155  0.4602701624361103   F   F   F
  0.5608066908261669  0.4390945734268924  0.7495291026273454   T   T   T
  0.6089146526194767  0.3530200371315388  0.6688907794579617   T   T   T
  0.4902836291929277  0.3003095354546570  0.4110426832008565   T   T   T
  0.6582351656418821  0.6205745994838194  0.6648813566753239   T   T   T
  0.4805670770134771  0.4186586926435634  0.3059681903959989   T   T   T
  0.6216153930976219  0.3169334789077224  0.5724417421675565   T   T   T
  0.5368099324874390  0.6842352914730937  0.4058525453252070   T   T   T
  0.3908643085723323  0.4143004855130316  0.5307977072328549   T   T   T
  0.6274141248174380  0.5536763786050903  0.2833012110428258   T   T   T
  0.4714562107446435  0.4666084153564415  0.6923194162054838   T   T   T
  0.5683115009887700  0.5094300495444983  0.4784716241115703   F   F   F
  0.4203210565129183  0.5084107200613417  0.5018573595042781   F   F   F
  0.4492247592253503  0.4019236564049571  0.4079146482550642   T   T   T
  0.5516210561683602  0.3528594818992338  0.3476478372757091   T   T   T
  0.4066156430254960  0.5430952269939074  0.6051425822696267   T   T   T
  0.5935227353956605  0.4449270779567874  0.3030307183648054   T   T   T
  0.4534888202405688  0.6021499557291368  0.3671432399593491   T   T   T
  0.4087856065713574  0.4944736154201992  0.3492471169823297   T   T   T
  0.6615536433633249  0.4307380122465247  0.6050246668257818   T   T   T
  0.6722705392397349  0.5792340707710496  0.5637405306619695   T   T   T
  0.5246463236815753  0.5116290838867567  0.3284609615777730   T   T   T
  0.5664402951229722  0.3574917163092842  0.4682614383451053   T   T   T
  0.3060164436384615  0.5318438234726997  0.4898874109005752   T   T   T
  0.6598242710513949  0.4297435893656899  0.4159630180304551   T   T   T
  0.5660841929594156  0.6261437171197244  0.5094829013827464   F   F   F
  0.5955958834515631  0.5301436547285013  0.6888057520387569   T   T   T
  0.4638150567339669  0.6410831574561725  0.5880380717528666   T   T   T
  0.4680870727651202  0.6041841844349354  0.4656137159038452   T   T   T
  0.7149215016014907  0.5733394980482692  0.3817820061351545   T   T   T
  0.5499310510395361  0.5822218838566187  0.4076968008106903   F   F   F
  0.4794126430662260  0.5072205383607624  0.4190535757241776   F   F   F
  0.6919067106402037  0.4783404082648994  0.3220195884565356   T   T   T
  0.7529690210559791  0.4315276575884447  0.4873472689133238   T   T   T
  0.7480684865446915  0.5391868418467949  0.4839485600391442   T   T   T
  0.7486694391838198  0.4930595283512023  0.5721387281815614   T   T   T
  0.6501808672095862  0.4396053389887383  0.7094817623149919   T   T   T
  0.5775071150863665  0.7423225367825784  0.4957843972209703   T   T   T
  0.6192554540844384  0.5183157687966542  0.3801816896793397   F   F   F
  0.5033143097704723  0.5544840108921724  0.6473983300905130   T   T   T
  0.4922009500451665  0.4366758245867572  0.4933013002826740   F   F   F
  0.5608844484509063  0.4404139570509003  0.6454865549417619   F   F   F
  0.5737285607742426  0.6157572774455761  0.6137202125905202   T   T   T
  0.5429222893585717  0.6193137492930002  0.3136440260246459   T   T   T
  0.6269683387364118  0.6268815692218971  0.3600964884418666   T   T   T
  0.3735799026007685  0.5697231753199854  0.4243135250227016   T   T   T
  0.4723078164089713  0.4557257050327763  0.5877273803360978   F   F   F
  0.7252904764680318  0.6362383244002077  0.4853013294958723   T   T   T
  0.5086789211576946  0.3649739334397770  0.6885250172317252   T   T   T
  0.3808061317686587  0.4456134652496761  0.6429348758098556   T   T   T
  0.5544592502646992  0.4379899399457940  0.4037542370104745   F   F   F
  0.4361136418171883  0.3677431256189331  0.6176238042280596   T   T   T
  0.5284232560827015  0.3500750329703788  0.5825938916509544   T   T   T
  0.3983875690684145  0.6925553261039985  0.6182913167542837   T   T   T
  0.3919197410808036  0.6191922619061512  0.6411926791624247   T   T   T
  0.3771935616281114  0.6614211244431635  0.6391701934370597   T   T   T
  0.3441741341243733  0.6695978802799960  0.6568922550709251   T   T   T
 
  0.00000000E+00  0.00000000E+00  0.00000000E+00
  0.00000000E+00  0.00000000E+00  0.00000000E+00
  0.00000000E+00  0.00000000E+00  0.00000000E+00
  0.00000000E+00  0.00000000E+00  0.00000000E+00
  0.00000000E+00  0.00000000E+00  0.00000000E+00
  0.00000000E+00  0.00000000E+00  0.00000000E+00
  0.00000000E+00  0.00000000E+00  0.00000000E+00
  0.00000000E+00  0.00000000E+00  0.00000000E+00
  0.00000000E+00  0.00000000E+00  0.00000000E+00
  0.00000000E+00  0.00000000E+00  0.00000000E+00
  0.00000000E+00  0.00000000E+00  0.00000000E+00
  0.00000000E+00  0.00000000E+00  0.00000000E+00
  0.00000000E+00  0.00000000E+00  0.00000000E+00
  0.00000000E+00  0.00000000E+00  0.00000000E+00
  0.00000000E+00  0.00000000E+00  0.00000000E+00
  0.00000000E+00  0.00000000E+00  0.00000000E+00
  0.00000000E+00  0.00000000E+00  0.00000000E+00
  0.00000000E+00  0.00000000E+00  0.00000000E+00
  0.00000000E+00  0.00000000E+00  0.00000000E+00
  0.00000000E+00  0.00000000E+00  0.00000000E+00
  0.00000000E+00  0.00000000E+00  0.00000000E+00
  0.00000000E+00  0.00000000E+00  0.00000000E+00
  0.00000000E+00  0.00000000E+00  0.00000000E+00
  0.00000000E+00  0.00000000E+00  0.00000000E+00
  0.00000000E+00  0.00000000E+00  0.00000000E+00
  0.00000000E+00  0.00000000E+00  0.00000000E+00
  0.00000000E+00  0.00000000E+00  0.00000000E+00
  0.00000000E+00  0.00000000E+00  0.00000000E+00
  0.00000000E+00  0.00000000E+00  0.00000000E+00
  0.00000000E+00  0.00000000E+00  0.00000000E+00
  0.00000000E+00  0.00000000E+00  0.00000000E+00
  0.00000000E+00  0.00000000E+00  0.00000000E+00
  0.00000000E+00  0.00000000E+00  0.00000000E+00
  0.00000000E+00  0.00000000E+00  0.00000000E+00
  0.00000000E+00  0.00000000E+00  0.00000000E+00
  0.00000000E+00  0.00000000E+00  0.00000000E+00
  0.00000000E+00  0.00000000E+00  0.00000000E+00
  0.00000000E+00  0.00000000E+00  0.00000000E+00
  0.00000000E+00  0.00000000E+00  0.00000000E+00
  0.00000000E+00  0.00000000E+00  0.00000000E+00
  0.00000000E+00  0.00000000E+00  0.00000000E+00
  0.00000000E+00  0.00000000E+00  0.00000000E+00
  0.00000000E+00  0.00000000E+00  0.00000000E+00
  0.00000000E+00  0.00000000E+00  0.00000000E+00
  0.00000000E+00  0.00000000E+00  0.00000000E+00
  0.00000000E+00  0.00000000E+00  0.00000000E+00
  0.00000000E+00  0.00000000E+00  0.00000000E+00
  0.00000000E+00  0.00000000E+00  0.00000000E+00
  0.00000000E+00  0.00000000E+00  0.00000000E+00
  0.00000000E+00  0.00000000E+00  0.00000000E+00
  0.00000000E+00  0.00000000E+00  0.00000000E+00
  0.00000000E+00  0.00000000E+00  0.00000000E+00
  0.00000000E+00  0.00000000E+00  0.00000000E+00
  0.00000000E+00  0.00000000E+00  0.00000000E+00
  0.00000000E+00  0.00000000E+00  0.00000000E+00
  0.00000000E+00  0.00000000E+00  0.00000000E+00
  0.00000000E+00  0.00000000E+00  0.00000000E+00
  0.00000000E+00  0.00000000E+00  0.00000000E+00
  0.00000000E+00  0.00000000E+00  0.00000000E+00
  0.00000000E+00  0.00000000E+00  0.00000000E+00
  0.00000000E+00  0.00000000E+00  0.00000000E+00
  0.00000000E+00  0.00000000E+00  0.00000000E+00
  0.00000000E+00  0.00000000E+00  0.00000000E+00
  0.00000000E+00  0.00000000E+00  0.00000000E+00
  0.00000000E+00  0.00000000E+00  0.00000000E+00
  0.00000000E+00  0.00000000E+00  0.00000000E+00
  0.00000000E+00  0.00000000E+00  0.00000000E+00
  0.00000000E+00  0.00000000E+00  0.00000000E+00
  0.00000000E+00  0.00000000E+00  0.00000000E+00
  0.00000000E+00  0.00000000E+00  0.00000000E+00
  0.00000000E+00  0.00000000E+00  0.00000000E+00
  0.00000000E+00  0.00000000E+00  0.00000000E+00
