Bi La Sn O  C  H                        
   1.00000000000000     
    29.0000000000000000    0.0000000000000000    0.0000000000000000
     0.2488180851000000   28.9989325590000000    0.0000000000000000
    -0.0631677343000000   -0.4515975666000000   28.9964147692999994
   Bi   La   Sn   O    C    H 
    22    23    23     2     1     1
Selective dynamics
Direct
  0.7605069260684365  0.4756780352722971  0.4003526048063828   T   T   T
  0.6479915937181713  0.6844656626917335  0.5504555905545969   T   T   T
  0.3604172217103743  0.4596133069528419  0.4264311341886501   T   T   T
  0.5524851796978216  0.7138918708862108  0.5840545874916716   T   T   T
  0.5915029568994470  0.5209714444905416  0.5841479689498996   F   F   F
  0.6406553882942517  0.6804469056082340  0.4449760001944023   T   T   T
  0.6950856872976560  0.5199456162104060  0.6537349196530774   T   T   T
  0.4878250821588706  0.7015367288415341  0.4983694809448730   T   T   T
  0.5004839460855024  0.5502791173970252  0.5477141156400123   F   F   F
  0.3279965870666477  0.4856067154401411  0.5771156798839466   T   T   T
  0.3835706081720747  0.6094448192426180  0.5379489619041102   T   T   T
  0.6667129484492236  0.4827404655721850  0.5105018184570156   F   F   F
  0.5763997220267569  0.4263140504383500  0.5448328182496311   F   F   F
  0.6675601095071371  0.3733699316850899  0.5070021454370440   T   T   T
  0.4604110737623286  0.3373398041362680  0.4940997145027695   T   T   T
  0.6484934028780529  0.5775373212088155  0.4602701624361103   F   F   F
  0.5544829603064566  0.4339365698653279  0.7493505265799126   T   T   T
  0.5915273070876245  0.3489165971937953  0.6675513968774194   T   T   T
  0.4927318849560519  0.3006515751431570  0.4045569941295350   T   T   T
  0.6608770230235285  0.6158677762171170  0.6678675923810898   T   T   T
  0.4934345210601869  0.4105351588404459  0.3052497702358140   T   T   T
  0.6193748375348910  0.3162512542378633  0.5731979039140919   T   T   T
  0.5391794123936522  0.6855745064735820  0.4017845814063358   T   T   T
  0.3898244155558582  0.4155902698087861  0.5246759835183532   T   T   T
  0.6306438956514767  0.5513691427012777  0.2827684786132776   T   T   T
  0.4730194828748721  0.4805838640030766  0.6927732691429997   T   T   T
  0.5683115009887700  0.5094300495444983  0.4784716241115703   F   F   F
  0.4203210565129183  0.5084107200613417  0.5018573595042781   F   F   F
  0.4525802898028919  0.4020916626367668  0.4044664434394852   T   T   T
  0.5658733009688517  0.3494479101280238  0.3524520233189884   T   T   T
  0.4133589462835955  0.5393825289260241  0.6122946484424701   T   T   T
  0.6002513470120747  0.4415702861887068  0.3055020316822719   T   T   T
  0.4555536626466842  0.6054834126420839  0.3636510129197142   T   T   T
  0.4201794641414409  0.4883079970194166  0.3384816938589962   T   T   T
  0.6605654081088098  0.4256957552872775  0.6047024104375232   T   T   T
  0.6743234364670645  0.5782726984437688  0.5641854458157253   T   T   T
  0.5262004572415042  0.5099279852339175  0.3277330598451896   T   T   T
  0.5647264493842449  0.3565758719712115  0.4691266528310730   T   T   T
  0.3177017181469041  0.5412372073311670  0.4926635966926105   T   T   T
  0.6598192923453904  0.4285551133743892  0.4157371682788279   T   T   T
  0.5660841929594156  0.6261437171197244  0.5094829013827464   F   F   F
  0.5957144405869286  0.5267949116289180  0.6902749538197518   T   T   T
  0.4717181182816462  0.6432943008168961  0.5877010525437731   T   T   T
  0.4628910612511368  0.6033259138482415  0.4645363253179565   T   T   T
  0.7179636933608068  0.5718487811582171  0.3846241555328013   T   T   T
  0.5499310510395361  0.5822218838566187  0.4076968008106903   F   F   F
  0.4794126430662260  0.5072205383607624  0.4190535757241776   F   F   F
  0.6961973382815837  0.4797654386628550  0.3257449887075175   T   T   T
  0.7509431001791036  0.4269524449713499  0.4887977732579020   T   T   T
  0.7494116253584753  0.5368064273099469  0.4864340606037356   T   T   T
  0.7487741407959411  0.4878545670014627  0.5725630432841100   T   T   T
  0.6441711168532959  0.4312268653744664  0.7085031822514377   T   T   T
  0.5780519782742114  0.7436415323640266  0.4924369290912802   T   T   T
  0.6192554540844384  0.5183157687966542  0.3801816896793397   F   F   F
  0.5075914044418903  0.5652821049412301  0.6502615986853508   T   T   T
  0.4922009500451665  0.4366758245867572  0.4933013002826740   F   F   F
  0.5608844484509063  0.4404139570509003  0.6454865549417619   F   F   F
  0.5798036821211273  0.6176083027130659  0.6128933114466952   T   T   T
  0.5477080311938121  0.6157453844280485  0.3129779974503147   T   T   T
  0.6302699713152097  0.6244206172772832  0.3610848597885850   T   T   T
  0.3783008409881226  0.5574484618129981  0.4123560765353566   T   T   T
  0.4723078164089713  0.4557257050327763  0.5877273803360978   F   F   F
  0.7279955241913331  0.6341871407849413  0.4839101264310920   T   T   T
  0.4916442387442833  0.3776354352952832  0.6768006500521732   T   T   T
  0.3871592531577744  0.4370472549706697  0.6398580392769492   T   T   T
  0.5544592502646992  0.4379899399457940  0.4037542370104745   F   F   F
  0.4299061167222419  0.3558695092690151  0.6011783038112651   T   T   T
  0.5245736272566143  0.3494727453464682  0.5748051557559746   T   T   T
  0.4555012225037334  0.6899730978886917  0.3535694883217952   T   T   T
  0.5062298041603388  0.7482784495681446  0.3530725420503791   T   T   T
  0.4680758082913885  0.7305207616675429  0.3416717262394016   T   T   T
  0.4436607808904026  0.7507884575224291  0.3203929259925765   T   T   T
 
  0.00000000E+00  0.00000000E+00  0.00000000E+00
  0.00000000E+00  0.00000000E+00  0.00000000E+00
  0.00000000E+00  0.00000000E+00  0.00000000E+00
  0.00000000E+00  0.00000000E+00  0.00000000E+00
  0.00000000E+00  0.00000000E+00  0.00000000E+00
  0.00000000E+00  0.00000000E+00  0.00000000E+00
  0.00000000E+00  0.00000000E+00  0.00000000E+00
  0.00000000E+00  0.00000000E+00  0.00000000E+00
  0.00000000E+00  0.00000000E+00  0.00000000E+00
  0.00000000E+00  0.00000000E+00  0.00000000E+00
  0.00000000E+00  0.00000000E+00  0.00000000E+00
  0.00000000E+00  0.00000000E+00  0.00000000E+00
  0.00000000E+00  0.00000000E+00  0.00000000E+00
  0.00000000E+00  0.00000000E+00  0.00000000E+00
  0.00000000E+00  0.00000000E+00  0.00000000E+00
  0.00000000E+00  0.00000000E+00  0.00000000E+00
  0.00000000E+00  0.00000000E+00  0.00000000E+00
  0.00000000E+00  0.00000000E+00  0.00000000E+00
  0.00000000E+00  0.00000000E+00  0.00000000E+00
  0.00000000E+00  0.00000000E+00  0.00000000E+00
  0.00000000E+00  0.00000000E+00  0.00000000E+00
  0.00000000E+00  0.00000000E+00  0.00000000E+00
  0.00000000E+00  0.00000000E+00  0.00000000E+00
  0.00000000E+00  0.00000000E+00  0.00000000E+00
  0.00000000E+00  0.00000000E+00  0.00000000E+00
  0.00000000E+00  0.00000000E+00  0.00000000E+00
  0.00000000E+00  0.00000000E+00  0.00000000E+00
  0.00000000E+00  0.00000000E+00  0.00000000E+00
  0.00000000E+00  0.00000000E+00  0.00000000E+00
  0.00000000E+00  0.00000000E+00  0.00000000E+00
  0.00000000E+00  0.00000000E+00  0.00000000E+00
  0.00000000E+00  0.00000000E+00  0.00000000E+00
  0.00000000E+00  0.00000000E+00  0.00000000E+00
  0.00000000E+00  0.00000000E+00  0.00000000E+00
  0.00000000E+00  0.00000000E+00  0.00000000E+00
  0.00000000E+00  0.00000000E+00  0.00000000E+00
  0.00000000E+00  0.00000000E+00  0.00000000E+00
  0.00000000E+00  0.00000000E+00  0.00000000E+00
  0.00000000E+00  0.00000000E+00  0.00000000E+00
  0.00000000E+00  0.00000000E+00  0.00000000E+00
  0.00000000E+00  0.00000000E+00  0.00000000E+00
  0.00000000E+00  0.00000000E+00  0.00000000E+00
  0.00000000E+00  0.00000000E+00  0.00000000E+00
  0.00000000E+00  0.00000000E+00  0.00000000E+00
  0.00000000E+00  0.00000000E+00  0.00000000E+00
  0.00000000E+00  0.00000000E+00  0.00000000E+00
  0.00000000E+00  0.00000000E+00  0.00000000E+00
  0.00000000E+00  0.00000000E+00  0.00000000E+00
  0.00000000E+00  0.00000000E+00  0.00000000E+00
  0.00000000E+00  0.00000000E+00  0.00000000E+00
  0.00000000E+00  0.00000000E+00  0.00000000E+00
  0.00000000E+00  0.00000000E+00  0.00000000E+00
  0.00000000E+00  0.00000000E+00  0.00000000E+00
  0.00000000E+00  0.00000000E+00  0.00000000E+00
  0.00000000E+00  0.00000000E+00  0.00000000E+00
  0.00000000E+00  0.00000000E+00  0.00000000E+00
  0.00000000E+00  0.00000000E+00  0.00000000E+00
  0.00000000E+00  0.00000000E+00  0.00000000E+00
  0.00000000E+00  0.00000000E+00  0.00000000E+00
  0.00000000E+00  0.00000000E+00  0.00000000E+00
  0.00000000E+00  0.00000000E+00  0.00000000E+00
  0.00000000E+00  0.00000000E+00  0.00000000E+00
  0.00000000E+00  0.00000000E+00  0.00000000E+00
  0.00000000E+00  0.00000000E+00  0.00000000E+00
  0.00000000E+00  0.00000000E+00  0.00000000E+00
  0.00000000E+00  0.00000000E+00  0.00000000E+00
  0.00000000E+00  0.00000000E+00  0.00000000E+00
  0.00000000E+00  0.00000000E+00  0.00000000E+00
  0.00000000E+00  0.00000000E+00  0.00000000E+00
  0.00000000E+00  0.00000000E+00  0.00000000E+00
  0.00000000E+00  0.00000000E+00  0.00000000E+00
  0.00000000E+00  0.00000000E+00  0.00000000E+00
