Bi La Sn O  C  H                        
   1.00000000000000     
    29.0000000000000000    0.0000000000000000    0.0000000000000000
     0.2488180851000000   28.9989325590000000    0.0000000000000000
    -0.0631677343000000   -0.4515975666000000   28.9964147692999994
   Bi   La   Sn   O    C    H 
    22    23    23     2     1     1
Selective dynamics
Direct
  0.7590935934373645  0.4773920222321689  0.3997979958764126   T   T   T
  0.6464601846125083  0.6845806824187031  0.5530967749136340   T   T   T
  0.3591487971379642  0.4599827102667550  0.4276422481734606   T   T   T
  0.5497508292060851  0.7129942696742140  0.5854973344012403   T   T   T
  0.5915029568994470  0.5209714444905416  0.5841479689498996   F   F   F
  0.6402709143676049  0.6808748070789356  0.4462543782613915   T   T   T
  0.6968698034936960  0.5256541103167152  0.6548637862007352   T   T   T
  0.4865835194462512  0.7014897618952607  0.5002782006536591   T   T   T
  0.5004839460855024  0.5502791173970252  0.5477141156400123   F   F   F
  0.3252905904459303  0.4852465835118936  0.5746691752984907   T   T   T
  0.3817563980563635  0.6098355105418645  0.5353117673689718   T   T   T
  0.6667129484492236  0.4827404655721850  0.5105018184570156   F   F   F
  0.5763997220267569  0.4263140504383500  0.5448328182496311   F   F   F
  0.6688168572413352  0.3759849802824165  0.5089179117285099   T   T   T
  0.4640142226770657  0.3394948711643948  0.4973781090242291   T   T   T
  0.6484934028780529  0.5775373212088155  0.4602701624361103   F   F   F
  0.5568131974590994  0.4387001700217179  0.7499838628549086   T   T   T
  0.6035210894213557  0.3531419738698400  0.6741560646348738   T   T   T
  0.4894310144270911  0.3025082138275114  0.4054796007484252   T   T   T
  0.6591380750036737  0.6209782564772898  0.6656015714174358   T   T   T
  0.4912432500146605  0.4116069264967163  0.3053206335493289   T   T   T
  0.6311628879755530  0.3201136311484851  0.5818357875233584   T   T   T
  0.5393038839826138  0.6839845851188594  0.4055406347055168   T   T   T
  0.3904609823110854  0.4151582630184699  0.5254337831689988   T   T   T
  0.6286471743070162  0.5527722058330173  0.2832278617476314   T   T   T
  0.4714771241421584  0.4720434564815185  0.6922610415590486   T   T   T
  0.5683115009887700  0.5094300495444983  0.4784716241115703   F   F   F
  0.4203210565129183  0.5084107200613417  0.5018573595042781   F   F   F
  0.4512646068448144  0.4030763861293483  0.4048042710472188   T   T   T
  0.5627902109429579  0.3491780791650640  0.3521868031468658   T   T   T
  0.4108363575257571  0.5392391802584487  0.6098413634664209   T   T   T
  0.5987421631107765  0.4414749436068591  0.3054955833526388   T   T   T
  0.4551482133891164  0.6013172964388063  0.3633116620781369   T   T   T
  0.4186892643193612  0.4893209095350076  0.3393390266780758   T   T   T
  0.6614149176551480  0.4314549808005290  0.6060649158002647   T   T   T
  0.6728083104602262  0.5787396897590297  0.5639774559333028   T   T   T
  0.5256590433008469  0.5106380038834050  0.3279769293232312   T   T   T
  0.5671156499679207  0.3539550582001892  0.4696301337327801   T   T   T
  0.3148247977617801  0.5414975606997584  0.4915699959333633   T   T   T
  0.6602538324407470  0.4290749514084111  0.4158866266899511   T   T   T
  0.5660841929594156  0.6261437171197244  0.5094829013827464   F   F   F
  0.5959989427586233  0.5294461998513763  0.6893773997600477   T   T   T
  0.4691705741352518  0.6413376391846342  0.5883389765330540   T   T   T
  0.4635338977289978  0.6036292025644233  0.4643725086422902   T   T   T
  0.7169486227680227  0.5732764239023668  0.3840651030269162   T   T   T
  0.5499310510395361  0.5822218838566187  0.4076968008106903   F   F   F
  0.4794126430662260  0.5072205383607624  0.4190535757241776   F   F   F
  0.6949794413963322  0.4804992595540632  0.3249409670829070   T   T   T
  0.7522277519756803  0.4296271505298235  0.4894189651914014   T   T   T
  0.7485072910673118  0.5392227359819842  0.4859476115572350   T   T   T
  0.7491183623559997  0.4916627506057222  0.5726822638078621   T   T   T
  0.6474796672637835  0.4381605125383504  0.7105486779403207   T   T   T
  0.5772778874994132  0.7433057001079022  0.4943719141882730   T   T   T
  0.6192554540844384  0.5183157687966542  0.3801816896793397   F   F   F
  0.5046534802695702  0.5600208419886532  0.6501358207857629   T   T   T
  0.4922009500451665  0.4366758245867572  0.4933013002826740   F   F   F
  0.5608844484509063  0.4404139570509003  0.6454865549417619   F   F   F
  0.5763283040257334  0.6162116898581886  0.6133882947069141   T   T   T
  0.5455231902623284  0.6187813013489211  0.3132943725756750   T   T   T
  0.6286910047030776  0.6257244955209521  0.3614425515956463   T   T   T
  0.3771875056285890  0.5582192539835612  0.4133260122905589   T   T   T
  0.4723078164089713  0.4557257050327763  0.5877273803360978   F   F   F
  0.7268738387228022  0.6359383235422125  0.4853931246529563   T   T   T
  0.5028722227749438  0.3694082878981638  0.6812597914756150   T   T   T
  0.3833171692030743  0.4380478835035300  0.6377673969380765   T   T   T
  0.5544592502646992  0.4379899399457940  0.4037542370104745   F   F   F
  0.4386000986785590  0.3616697260069733  0.6043321445863037   T   T   T
  0.5341869654206732  0.3418243940372126  0.5771346746728960   T   T   T
  0.5745505347041329  0.2745288433881541  0.4891592513844130   T   T   T
  0.5298324543142224  0.2584726332138568  0.5514446054649360   T   T   T
  0.5548923037401211  0.2473105239545059  0.5173693152499264   T   T   T
  0.5610103324126305  0.2098613076784250  0.5108438756832140   T   T   T
 
  0.00000000E+00  0.00000000E+00  0.00000000E+00
  0.00000000E+00  0.00000000E+00  0.00000000E+00
  0.00000000E+00  0.00000000E+00  0.00000000E+00
  0.00000000E+00  0.00000000E+00  0.00000000E+00
  0.00000000E+00  0.00000000E+00  0.00000000E+00
  0.00000000E+00  0.00000000E+00  0.00000000E+00
  0.00000000E+00  0.00000000E+00  0.00000000E+00
  0.00000000E+00  0.00000000E+00  0.00000000E+00
  0.00000000E+00  0.00000000E+00  0.00000000E+00
  0.00000000E+00  0.00000000E+00  0.00000000E+00
  0.00000000E+00  0.00000000E+00  0.00000000E+00
  0.00000000E+00  0.00000000E+00  0.00000000E+00
  0.00000000E+00  0.00000000E+00  0.00000000E+00
  0.00000000E+00  0.00000000E+00  0.00000000E+00
  0.00000000E+00  0.00000000E+00  0.00000000E+00
  0.00000000E+00  0.00000000E+00  0.00000000E+00
  0.00000000E+00  0.00000000E+00  0.00000000E+00
  0.00000000E+00  0.00000000E+00  0.00000000E+00
  0.00000000E+00  0.00000000E+00  0.00000000E+00
  0.00000000E+00  0.00000000E+00  0.00000000E+00
  0.00000000E+00  0.00000000E+00  0.00000000E+00
  0.00000000E+00  0.00000000E+00  0.00000000E+00
  0.00000000E+00  0.00000000E+00  0.00000000E+00
  0.00000000E+00  0.00000000E+00  0.00000000E+00
  0.00000000E+00  0.00000000E+00  0.00000000E+00
  0.00000000E+00  0.00000000E+00  0.00000000E+00
  0.00000000E+00  0.00000000E+00  0.00000000E+00
  0.00000000E+00  0.00000000E+00  0.00000000E+00
  0.00000000E+00  0.00000000E+00  0.00000000E+00
  0.00000000E+00  0.00000000E+00  0.00000000E+00
  0.00000000E+00  0.00000000E+00  0.00000000E+00
  0.00000000E+00  0.00000000E+00  0.00000000E+00
  0.00000000E+00  0.00000000E+00  0.00000000E+00
  0.00000000E+00  0.00000000E+00  0.00000000E+00
  0.00000000E+00  0.00000000E+00  0.00000000E+00
  0.00000000E+00  0.00000000E+00  0.00000000E+00
  0.00000000E+00  0.00000000E+00  0.00000000E+00
  0.00000000E+00  0.00000000E+00  0.00000000E+00
  0.00000000E+00  0.00000000E+00  0.00000000E+00
  0.00000000E+00  0.00000000E+00  0.00000000E+00
  0.00000000E+00  0.00000000E+00  0.00000000E+00
  0.00000000E+00  0.00000000E+00  0.00000000E+00
  0.00000000E+00  0.00000000E+00  0.00000000E+00
  0.00000000E+00  0.00000000E+00  0.00000000E+00
  0.00000000E+00  0.00000000E+00  0.00000000E+00
  0.00000000E+00  0.00000000E+00  0.00000000E+00
  0.00000000E+00  0.00000000E+00  0.00000000E+00
  0.00000000E+00  0.00000000E+00  0.00000000E+00
  0.00000000E+00  0.00000000E+00  0.00000000E+00
  0.00000000E+00  0.00000000E+00  0.00000000E+00
  0.00000000E+00  0.00000000E+00  0.00000000E+00
  0.00000000E+00  0.00000000E+00  0.00000000E+00
  0.00000000E+00  0.00000000E+00  0.00000000E+00
  0.00000000E+00  0.00000000E+00  0.00000000E+00
  0.00000000E+00  0.00000000E+00  0.00000000E+00
  0.00000000E+00  0.00000000E+00  0.00000000E+00
  0.00000000E+00  0.00000000E+00  0.00000000E+00
  0.00000000E+00  0.00000000E+00  0.00000000E+00
  0.00000000E+00  0.00000000E+00  0.00000000E+00
  0.00000000E+00  0.00000000E+00  0.00000000E+00
  0.00000000E+00  0.00000000E+00  0.00000000E+00
  0.00000000E+00  0.00000000E+00  0.00000000E+00
  0.00000000E+00  0.00000000E+00  0.00000000E+00
  0.00000000E+00  0.00000000E+00  0.00000000E+00
  0.00000000E+00  0.00000000E+00  0.00000000E+00
  0.00000000E+00  0.00000000E+00  0.00000000E+00
  0.00000000E+00  0.00000000E+00  0.00000000E+00
  0.00000000E+00  0.00000000E+00  0.00000000E+00
  0.00000000E+00  0.00000000E+00  0.00000000E+00
  0.00000000E+00  0.00000000E+00  0.00000000E+00
  0.00000000E+00  0.00000000E+00  0.00000000E+00
  0.00000000E+00  0.00000000E+00  0.00000000E+00
