Bi La Sn O  C  H                        
   1.00000000000000     
    29.0000000000000000    0.0000000000000000    0.0000000000000000
     0.2488180851000000   28.9989325590000000    0.0000000000000000
    -0.0631677343000000   -0.4515975666000000   28.9964147692999994
   Bi   La   Sn   O    C    H 
    22    23    23     2     1     1
Selective dynamics
Direct
  0.7595908013378027  0.4788369302139849  0.4010800752783431   T   T   T
  0.6472078262332134  0.6850036803829638  0.5501379123434178   T   T   T
  0.3599269553970558  0.4588210749058966  0.4282985858716068   T   T   T
  0.5509613979231286  0.7135166300420220  0.5840075496430515   T   T   T
  0.5915029568994470  0.5209714444905416  0.5841479689498996   F   F   F
  0.6383397907689231  0.6797594367602012  0.4436826264156030   T   T   T
  0.6968442569269300  0.5228550993878851  0.6529435123249103   T   T   T
  0.4857877024396536  0.7012763128231553  0.5002395965175040   T   T   T
  0.5004839460855024  0.5502791173970252  0.5477141156400123   F   F   F
  0.3257624136619948  0.4869462283308775  0.5752389963802814   T   T   T
  0.3829426089315330  0.6108258298990972  0.5355980789495395   T   T   T
  0.6667129484492236  0.4827404655721850  0.5105018184570156   F   F   F
  0.5763997220267569  0.4263140504383500  0.5448328182496311   F   F   F
  0.6684464381904232  0.3740366103067976  0.5063286611845126   T   T   T
  0.4632771726391832  0.3388790424910920  0.5000167122990992   T   T   T
  0.6484934028780529  0.5775373212088155  0.4602701624361103   F   F   F
  0.5595038906360672  0.4367546972635507  0.7496298708628248   T   T   T
  0.6032987232333559  0.3515009268774453  0.6689341629398938   T   T   T
  0.4916928669113973  0.2993533696808042  0.4098512014004572   T   T   T
  0.6605054705902959  0.6185938011497654  0.6658083409869312   T   T   T
  0.4929220257357259  0.4103095485513335  0.3073596585517948   T   T   T
  0.6216184559244744  0.3165800313496471  0.5727326282713565   T   T   T
  0.5369307927007353  0.6838886083726042  0.4039210476153123   T   T   T
  0.3901178125134328  0.4153336022587177  0.5277242344465219   T   T   T
  0.6295412410509165  0.5514657621973310  0.2820673567459709   T   T   T
  0.4719093953251519  0.4712879232066099  0.6922563790044276   T   T   T
  0.5683115009887700  0.5094300495444983  0.4784716241115703   F   F   F
  0.4203210565129183  0.5084107200613417  0.5018573595042781   F   F   F
  0.4520586448442312  0.4010317200753822  0.4069953807035459   T   T   T
  0.5636921179343334  0.3479923080745141  0.3546815961668311   T   T   T
  0.4115135974858029  0.5405484765367935  0.6103331875251595   T   T   T
  0.5995181970371718  0.4421101820342048  0.3048838462452472   T   T   T
  0.4548046729383274  0.5999900024477045  0.3618616355003286   T   T   T
  0.4187500040839015  0.4873542493395781  0.3393634144809063   T   T   T
  0.6615140157991920  0.4286631124711270  0.6041409230505594   T   T   T
  0.6743298280950850  0.5789393667608556  0.5630091601731764   T   T   T
  0.5270423210853400  0.5096224613827363  0.3281531807603101   T   T   T
  0.5655281977268700  0.3574017953697419  0.4688833351102979   T   T   T
  0.3166256363533479  0.5424479669422037  0.4915099415563234   T   T   T
  0.6601465689925997  0.4296207060937815  0.4158592865925496   T   T   T
  0.5660841929594156  0.6261437171197244  0.5094829013827464   F   F   F
  0.5970004065166593  0.5284058555185860  0.6896230383961740   T   T   T
  0.4711233563042296  0.6415571509571908  0.5888040027831477   T   T   T
  0.4632489293361771  0.6036350198156272  0.4639968298134694   T   T   T
  0.7168517938310394  0.5738014580964695  0.3838418916445463   T   T   T
  0.5499310510395361  0.5822218838566187  0.4076968008106903   F   F   F
  0.4794126430662260  0.5072205383607624  0.4190535757241776   F   F   F
  0.6955889003370017  0.4801010663311249  0.3250300230138340   T   T   T
  0.7516532014424084  0.4292247357809524  0.4887126154568726   T   T   T
  0.7522071476951271  0.5397522173845983  0.4859619769433256   T   T   T
  0.7496782796686629  0.4904322776257165  0.5716522849766262   T   T   T
  0.6488006702546862  0.4364964142389481  0.7081402292846272   T   T   T
  0.5765548721512127  0.7427430434494757  0.4922036420512884   T   T   T
  0.6192554540844384  0.5183157687966542  0.3801816896793397   F   F   F
  0.5063104165805209  0.5592999654132248  0.6499781053434479   T   T   T
  0.4922009500451665  0.4366758245867572  0.4933013002826740   F   F   F
  0.5608844484509063  0.4404139570509003  0.6454865549417619   F   F   F
  0.5780259628144097  0.6165429877907028  0.6134903992046568   T   T   T
  0.5451440680940191  0.6173843580431398  0.3121691583439688   T   T   T
  0.6285084258263620  0.6247002778072169  0.3591676854050881   T   T   T
  0.3772881530007607  0.5566343565822016  0.4119174460579306   T   T   T
  0.4723078164089713  0.4557257050327763  0.5877273803360978   F   F   F
  0.7285202684927821  0.6357022151753687  0.4833531674709443   T   T   T
  0.5033444425507565  0.3689395750784204  0.6854863551291276   T   T   T
  0.3813099502825448  0.4414389348673093  0.6407363657004140   T   T   T
  0.5544592502646992  0.4379899399457940  0.4037542370104745   F   F   F
  0.4344157606503887  0.3638737590051812  0.6110810255691643   T   T   T
  0.5279423055976821  0.3495616067716911  0.5800444495007329   T   T   T
  0.8287913113472460  0.5608529572777772  0.4880846098778049   T   T   T
  0.8113432303114526  0.6366247538637650  0.5051877405857058   T   T   T
  0.8385308659981872  0.6031991173878704  0.4968512805017070   T   T   T
  0.8761553529585910  0.6109903310085166  0.4967161137544105   T   T   T
 
  0.00000000E+00  0.00000000E+00  0.00000000E+00
  0.00000000E+00  0.00000000E+00  0.00000000E+00
  0.00000000E+00  0.00000000E+00  0.00000000E+00
  0.00000000E+00  0.00000000E+00  0.00000000E+00
  0.00000000E+00  0.00000000E+00  0.00000000E+00
  0.00000000E+00  0.00000000E+00  0.00000000E+00
  0.00000000E+00  0.00000000E+00  0.00000000E+00
  0.00000000E+00  0.00000000E+00  0.00000000E+00
  0.00000000E+00  0.00000000E+00  0.00000000E+00
  0.00000000E+00  0.00000000E+00  0.00000000E+00
  0.00000000E+00  0.00000000E+00  0.00000000E+00
  0.00000000E+00  0.00000000E+00  0.00000000E+00
  0.00000000E+00  0.00000000E+00  0.00000000E+00
  0.00000000E+00  0.00000000E+00  0.00000000E+00
  0.00000000E+00  0.00000000E+00  0.00000000E+00
  0.00000000E+00  0.00000000E+00  0.00000000E+00
  0.00000000E+00  0.00000000E+00  0.00000000E+00
  0.00000000E+00  0.00000000E+00  0.00000000E+00
  0.00000000E+00  0.00000000E+00  0.00000000E+00
  0.00000000E+00  0.00000000E+00  0.00000000E+00
  0.00000000E+00  0.00000000E+00  0.00000000E+00
  0.00000000E+00  0.00000000E+00  0.00000000E+00
  0.00000000E+00  0.00000000E+00  0.00000000E+00
  0.00000000E+00  0.00000000E+00  0.00000000E+00
  0.00000000E+00  0.00000000E+00  0.00000000E+00
  0.00000000E+00  0.00000000E+00  0.00000000E+00
  0.00000000E+00  0.00000000E+00  0.00000000E+00
  0.00000000E+00  0.00000000E+00  0.00000000E+00
  0.00000000E+00  0.00000000E+00  0.00000000E+00
  0.00000000E+00  0.00000000E+00  0.00000000E+00
  0.00000000E+00  0.00000000E+00  0.00000000E+00
  0.00000000E+00  0.00000000E+00  0.00000000E+00
  0.00000000E+00  0.00000000E+00  0.00000000E+00
  0.00000000E+00  0.00000000E+00  0.00000000E+00
  0.00000000E+00  0.00000000E+00  0.00000000E+00
  0.00000000E+00  0.00000000E+00  0.00000000E+00
  0.00000000E+00  0.00000000E+00  0.00000000E+00
  0.00000000E+00  0.00000000E+00  0.00000000E+00
  0.00000000E+00  0.00000000E+00  0.00000000E+00
  0.00000000E+00  0.00000000E+00  0.00000000E+00
  0.00000000E+00  0.00000000E+00  0.00000000E+00
  0.00000000E+00  0.00000000E+00  0.00000000E+00
  0.00000000E+00  0.00000000E+00  0.00000000E+00
  0.00000000E+00  0.00000000E+00  0.00000000E+00
  0.00000000E+00  0.00000000E+00  0.00000000E+00
  0.00000000E+00  0.00000000E+00  0.00000000E+00
  0.00000000E+00  0.00000000E+00  0.00000000E+00
  0.00000000E+00  0.00000000E+00  0.00000000E+00
  0.00000000E+00  0.00000000E+00  0.00000000E+00
  0.00000000E+00  0.00000000E+00  0.00000000E+00
  0.00000000E+00  0.00000000E+00  0.00000000E+00
  0.00000000E+00  0.00000000E+00  0.00000000E+00
  0.00000000E+00  0.00000000E+00  0.00000000E+00
  0.00000000E+00  0.00000000E+00  0.00000000E+00
  0.00000000E+00  0.00000000E+00  0.00000000E+00
  0.00000000E+00  0.00000000E+00  0.00000000E+00
  0.00000000E+00  0.00000000E+00  0.00000000E+00
  0.00000000E+00  0.00000000E+00  0.00000000E+00
  0.00000000E+00  0.00000000E+00  0.00000000E+00
  0.00000000E+00  0.00000000E+00  0.00000000E+00
  0.00000000E+00  0.00000000E+00  0.00000000E+00
  0.00000000E+00  0.00000000E+00  0.00000000E+00
  0.00000000E+00  0.00000000E+00  0.00000000E+00
  0.00000000E+00  0.00000000E+00  0.00000000E+00
  0.00000000E+00  0.00000000E+00  0.00000000E+00
  0.00000000E+00  0.00000000E+00  0.00000000E+00
  0.00000000E+00  0.00000000E+00  0.00000000E+00
  0.00000000E+00  0.00000000E+00  0.00000000E+00
  0.00000000E+00  0.00000000E+00  0.00000000E+00
  0.00000000E+00  0.00000000E+00  0.00000000E+00
  0.00000000E+00  0.00000000E+00  0.00000000E+00
  0.00000000E+00  0.00000000E+00  0.00000000E+00
