Bi La Sn O  C  H                        
   1.00000000000000     
    29.0000000000000000    0.0000000000000000    0.0000000000000000
     0.2488180851000000   28.9989325590000000    0.0000000000000000
    -0.0631677343000000   -0.4515975666000000   28.9964147692999994
   Bi   La   Sn   O    C    H 
    22    23    23     2     1     1
Selective dynamics
Direct
  0.7600983464613337  0.4770221986269600  0.3990987177434171   T   T   T
  0.6480450725655799  0.6845596112302631  0.5513414844500644   T   T   T
  0.3603830037541155  0.4585238401858908  0.4271929234202524   T   T   T
  0.5518524447818368  0.7136418811842402  0.5841205475842441   T   T   T
  0.5915029568994470  0.5209714444905416  0.5841479689498996   F   F   F
  0.6408691848759057  0.6807155976509450  0.4458764386045021   T   T   T
  0.6946792624339702  0.5196325652256053  0.6526561434201055   T   T   T
  0.4873085300891555  0.7017689623083568  0.4986604069296152   T   T   T
  0.5004839460855024  0.5502791173970252  0.5477141156400123   F   F   F
  0.3282015634393498  0.4846961939315907  0.5782081654783235   T   T   T
  0.3824663767923457  0.6085548782572647  0.5376687951253744   T   T   T
  0.6667129484492236  0.4827404655721850  0.5105018184570156   F   F   F
  0.5763997220267569  0.4263140504383500  0.5448328182496311   F   F   F
  0.6684726736040103  0.3740518721635156  0.5063878112957551   T   T   T
  0.4608242048794898  0.3378177678632197  0.4935086454449347   T   T   T
  0.6484934028780529  0.5775373212088155  0.4602701624361103   F   F   F
  0.5526483608586031  0.4288755906404095  0.7490119288995502   T   T   T
  0.5896708956025761  0.3479508554167851  0.6659743945408566   T   T   T
  0.4934948768969040  0.3004181585092622  0.4042376961287353   T   T   T
  0.6620326285923981  0.6155893275513957  0.6664996986627204   T   T   T
  0.4916605407345060  0.4112766098278270  0.3034964811547519   T   T   T
  0.6200635426998593  0.3163102419940090  0.5713062666562503   T   T   T
  0.5402688386407239  0.6837443313405117  0.4045464477092219   T   T   T
  0.3896335256352346  0.4151394144589912  0.5251195363144470   T   T   T
  0.6287415322752276  0.5522273596197493  0.2828927827493312   T   T   T
  0.4737539250988319  0.4811330042066982  0.6933279602288783   T   T   T
  0.5683115009887700  0.5094300495444983  0.4784716241115703   F   F   F
  0.4203210565129183  0.5084107200613417  0.5018573595042781   F   F   F
  0.4528976437920315  0.4020417491776428  0.4037959932911029   T   T   T
  0.5641784266102134  0.3507423848210756  0.3506101111701248   T   T   T
  0.4133748606661419  0.5391557116154220  0.6123500110709280   T   T   T
  0.5992006943287589  0.4427136668054071  0.3045026916434552   T   T   T
  0.4548656481019745  0.6003789098062799  0.3635790126982711   T   T   T
  0.4188274772039103  0.4883876487896351  0.3391451574402929   T   T   T
  0.6607363902045932  0.4259092110360138  0.6046571655454808   T   T   T
  0.6741205855933577  0.5785298275021963  0.5633541955222630   T   T   T
  0.5257973223438298  0.5097936669874211  0.3278863535062878   T   T   T
  0.5653923850188598  0.3567359450798227  0.4686732466207429   T   T   T
  0.3161318377879539  0.5395672277953504  0.4936863542004191   T   T   T
  0.6601481007277916  0.4294920968774044  0.4154950690028628   T   T   T
  0.5660841929594156  0.6261437171197244  0.5094829013827464   F   F   F
  0.5959695082403016  0.5271108500083146  0.6939844792268283   T   T   T
  0.4707331154588814  0.6429832290232441  0.5874861999267907   T   T   T
  0.4625091518511013  0.6036048181754458  0.4642474942269752   T   T   T
  0.7168214446479179  0.5727325906264985  0.3837161679257378   T   T   T
  0.5499310510395361  0.5822218838566187  0.4076968008106903   F   F   F
  0.4794126430662260  0.5072205383607624  0.4190535757241776   F   F   F
  0.6952658269664259  0.4803465251913873  0.3245410499671952   T   T   T
  0.7519471789686812  0.4281679697291220  0.4877134230521237   T   T   T
  0.7489136693712173  0.5372430104851681  0.4852257647318775   T   T   T
  0.7489013388381790  0.4891519417803170  0.5720557120950936   T   T   T
  0.6425888786540136  0.4287625777973736  0.7088638879786429   T   T   T
  0.5779381686857487  0.7438984741621374  0.4931194781212104   T   T   T
  0.6192554540844384  0.5183157687966542  0.3801816896793397   F   F   F
  0.5083145042286603  0.5647594756114118  0.6489520806790873   T   T   T
  0.4922009500451665  0.4366758245867572  0.4933013002826740   F   F   F
  0.5608844484509063  0.4404139570509003  0.6454865549417619   F   F   F
  0.5801192599118765  0.6176364793949658  0.6129552321845761   T   T   T
  0.5450405322513258  0.6175038501267422  0.3130984930403182   T   T   T
  0.6284461269390028  0.6247886657995695  0.3613476200595627   T   T   T
  0.3763665572938876  0.5571067461926204  0.4135931881194883   T   T   T
  0.4723078164089713  0.4557257050327763  0.5877273803360978   F   F   F
  0.7283075052914658  0.6344666684249429  0.4834777659183622   T   T   T
  0.4906998809333760  0.3783977973576094  0.6756772194063398   T   T   T
  0.3885156491271358  0.4361615808756683  0.6401916036509174   T   T   T
  0.5544592502646992  0.4379899399457940  0.4037542370104745   F   F   F
  0.4306430034150540  0.3544475920155726  0.5999305765109910   T   T   T
  0.5250745882583010  0.3486999850476949  0.5736705774537143   T   T   T
  0.6508787817148529  0.5232304198102588  0.7624214495236404   T   T   T
  0.5842022124438603  0.5630424271964423  0.7711248592841803   T   T   T
  0.6248724698345086  0.5516775373833417  0.7844356454520827   T   T   T
  0.6386238208352484  0.5680323599045548  0.8164894964254049   T   T   T
 
  0.00000000E+00  0.00000000E+00  0.00000000E+00
  0.00000000E+00  0.00000000E+00  0.00000000E+00
  0.00000000E+00  0.00000000E+00  0.00000000E+00
  0.00000000E+00  0.00000000E+00  0.00000000E+00
  0.00000000E+00  0.00000000E+00  0.00000000E+00
  0.00000000E+00  0.00000000E+00  0.00000000E+00
  0.00000000E+00  0.00000000E+00  0.00000000E+00
  0.00000000E+00  0.00000000E+00  0.00000000E+00
  0.00000000E+00  0.00000000E+00  0.00000000E+00
  0.00000000E+00  0.00000000E+00  0.00000000E+00
  0.00000000E+00  0.00000000E+00  0.00000000E+00
  0.00000000E+00  0.00000000E+00  0.00000000E+00
  0.00000000E+00  0.00000000E+00  0.00000000E+00
  0.00000000E+00  0.00000000E+00  0.00000000E+00
  0.00000000E+00  0.00000000E+00  0.00000000E+00
  0.00000000E+00  0.00000000E+00  0.00000000E+00
  0.00000000E+00  0.00000000E+00  0.00000000E+00
  0.00000000E+00  0.00000000E+00  0.00000000E+00
  0.00000000E+00  0.00000000E+00  0.00000000E+00
  0.00000000E+00  0.00000000E+00  0.00000000E+00
  0.00000000E+00  0.00000000E+00  0.00000000E+00
  0.00000000E+00  0.00000000E+00  0.00000000E+00
  0.00000000E+00  0.00000000E+00  0.00000000E+00
  0.00000000E+00  0.00000000E+00  0.00000000E+00
  0.00000000E+00  0.00000000E+00  0.00000000E+00
  0.00000000E+00  0.00000000E+00  0.00000000E+00
  0.00000000E+00  0.00000000E+00  0.00000000E+00
  0.00000000E+00  0.00000000E+00  0.00000000E+00
  0.00000000E+00  0.00000000E+00  0.00000000E+00
  0.00000000E+00  0.00000000E+00  0.00000000E+00
  0.00000000E+00  0.00000000E+00  0.00000000E+00
  0.00000000E+00  0.00000000E+00  0.00000000E+00
  0.00000000E+00  0.00000000E+00  0.00000000E+00
  0.00000000E+00  0.00000000E+00  0.00000000E+00
  0.00000000E+00  0.00000000E+00  0.00000000E+00
  0.00000000E+00  0.00000000E+00  0.00000000E+00
  0.00000000E+00  0.00000000E+00  0.00000000E+00
  0.00000000E+00  0.00000000E+00  0.00000000E+00
  0.00000000E+00  0.00000000E+00  0.00000000E+00
  0.00000000E+00  0.00000000E+00  0.00000000E+00
  0.00000000E+00  0.00000000E+00  0.00000000E+00
  0.00000000E+00  0.00000000E+00  0.00000000E+00
  0.00000000E+00  0.00000000E+00  0.00000000E+00
  0.00000000E+00  0.00000000E+00  0.00000000E+00
  0.00000000E+00  0.00000000E+00  0.00000000E+00
  0.00000000E+00  0.00000000E+00  0.00000000E+00
  0.00000000E+00  0.00000000E+00  0.00000000E+00
  0.00000000E+00  0.00000000E+00  0.00000000E+00
  0.00000000E+00  0.00000000E+00  0.00000000E+00
  0.00000000E+00  0.00000000E+00  0.00000000E+00
  0.00000000E+00  0.00000000E+00  0.00000000E+00
  0.00000000E+00  0.00000000E+00  0.00000000E+00
  0.00000000E+00  0.00000000E+00  0.00000000E+00
  0.00000000E+00  0.00000000E+00  0.00000000E+00
  0.00000000E+00  0.00000000E+00  0.00000000E+00
  0.00000000E+00  0.00000000E+00  0.00000000E+00
  0.00000000E+00  0.00000000E+00  0.00000000E+00
  0.00000000E+00  0.00000000E+00  0.00000000E+00
  0.00000000E+00  0.00000000E+00  0.00000000E+00
  0.00000000E+00  0.00000000E+00  0.00000000E+00
  0.00000000E+00  0.00000000E+00  0.00000000E+00
  0.00000000E+00  0.00000000E+00  0.00000000E+00
  0.00000000E+00  0.00000000E+00  0.00000000E+00
  0.00000000E+00  0.00000000E+00  0.00000000E+00
  0.00000000E+00  0.00000000E+00  0.00000000E+00
  0.00000000E+00  0.00000000E+00  0.00000000E+00
  0.00000000E+00  0.00000000E+00  0.00000000E+00
  0.00000000E+00  0.00000000E+00  0.00000000E+00
  0.00000000E+00  0.00000000E+00  0.00000000E+00
  0.00000000E+00  0.00000000E+00  0.00000000E+00
  0.00000000E+00  0.00000000E+00  0.00000000E+00
  0.00000000E+00  0.00000000E+00  0.00000000E+00
