Bi La Sn O  C  H                        
   1.00000000000000     
    29.0000000000000000    0.0000000000000000    0.0000000000000000
     0.2488180851000000   28.9989325590000000    0.0000000000000000
    -0.0631677343000000   -0.4515975666000000   28.9964147692999994
   Bi   La   Sn   O    C    H 
    22    23    23     2     1     1
Selective dynamics
Direct
  0.7594998426770760  0.4786929629578457  0.3990109018137465   T   T   T
  0.6468712539798060  0.6843762074362900  0.5521234493870888   T   T   T
  0.3576682166970946  0.4592751006117251  0.4293638486731927   T   T   T
  0.5504072537396713  0.7130032664483705  0.5843707373669220   T   T   T
  0.5915029568994470  0.5209714444905416  0.5841479689498996   F   F   F
  0.6399880413521317  0.6803114676918463  0.4457426970747748   T   T   T
  0.6957542615911226  0.5224714502574987  0.6542019617240625   T   T   T
  0.4864131201768627  0.7011642388900592  0.4992322621025054   T   T   T
  0.5004839460855024  0.5502791173970252  0.5477141156400123   F   F   F
  0.3250320069060242  0.4866503570268810  0.5747587083557999   T   T   T
  0.3817440568299461  0.6105594653887185  0.5349875568971678   T   T   T
  0.6667129484492236  0.4827404655721850  0.5105018184570156   F   F   F
  0.5763997220267569  0.4263140504383500  0.5448328182496311   F   F   F
  0.6685837121894260  0.3738433763993858  0.5063973960468592   T   T   T
  0.4632036462455548  0.3386767036112667  0.5018653996875662   T   T   T
  0.6484934028780529  0.5775373212088155  0.4602701624361103   F   F   F
  0.5593653620546549  0.4362831023397312  0.7498110043706528   T   T   T
  0.6042600094170028  0.3519029278337160  0.6690567889720701   T   T   T
  0.4903145587847817  0.2992067449642961  0.4124221995328256   T   T   T
  0.6599068158272783  0.6187253601599179  0.6661869515323541   T   T   T
  0.4926603099234781  0.4100231384066049  0.3127481451242434   T   T   T
  0.6215047134901880  0.3162671391674692  0.5728355692432410   T   T   T
  0.5389845590695580  0.6838793298732272  0.4044620929954507   T   T   T
  0.3903286672909741  0.4156656522670518  0.5279788720034988   T   T   T
  0.6296147018017543  0.5531233922455001  0.2827061259528333   T   T   T
  0.4719119959688655  0.4709946387159736  0.6919600033662886   T   T   T
  0.5683115009887700  0.5094300495444983  0.4784716241115703   F   F   F
  0.4203210565129183  0.5084107200613417  0.5018573595042781   F   F   F
  0.4495793006241338  0.4002687998885587  0.4090560780659460   T   T   T
  0.5654908861735625  0.3438091854258798  0.3556386399311033   T   T   T
  0.4109233453305238  0.5405209139508180  0.6095247773180619   T   T   T
  0.5981602228186031  0.4412560137249665  0.3035734757208707   T   T   T
  0.4550070193897595  0.6008229893638413  0.3637919643816228   T   T   T
  0.4180647265292879  0.4867355911697994  0.3412256360064798   T   T   T
  0.6613855779818943  0.4281638194818460  0.6040469646994076   T   T   T
  0.6732527397202310  0.5786057333898819  0.5639208500204801   T   T   T
  0.5268192505432403  0.5104120460262727  0.3276686269185188   T   T   T
  0.5653261571883845  0.3577948505376736  0.4690918888085576   T   T   T
  0.3143824661590759  0.5425783227811383  0.4916152895416467   T   T   T
  0.6602987025351454  0.4301050361805727  0.4162148017813287   T   T   T
  0.5660841929594156  0.6261437171197244  0.5094829013827464   F   F   F
  0.5955877953415548  0.5289829780980740  0.6897882950590883   T   T   T
  0.4698699428628330  0.6415922531151931  0.5880389376354486   T   T   T
  0.4629897822895880  0.6033772796988209  0.4638196093984744   T   T   T
  0.7163973581019665  0.5744424930720080  0.3833050753393323   T   T   T
  0.5499310510395361  0.5822218838566187  0.4076968008106903   F   F   F
  0.4794126430662260  0.5072205383607624  0.4190535757241776   F   F   F
  0.6948267681760312  0.4806794868833423  0.3249404259161607   T   T   T
  0.7518089561005482  0.4295535578937401  0.4882849231887209   T   T   T
  0.7482143879305236  0.5382205032687243  0.4854813670226160   T   T   T
  0.7487554958610068  0.4906838393258960  0.5726771067626539   T   T   T
  0.6489716329662517  0.4380027395671980  0.7082014259661474   T   T   T
  0.5769429550596755  0.7431910042869676  0.4932700922543898   T   T   T
  0.6192554540844384  0.5183157687966542  0.3801816896793397   F   F   F
  0.5047834610247485  0.5598415300619516  0.6500113050407770   T   T   T
  0.4922009500451665  0.4366758245867572  0.4933013002826740   F   F   F
  0.5608844484509063  0.4404139570509003  0.6454865549417619   F   F   F
  0.5771315270747449  0.6162469755063953  0.6136064060897704   T   T   T
  0.5442069956956864  0.6175880311332284  0.3121131698149642   T   T   T
  0.6268907859946922  0.6253526228384684  0.3607735973229259   T   T   T
  0.3765876048957068  0.5576536575563004  0.4131245192232271   T   T   T
  0.4723078164089713  0.4557257050327763  0.5877273803360978   F   F   F
  0.7271730366550753  0.6350184521904891  0.4848531941508474   T   T   T
  0.5044528806697812  0.3686472794210643  0.6859852885972018   T   T   T
  0.3810431198715569  0.4422114729953820  0.6408248071659864   T   T   T
  0.5544592502646992  0.4379899399457940  0.4037542370104745   F   F   F
  0.4345681489462143  0.3647766279209260  0.6125142334953713   T   T   T
  0.5282303389799368  0.3495406595136305  0.5811815341614346   T   T   T
  0.5652268628937633  0.2976026780564347  0.2804665825834695   T   T   T
  0.6077157335191031  0.3617032752786140  0.2735195685137643   T   T   T
  0.5879612175536979  0.3253702273369209  0.2565567230549630   T   T   T
  0.5914127771425320  0.3189994537260280  0.2189358024532070   T   T   T
 
  0.00000000E+00  0.00000000E+00  0.00000000E+00
  0.00000000E+00  0.00000000E+00  0.00000000E+00
  0.00000000E+00  0.00000000E+00  0.00000000E+00
  0.00000000E+00  0.00000000E+00  0.00000000E+00
  0.00000000E+00  0.00000000E+00  0.00000000E+00
  0.00000000E+00  0.00000000E+00  0.00000000E+00
  0.00000000E+00  0.00000000E+00  0.00000000E+00
  0.00000000E+00  0.00000000E+00  0.00000000E+00
  0.00000000E+00  0.00000000E+00  0.00000000E+00
  0.00000000E+00  0.00000000E+00  0.00000000E+00
  0.00000000E+00  0.00000000E+00  0.00000000E+00
  0.00000000E+00  0.00000000E+00  0.00000000E+00
  0.00000000E+00  0.00000000E+00  0.00000000E+00
  0.00000000E+00  0.00000000E+00  0.00000000E+00
  0.00000000E+00  0.00000000E+00  0.00000000E+00
  0.00000000E+00  0.00000000E+00  0.00000000E+00
  0.00000000E+00  0.00000000E+00  0.00000000E+00
  0.00000000E+00  0.00000000E+00  0.00000000E+00
  0.00000000E+00  0.00000000E+00  0.00000000E+00
  0.00000000E+00  0.00000000E+00  0.00000000E+00
  0.00000000E+00  0.00000000E+00  0.00000000E+00
  0.00000000E+00  0.00000000E+00  0.00000000E+00
  0.00000000E+00  0.00000000E+00  0.00000000E+00
  0.00000000E+00  0.00000000E+00  0.00000000E+00
  0.00000000E+00  0.00000000E+00  0.00000000E+00
  0.00000000E+00  0.00000000E+00  0.00000000E+00
  0.00000000E+00  0.00000000E+00  0.00000000E+00
  0.00000000E+00  0.00000000E+00  0.00000000E+00
  0.00000000E+00  0.00000000E+00  0.00000000E+00
  0.00000000E+00  0.00000000E+00  0.00000000E+00
  0.00000000E+00  0.00000000E+00  0.00000000E+00
  0.00000000E+00  0.00000000E+00  0.00000000E+00
  0.00000000E+00  0.00000000E+00  0.00000000E+00
  0.00000000E+00  0.00000000E+00  0.00000000E+00
  0.00000000E+00  0.00000000E+00  0.00000000E+00
  0.00000000E+00  0.00000000E+00  0.00000000E+00
  0.00000000E+00  0.00000000E+00  0.00000000E+00
  0.00000000E+00  0.00000000E+00  0.00000000E+00
  0.00000000E+00  0.00000000E+00  0.00000000E+00
  0.00000000E+00  0.00000000E+00  0.00000000E+00
  0.00000000E+00  0.00000000E+00  0.00000000E+00
  0.00000000E+00  0.00000000E+00  0.00000000E+00
  0.00000000E+00  0.00000000E+00  0.00000000E+00
  0.00000000E+00  0.00000000E+00  0.00000000E+00
  0.00000000E+00  0.00000000E+00  0.00000000E+00
  0.00000000E+00  0.00000000E+00  0.00000000E+00
  0.00000000E+00  0.00000000E+00  0.00000000E+00
  0.00000000E+00  0.00000000E+00  0.00000000E+00
  0.00000000E+00  0.00000000E+00  0.00000000E+00
  0.00000000E+00  0.00000000E+00  0.00000000E+00
  0.00000000E+00  0.00000000E+00  0.00000000E+00
  0.00000000E+00  0.00000000E+00  0.00000000E+00
  0.00000000E+00  0.00000000E+00  0.00000000E+00
  0.00000000E+00  0.00000000E+00  0.00000000E+00
  0.00000000E+00  0.00000000E+00  0.00000000E+00
  0.00000000E+00  0.00000000E+00  0.00000000E+00
  0.00000000E+00  0.00000000E+00  0.00000000E+00
  0.00000000E+00  0.00000000E+00  0.00000000E+00
  0.00000000E+00  0.00000000E+00  0.00000000E+00
  0.00000000E+00  0.00000000E+00  0.00000000E+00
  0.00000000E+00  0.00000000E+00  0.00000000E+00
  0.00000000E+00  0.00000000E+00  0.00000000E+00
  0.00000000E+00  0.00000000E+00  0.00000000E+00
  0.00000000E+00  0.00000000E+00  0.00000000E+00
  0.00000000E+00  0.00000000E+00  0.00000000E+00
  0.00000000E+00  0.00000000E+00  0.00000000E+00
  0.00000000E+00  0.00000000E+00  0.00000000E+00
  0.00000000E+00  0.00000000E+00  0.00000000E+00
  0.00000000E+00  0.00000000E+00  0.00000000E+00
  0.00000000E+00  0.00000000E+00  0.00000000E+00
  0.00000000E+00  0.00000000E+00  0.00000000E+00
  0.00000000E+00  0.00000000E+00  0.00000000E+00
