Bi La Sn O  C  H                        
   1.00000000000000     
    29.0000000000000000    0.0000000000000000    0.0000000000000000
     0.2488180851000000   28.9989325590000000    0.0000000000000000
    -0.0631677343000000   -0.4515975666000000   28.9964147692999994
   Bi   La   Sn   O    C    H 
    22    23    23     2     1     1
Selective dynamics
Direct
  0.7593625803432760  0.4781303523251748  0.3998481091386492   T   T   T
  0.6477806706676312  0.6851788455731967  0.5504733806218409   T   T   T
  0.3607411378458906  0.4578080517341595  0.4274756599244869   T   T   T
  0.5508423060066312  0.7137809646244238  0.5832841086954026   T   T   T
  0.5915029568994470  0.5209714444905416  0.5841479689498996   F   F   F
  0.6403831875969831  0.6802002615903799  0.4452227102491308   T   T   T
  0.6943954234939963  0.5211512487465264  0.6540973772283329   T   T   T
  0.4874138937875558  0.7016970301740065  0.4970131153193783   T   T   T
  0.5004839460855024  0.5502791173970252  0.5477141156400123   F   F   F
  0.3279629657861867  0.4851495564092522  0.5780221463201499   T   T   T
  0.3817606627887253  0.6083473574972275  0.5366909013299687   T   T   T
  0.6667129484492236  0.4827404655721850  0.5105018184570156   F   F   F
  0.5763997220267569  0.4263140504383500  0.5448328182496311   F   F   F
  0.6680358191977877  0.3740260295638119  0.5078302372962626   T   T   T
  0.4626301220546072  0.3388665386338489  0.4970697953411191   T   T   T
  0.6484934028780529  0.5775373212088155  0.4602701624361103   F   F   F
  0.5539256332324698  0.4364447863552073  0.7502550829953495   T   T   T
  0.5908559345842785  0.3474074292868751  0.6753706351376408   T   T   T
  0.4931394184458991  0.2997633511428737  0.4076916335180283   T   T   T
  0.6601211071626629  0.6170174263036106  0.6678649960722082   T   T   T
  0.4919569039576893  0.4104951402138997  0.3045581961978046   T   T   T
  0.6224190050960101  0.3192757775285155  0.5781481881178780   T   T   T
  0.5403527316158889  0.6835852205185317  0.4034504951206493   T   T   T
  0.3895097521817972  0.4152034503886903  0.5257366754888467   T   T   T
  0.6281841723301715  0.5514441540487831  0.2822144058551324   T   T   T
  0.4734589976361089  0.4823709975783524  0.6926031568836801   T   T   T
  0.5683115009887700  0.5094300495444983  0.4784716241115703   F   F   F
  0.4203210565129183  0.5084107200613417  0.5018573595042781   F   F   F
  0.4529810338016583  0.4013686836984472  0.4046860493438202   T   T   T
  0.5636295320234808  0.3494068924593173  0.3523932875892972   T   T   T
  0.4132005225364555  0.5395094311495637  0.6120150271907463   T   T   T
  0.5993416277062710  0.4418399041347305  0.3051905147865204   T   T   T
  0.4547592048254828  0.5999287346708987  0.3633546136574327   T   T   T
  0.4188685563155538  0.4876116298379904  0.3393867321829604   T   T   T
  0.6610208210862039  0.4266189542360292  0.6054408945634319   T   T   T
  0.6736677024589138  0.5789744741060704  0.5643503884074945   T   T   T
  0.5258236081934440  0.5093923811528606  0.3279839539209631   T   T   T
  0.5659296849312924  0.3567293400396516  0.4694742864215741   T   T   T
  0.3155845542853966  0.5389250551781123  0.4930208183979357   T   T   T
  0.6602336437134623  0.4291931630641433  0.4157378827500840   T   T   T
  0.5660841929594156  0.6261437171197244  0.5094829013827464   F   F   F
  0.5945170301157892  0.5276614997057699  0.6899775150129127   T   T   T
  0.4697051553676436  0.6433829833485127  0.5859229189148321   T   T   T
  0.4624404580660688  0.6034219913199348  0.4638123970177603   T   T   T
  0.7168125236010247  0.5736847520610692  0.3838615082491901   T   T   T
  0.5499310510395361  0.5822218838566187  0.4076968008106903   F   F   F
  0.4794126430662260  0.5072205383607624  0.4190535757241776   F   F   F
  0.6953245018742296  0.4808574093292093  0.3247486442458590   T   T   T
  0.7512595559453165  0.4288299847873949  0.4884267613485132   T   T   T
  0.7484121130713588  0.5387004537282216  0.4860855603478888   T   T   T
  0.7485200545018684  0.4898023547077192  0.5725354984890744   T   T   T
  0.6429511649033994  0.4312762831476460  0.7090406873533205   T   T   T
  0.5777309139723685  0.7440425736689790  0.4924065414463958   T   T   T
  0.6192554540844384  0.5183157687966542  0.3801816896793397   F   F   F
  0.5070323391215309  0.5671177033085019  0.6493587510366237   T   T   T
  0.4922009500451665  0.4366758245867572  0.4933013002826740   F   F   F
  0.5608844484509063  0.4404139570509003  0.6454865549417619   F   F   F
  0.5794006868107987  0.6179589240711727  0.6125428853363935   T   T   T
  0.5444423955918545  0.6167526420266481  0.3121488945332795   T   T   T
  0.6276832283361996  0.6242782932517392  0.3603528855757831   T   T   T
  0.3763357112143746  0.5567355277870857  0.4134951816818448   T   T   T
  0.4723078164089713  0.4557257050327763  0.5877273803360978   F   F   F
  0.7275747633043393  0.6354952981690487  0.4845016301159598   T   T   T
  0.4920900502769003  0.3793901404961935  0.6775811077636272   T   T   T
  0.3876725774260707  0.4371714285484389  0.6407520789841143   T   T   T
  0.5544592502646992  0.4379899399457940  0.4037542370104745   F   F   F
  0.4313245704649020  0.3563387112358175  0.6020241650799865   T   T   T
  0.5275978626436099  0.3499175072741531  0.5789913173736255   T   T   T
  0.5704867061486477  0.3109357164765332  0.7578938553939220   T   T   T
  0.6454268654553988  0.3270053514288685  0.7434869126173097   T   T   T
  0.6126923052789421  0.3125427854184205  0.7689638475529842   T   T   T
  0.6226554548634963  0.3005598283758736  0.8039837358885032   T   T   T
 
  0.00000000E+00  0.00000000E+00  0.00000000E+00
  0.00000000E+00  0.00000000E+00  0.00000000E+00
  0.00000000E+00  0.00000000E+00  0.00000000E+00
  0.00000000E+00  0.00000000E+00  0.00000000E+00
  0.00000000E+00  0.00000000E+00  0.00000000E+00
  0.00000000E+00  0.00000000E+00  0.00000000E+00
  0.00000000E+00  0.00000000E+00  0.00000000E+00
  0.00000000E+00  0.00000000E+00  0.00000000E+00
  0.00000000E+00  0.00000000E+00  0.00000000E+00
  0.00000000E+00  0.00000000E+00  0.00000000E+00
  0.00000000E+00  0.00000000E+00  0.00000000E+00
  0.00000000E+00  0.00000000E+00  0.00000000E+00
  0.00000000E+00  0.00000000E+00  0.00000000E+00
  0.00000000E+00  0.00000000E+00  0.00000000E+00
  0.00000000E+00  0.00000000E+00  0.00000000E+00
  0.00000000E+00  0.00000000E+00  0.00000000E+00
  0.00000000E+00  0.00000000E+00  0.00000000E+00
  0.00000000E+00  0.00000000E+00  0.00000000E+00
  0.00000000E+00  0.00000000E+00  0.00000000E+00
  0.00000000E+00  0.00000000E+00  0.00000000E+00
  0.00000000E+00  0.00000000E+00  0.00000000E+00
  0.00000000E+00  0.00000000E+00  0.00000000E+00
  0.00000000E+00  0.00000000E+00  0.00000000E+00
  0.00000000E+00  0.00000000E+00  0.00000000E+00
  0.00000000E+00  0.00000000E+00  0.00000000E+00
  0.00000000E+00  0.00000000E+00  0.00000000E+00
  0.00000000E+00  0.00000000E+00  0.00000000E+00
  0.00000000E+00  0.00000000E+00  0.00000000E+00
  0.00000000E+00  0.00000000E+00  0.00000000E+00
  0.00000000E+00  0.00000000E+00  0.00000000E+00
  0.00000000E+00  0.00000000E+00  0.00000000E+00
  0.00000000E+00  0.00000000E+00  0.00000000E+00
  0.00000000E+00  0.00000000E+00  0.00000000E+00
  0.00000000E+00  0.00000000E+00  0.00000000E+00
  0.00000000E+00  0.00000000E+00  0.00000000E+00
  0.00000000E+00  0.00000000E+00  0.00000000E+00
  0.00000000E+00  0.00000000E+00  0.00000000E+00
  0.00000000E+00  0.00000000E+00  0.00000000E+00
  0.00000000E+00  0.00000000E+00  0.00000000E+00
  0.00000000E+00  0.00000000E+00  0.00000000E+00
  0.00000000E+00  0.00000000E+00  0.00000000E+00
  0.00000000E+00  0.00000000E+00  0.00000000E+00
  0.00000000E+00  0.00000000E+00  0.00000000E+00
  0.00000000E+00  0.00000000E+00  0.00000000E+00
  0.00000000E+00  0.00000000E+00  0.00000000E+00
  0.00000000E+00  0.00000000E+00  0.00000000E+00
  0.00000000E+00  0.00000000E+00  0.00000000E+00
  0.00000000E+00  0.00000000E+00  0.00000000E+00
  0.00000000E+00  0.00000000E+00  0.00000000E+00
  0.00000000E+00  0.00000000E+00  0.00000000E+00
  0.00000000E+00  0.00000000E+00  0.00000000E+00
  0.00000000E+00  0.00000000E+00  0.00000000E+00
  0.00000000E+00  0.00000000E+00  0.00000000E+00
  0.00000000E+00  0.00000000E+00  0.00000000E+00
  0.00000000E+00  0.00000000E+00  0.00000000E+00
  0.00000000E+00  0.00000000E+00  0.00000000E+00
  0.00000000E+00  0.00000000E+00  0.00000000E+00
  0.00000000E+00  0.00000000E+00  0.00000000E+00
  0.00000000E+00  0.00000000E+00  0.00000000E+00
  0.00000000E+00  0.00000000E+00  0.00000000E+00
  0.00000000E+00  0.00000000E+00  0.00000000E+00
  0.00000000E+00  0.00000000E+00  0.00000000E+00
  0.00000000E+00  0.00000000E+00  0.00000000E+00
  0.00000000E+00  0.00000000E+00  0.00000000E+00
  0.00000000E+00  0.00000000E+00  0.00000000E+00
  0.00000000E+00  0.00000000E+00  0.00000000E+00
  0.00000000E+00  0.00000000E+00  0.00000000E+00
  0.00000000E+00  0.00000000E+00  0.00000000E+00
  0.00000000E+00  0.00000000E+00  0.00000000E+00
  0.00000000E+00  0.00000000E+00  0.00000000E+00
  0.00000000E+00  0.00000000E+00  0.00000000E+00
  0.00000000E+00  0.00000000E+00  0.00000000E+00
