Bi La Sn O  C  H                        
   1.00000000000000     
    29.0000000000000000    0.0000000000000000    0.0000000000000000
     0.2488180851000000   28.9989325590000000    0.0000000000000000
    -0.0631677343000000   -0.4515975666000000   28.9964147692999994
   Bi   La   Sn   O    C    H 
    22    23    23     2     1     1
Selective dynamics
Direct
  0.7603461120072064  0.4754218013125801  0.3999640543067001   T   T   T
  0.6460334560738327  0.6845638671904433  0.5529018001445969   T   T   T
  0.3587310319923541  0.4569602686831760  0.4301126177208809   T   T   T
  0.5499508740794135  0.7130024711495200  0.5851754233684303   T   T   T
  0.5915029568994470  0.5209714444905416  0.5841479689498996   F   F   F
  0.6401024986511393  0.6809725583655153  0.4456931472271263   T   T   T
  0.6956195959921120  0.5232170332790467  0.6539537352786412   T   T   T
  0.4857728237550183  0.7006055206127014  0.4999944289358532   T   T   T
  0.5004839460855024  0.5502791173970252  0.5477141156400123   F   F   F
  0.3249335817523324  0.4862965175133886  0.5728125834680257   T   T   T
  0.3822921852524166  0.6107428538753562  0.5345188301555610   T   T   T
  0.6667129484492236  0.4827404655721850  0.5105018184570156   F   F   F
  0.5763997220267569  0.4263140504383500  0.5448328182496311   F   F   F
  0.6685157674556244  0.3736125532835178  0.5059296930193606   T   T   T
  0.4644062032204336  0.3374015650020630  0.5020122548474706   T   T   T
  0.6484934028780529  0.5775373212088155  0.4602701624361103   F   F   F
  0.5587994286522562  0.4381442805224892  0.7495581222377963   T   T   T
  0.6059136473877087  0.3531471044752824  0.6716083572207309   T   T   T
  0.4927664408153395  0.2984514730472961  0.4111983724182345   T   T   T
  0.6595257084914997  0.6191917135270589  0.6658451616606895   T   T   T
  0.4952856728129152  0.4080957942486823  0.3127190601779103   T   T   T
  0.6234892783088148  0.3180084034096224  0.5753098577081958   T   T   T
  0.5395185865401947  0.6843573743071932  0.4052484369283711   T   T   T
  0.3912910741973966  0.4145782908411998  0.5284260052382371   T   T   T
  0.6314189125632517  0.5519806402427632  0.2833270753331260   T   T   T
  0.4707926269062637  0.4699644649124434  0.6913811657473216   T   T   T
  0.5683115009887700  0.5094300495444983  0.4784716241115703   F   F   F
  0.4203210565129183  0.5084107200613417  0.5018573595042781   F   F   F
  0.4520638626920958  0.3992395063902667  0.4100203118046463   T   T   T
  0.5673163699230250  0.3461795152800541  0.3580205623552200   T   T   T
  0.4102150035667386  0.5401083855046183  0.6093181719998335   T   T   T
  0.5998880305467531  0.4413760668051361  0.3042563643535748   T   T   T
  0.4557800800034583  0.5966163880182412  0.3594445614909666   T   T   T
  0.4162729663016239  0.4814377094160582  0.3381399896161685   T   T   T
  0.6612374891808164  0.4288581048968550  0.6041697712366108   T   T   T
  0.6728798742117585  0.5788958768706709  0.5637640178473152   T   T   T
  0.5274075814468870  0.5107430063905943  0.3281982725920972   T   T   T
  0.5658995148379140  0.3580854743703198  0.4690323611775802   T   T   T
  0.3160226301082604  0.5425951342598281  0.4896644486278049   T   T   T
  0.6598895654959704  0.4295143691182631  0.4158643964193165   T   T   T
  0.5660841929594156  0.6261437171197244  0.5094829013827464   F   F   F
  0.5951545384839957  0.5297153538397167  0.6895767438796699   T   T   T
  0.4696634061776965  0.6414390866962074  0.5887719261408898   T   T   T
  0.4625052525431103  0.6030318352182539  0.4625849478702415   T   T   T
  0.7176087584783966  0.5713484559948102  0.3839368899057165   T   T   T
  0.5499310510395361  0.5822218838566187  0.4076968008106903   F   F   F
  0.4794126430662260  0.5072205383607624  0.4190535757241776   F   F   F
  0.6958060651825065  0.4785856132812542  0.3251247720190252   T   T   T
  0.7517555530690331  0.4282768681671109  0.4899363613407491   T   T   T
  0.7485332462516280  0.5375153640413500  0.4851323832986024   T   T   T
  0.7490427812620011  0.4912973362038427  0.5725053610231957   T   T   T
  0.6493178403136296  0.4395512298277379  0.7091621553783946   T   T   T
  0.5765097637554023  0.7429058582880098  0.4939844916453484   T   T   T
  0.6192554540844384  0.5183157687966542  0.3801816896793397   F   F   F
  0.5037366305946636  0.5592369477789906  0.6502886871262691   T   T   T
  0.4922009500451665  0.4366758245867572  0.4933013002826740   F   F   F
  0.5608844484509063  0.4404139570509003  0.6454865549417619   F   F   F
  0.5763925893956660  0.6158693016472276  0.6136814920670272   T   T   T
  0.5481173973395782  0.6184781812329265  0.3136983702478806   T   T   T
  0.6304929957605878  0.6251038031172425  0.3614194140773619   T   T   T
  0.3785810912561013  0.5540249788721583  0.4107175719181601   T   T   T
  0.4723078164089713  0.4557257050327763  0.5877273803360978   F   F   F
  0.7267547560314227  0.6348162309136214  0.4846088156545275   T   T   T
  0.5057893684177276  0.3680792680911336  0.6870375583881151   T   T   T
  0.3795838685858722  0.4418409036138189  0.6400151049372969   T   T   T
  0.5544592502646992  0.4379899399457940  0.4037542370104745   F   F   F
  0.4359245648696541  0.3654081346376254  0.6134627337433713   T   T   T
  0.5293048596640919  0.3495472774096029  0.5817932211790937   T   T   T
  0.4099874335484611  0.4922073335039671  0.2553917165118806   T   T   T
  0.4514583375524942  0.5480603028540547  0.2914425724807362   T   T   T
  0.4469266991664779  0.5162341510527797  0.2583685343155037   T   T   T
  0.4755034589358036  0.5121804333611287  0.2336136679833069   T   T   T
 
  0.00000000E+00  0.00000000E+00  0.00000000E+00
  0.00000000E+00  0.00000000E+00  0.00000000E+00
  0.00000000E+00  0.00000000E+00  0.00000000E+00
  0.00000000E+00  0.00000000E+00  0.00000000E+00
  0.00000000E+00  0.00000000E+00  0.00000000E+00
  0.00000000E+00  0.00000000E+00  0.00000000E+00
  0.00000000E+00  0.00000000E+00  0.00000000E+00
  0.00000000E+00  0.00000000E+00  0.00000000E+00
  0.00000000E+00  0.00000000E+00  0.00000000E+00
  0.00000000E+00  0.00000000E+00  0.00000000E+00
  0.00000000E+00  0.00000000E+00  0.00000000E+00
  0.00000000E+00  0.00000000E+00  0.00000000E+00
  0.00000000E+00  0.00000000E+00  0.00000000E+00
  0.00000000E+00  0.00000000E+00  0.00000000E+00
  0.00000000E+00  0.00000000E+00  0.00000000E+00
  0.00000000E+00  0.00000000E+00  0.00000000E+00
  0.00000000E+00  0.00000000E+00  0.00000000E+00
  0.00000000E+00  0.00000000E+00  0.00000000E+00
  0.00000000E+00  0.00000000E+00  0.00000000E+00
  0.00000000E+00  0.00000000E+00  0.00000000E+00
  0.00000000E+00  0.00000000E+00  0.00000000E+00
  0.00000000E+00  0.00000000E+00  0.00000000E+00
  0.00000000E+00  0.00000000E+00  0.00000000E+00
  0.00000000E+00  0.00000000E+00  0.00000000E+00
  0.00000000E+00  0.00000000E+00  0.00000000E+00
  0.00000000E+00  0.00000000E+00  0.00000000E+00
  0.00000000E+00  0.00000000E+00  0.00000000E+00
  0.00000000E+00  0.00000000E+00  0.00000000E+00
  0.00000000E+00  0.00000000E+00  0.00000000E+00
  0.00000000E+00  0.00000000E+00  0.00000000E+00
  0.00000000E+00  0.00000000E+00  0.00000000E+00
  0.00000000E+00  0.00000000E+00  0.00000000E+00
  0.00000000E+00  0.00000000E+00  0.00000000E+00
  0.00000000E+00  0.00000000E+00  0.00000000E+00
  0.00000000E+00  0.00000000E+00  0.00000000E+00
  0.00000000E+00  0.00000000E+00  0.00000000E+00
  0.00000000E+00  0.00000000E+00  0.00000000E+00
  0.00000000E+00  0.00000000E+00  0.00000000E+00
  0.00000000E+00  0.00000000E+00  0.00000000E+00
  0.00000000E+00  0.00000000E+00  0.00000000E+00
  0.00000000E+00  0.00000000E+00  0.00000000E+00
  0.00000000E+00  0.00000000E+00  0.00000000E+00
  0.00000000E+00  0.00000000E+00  0.00000000E+00
  0.00000000E+00  0.00000000E+00  0.00000000E+00
  0.00000000E+00  0.00000000E+00  0.00000000E+00
  0.00000000E+00  0.00000000E+00  0.00000000E+00
  0.00000000E+00  0.00000000E+00  0.00000000E+00
  0.00000000E+00  0.00000000E+00  0.00000000E+00
  0.00000000E+00  0.00000000E+00  0.00000000E+00
  0.00000000E+00  0.00000000E+00  0.00000000E+00
  0.00000000E+00  0.00000000E+00  0.00000000E+00
  0.00000000E+00  0.00000000E+00  0.00000000E+00
  0.00000000E+00  0.00000000E+00  0.00000000E+00
  0.00000000E+00  0.00000000E+00  0.00000000E+00
  0.00000000E+00  0.00000000E+00  0.00000000E+00
  0.00000000E+00  0.00000000E+00  0.00000000E+00
  0.00000000E+00  0.00000000E+00  0.00000000E+00
  0.00000000E+00  0.00000000E+00  0.00000000E+00
  0.00000000E+00  0.00000000E+00  0.00000000E+00
  0.00000000E+00  0.00000000E+00  0.00000000E+00
  0.00000000E+00  0.00000000E+00  0.00000000E+00
  0.00000000E+00  0.00000000E+00  0.00000000E+00
  0.00000000E+00  0.00000000E+00  0.00000000E+00
  0.00000000E+00  0.00000000E+00  0.00000000E+00
  0.00000000E+00  0.00000000E+00  0.00000000E+00
  0.00000000E+00  0.00000000E+00  0.00000000E+00
  0.00000000E+00  0.00000000E+00  0.00000000E+00
  0.00000000E+00  0.00000000E+00  0.00000000E+00
  0.00000000E+00  0.00000000E+00  0.00000000E+00
  0.00000000E+00  0.00000000E+00  0.00000000E+00
  0.00000000E+00  0.00000000E+00  0.00000000E+00
  0.00000000E+00  0.00000000E+00  0.00000000E+00
