Bi La Sn O  C  H                        
   1.00000000000000     
    29.0000000000000000    0.0000000000000000    0.0000000000000000
     0.2488180851000000   28.9989325590000000    0.0000000000000000
    -0.0631677343000000   -0.4515975666000000   28.9964147692999994
   Bi   La   Sn   O    C    H 
    22    23    23     2     1     1
Selective dynamics
Direct
  0.7596913679510765  0.4786049207416334  0.3997802405638045   T   T   T
  0.6464845012996185  0.6845884246332812  0.5520765078257146   T   T   T
  0.3588408988823973  0.4581794939380949  0.4287724339038855   T   T   T
  0.5504154596637011  0.7127687236212916  0.5856445072574240   T   T   T
  0.5915029568994470  0.5209714444905416  0.5841479689498996   F   F   F
  0.6397110169845625  0.6805874167622721  0.4452825558325313   T   T   T
  0.6957564270497385  0.5228003947022389  0.6538871033317345   T   T   T
  0.4858019239173561  0.7008675283083559  0.5011476121565210   T   T   T
  0.5004839460855024  0.5502791173970252  0.5477141156400123   F   F   F
  0.3248596892943421  0.4865519853277513  0.5735956791524895   T   T   T
  0.3826107997249691  0.6107859728408850  0.5352948563334933   T   T   T
  0.6667129484492236  0.4827404655721850  0.5105018184570156   F   F   F
  0.5763997220267569  0.4263140504383500  0.5448328182496311   F   F   F
  0.6689772027713030  0.3743752823487852  0.5062090018522224   T   T   T
  0.4635690284302235  0.3374560172030867  0.5013351978136066   T   T   T
  0.6484934028780529  0.5775373212088155  0.4602701624361103   F   F   F
  0.5574187781298693  0.4373556961987776  0.7498091532534086   T   T   T
  0.6047868322569161  0.3515682888518762  0.6695019280158142   T   T   T
  0.4924384277483164  0.2992864677448254  0.4108139050926381   T   T   T
  0.6598261837327987  0.6187754609752187  0.6661575715377956   T   T   T
  0.4967685033233565  0.4073284886001811  0.3130818373244145   T   T   T
  0.6230433153330963  0.3170225342407034  0.5735304521321546   T   T   T
  0.5378454184683014  0.6841319349070664  0.4059403963056362   T   T   T
  0.3908453936793675  0.4150558726703001  0.5274696992690052   T   T   T
  0.6275650764027985  0.5523445445219831  0.2829408037819224   T   T   T
  0.4708913111307078  0.4701250762382908  0.6915120346433983   T   T   T
  0.5683115009887700  0.5094300495444983  0.4784716241115703   F   F   F
  0.4203210565129183  0.5084107200613417  0.5018573595042781   F   F   F
  0.4512937665325445  0.4000886682885170  0.4090080685059566   T   T   T
  0.5683238839403500  0.3456986928626140  0.3587908922620911   T   T   T
  0.4105830187267338  0.5401035905880078  0.6095410421640797   T   T   T
  0.6017301182299366  0.4391367454194338  0.3062348170317528   T   T   T
  0.4555428895501863  0.5992785566672247  0.3629144168180833   T   T   T
  0.4190404713341541  0.4848068870053313  0.3374775460118391   T   T   T
  0.6611243226254204  0.4288339217745771  0.6043903325554778   T   T   T
  0.6731792587760778  0.5790354476798558  0.5638343380199372   T   T   T
  0.5254449161394088  0.5108135771641996  0.3265491152643097   T   T   T
  0.5658782798643223  0.3580027768711115  0.4695014655341511   T   T   T
  0.3161218570967514  0.5427039400319932  0.4904245857694490   T   T   T
  0.6605644590214516  0.4296638058771206  0.4152058034423796   T   T   T
  0.5660841929594156  0.6261437171197244  0.5094829013827464   F   F   F
  0.5957586984278399  0.5287855588288002  0.6898696949455940   T   T   T
  0.4701338322951829  0.6412986818601630  0.5894857911842518   T   T   T
  0.4627359163269053  0.6036879685205780  0.4637770937021388   T   T   T
  0.7170909874125244  0.5743873138123831  0.3837785230299424   T   T   T
  0.5499310510395361  0.5822218838566187  0.4076968008106903   F   F   F
  0.4794126430662260  0.5072205383607624  0.4190535757241776   F   F   F
  0.6958844894670857  0.4822533133068039  0.3245238600337006   T   T   T
  0.7522402905282010  0.4294904027366758  0.4887214967636571   T   T   T
  0.7483324198017898  0.5386668119333057  0.4854161392282296   T   T   T
  0.7489374808244363  0.4914817108768926  0.5724794059411844   T   T   T
  0.6478386281333353  0.4372668664070031  0.7092559461602443   T   T   T
  0.5764839390344072  0.7426648605676585  0.4941024893611694   T   T   T
  0.6192554540844384  0.5183157687966542  0.3801816896793397   F   F   F
  0.5047505361934667  0.5586908844151374  0.6501448365302658   T   T   T
  0.4922009500451665  0.4366758245867572  0.4933013002826740   F   F   F
  0.5608844484509063  0.4404139570509003  0.6454865549417619   F   F   F
  0.5768224076744016  0.6158220032946639  0.6138813111774386   T   T   T
  0.5455999811922976  0.6196950892184421  0.3139149792796226   T   T   T
  0.6289314476315521  0.6259013152857322  0.3604303155986686   T   T   T
  0.3779803324705355  0.5547603656476213  0.4111512380909290   T   T   T
  0.4723078164089713  0.4557257050327763  0.5877273803360978   F   F   F
  0.7268495829545808  0.6356387338567984  0.4845267456788448   T   T   T
  0.5050223817104135  0.3677635611106108  0.6856653365630926   T   T   T
  0.3802391736401028  0.4415078357772548  0.6395412732731751   T   T   T
  0.5544592502646992  0.4379899399457940  0.4037542370104745   F   F   F
  0.4355219831671965  0.3646884333277274  0.6117334669129746   T   T   T
  0.5290223881604448  0.3489869282972921  0.5806475807601363   T   T   T
  0.4111031390198035  0.5059885009148141  0.2576001889321524   T   T   T
  0.4876468029372102  0.5182855511437289  0.2492245648253835   T   T   T
  0.4474063129502554  0.5121820438454134  0.2332994718026572   T   T   T
  0.4427826919591533  0.5122749521422609  0.1952271079269570   T   T   T
 
  0.00000000E+00  0.00000000E+00  0.00000000E+00
  0.00000000E+00  0.00000000E+00  0.00000000E+00
  0.00000000E+00  0.00000000E+00  0.00000000E+00
  0.00000000E+00  0.00000000E+00  0.00000000E+00
  0.00000000E+00  0.00000000E+00  0.00000000E+00
  0.00000000E+00  0.00000000E+00  0.00000000E+00
  0.00000000E+00  0.00000000E+00  0.00000000E+00
  0.00000000E+00  0.00000000E+00  0.00000000E+00
  0.00000000E+00  0.00000000E+00  0.00000000E+00
  0.00000000E+00  0.00000000E+00  0.00000000E+00
  0.00000000E+00  0.00000000E+00  0.00000000E+00
  0.00000000E+00  0.00000000E+00  0.00000000E+00
  0.00000000E+00  0.00000000E+00  0.00000000E+00
  0.00000000E+00  0.00000000E+00  0.00000000E+00
  0.00000000E+00  0.00000000E+00  0.00000000E+00
  0.00000000E+00  0.00000000E+00  0.00000000E+00
  0.00000000E+00  0.00000000E+00  0.00000000E+00
  0.00000000E+00  0.00000000E+00  0.00000000E+00
  0.00000000E+00  0.00000000E+00  0.00000000E+00
  0.00000000E+00  0.00000000E+00  0.00000000E+00
  0.00000000E+00  0.00000000E+00  0.00000000E+00
  0.00000000E+00  0.00000000E+00  0.00000000E+00
  0.00000000E+00  0.00000000E+00  0.00000000E+00
  0.00000000E+00  0.00000000E+00  0.00000000E+00
  0.00000000E+00  0.00000000E+00  0.00000000E+00
  0.00000000E+00  0.00000000E+00  0.00000000E+00
  0.00000000E+00  0.00000000E+00  0.00000000E+00
  0.00000000E+00  0.00000000E+00  0.00000000E+00
  0.00000000E+00  0.00000000E+00  0.00000000E+00
  0.00000000E+00  0.00000000E+00  0.00000000E+00
  0.00000000E+00  0.00000000E+00  0.00000000E+00
  0.00000000E+00  0.00000000E+00  0.00000000E+00
  0.00000000E+00  0.00000000E+00  0.00000000E+00
  0.00000000E+00  0.00000000E+00  0.00000000E+00
  0.00000000E+00  0.00000000E+00  0.00000000E+00
  0.00000000E+00  0.00000000E+00  0.00000000E+00
  0.00000000E+00  0.00000000E+00  0.00000000E+00
  0.00000000E+00  0.00000000E+00  0.00000000E+00
  0.00000000E+00  0.00000000E+00  0.00000000E+00
  0.00000000E+00  0.00000000E+00  0.00000000E+00
  0.00000000E+00  0.00000000E+00  0.00000000E+00
  0.00000000E+00  0.00000000E+00  0.00000000E+00
  0.00000000E+00  0.00000000E+00  0.00000000E+00
  0.00000000E+00  0.00000000E+00  0.00000000E+00
  0.00000000E+00  0.00000000E+00  0.00000000E+00
  0.00000000E+00  0.00000000E+00  0.00000000E+00
  0.00000000E+00  0.00000000E+00  0.00000000E+00
  0.00000000E+00  0.00000000E+00  0.00000000E+00
  0.00000000E+00  0.00000000E+00  0.00000000E+00
  0.00000000E+00  0.00000000E+00  0.00000000E+00
  0.00000000E+00  0.00000000E+00  0.00000000E+00
  0.00000000E+00  0.00000000E+00  0.00000000E+00
  0.00000000E+00  0.00000000E+00  0.00000000E+00
  0.00000000E+00  0.00000000E+00  0.00000000E+00
  0.00000000E+00  0.00000000E+00  0.00000000E+00
  0.00000000E+00  0.00000000E+00  0.00000000E+00
  0.00000000E+00  0.00000000E+00  0.00000000E+00
  0.00000000E+00  0.00000000E+00  0.00000000E+00
  0.00000000E+00  0.00000000E+00  0.00000000E+00
  0.00000000E+00  0.00000000E+00  0.00000000E+00
  0.00000000E+00  0.00000000E+00  0.00000000E+00
  0.00000000E+00  0.00000000E+00  0.00000000E+00
  0.00000000E+00  0.00000000E+00  0.00000000E+00
  0.00000000E+00  0.00000000E+00  0.00000000E+00
  0.00000000E+00  0.00000000E+00  0.00000000E+00
  0.00000000E+00  0.00000000E+00  0.00000000E+00
  0.00000000E+00  0.00000000E+00  0.00000000E+00
  0.00000000E+00  0.00000000E+00  0.00000000E+00
  0.00000000E+00  0.00000000E+00  0.00000000E+00
  0.00000000E+00  0.00000000E+00  0.00000000E+00
  0.00000000E+00  0.00000000E+00  0.00000000E+00
  0.00000000E+00  0.00000000E+00  0.00000000E+00
