Bi La Sn O  C  H                        
   1.00000000000000     
    29.0000000000000000    0.0000000000000000    0.0000000000000000
     0.2488180851000000   28.9989325590000000    0.0000000000000000
    -0.0631677343000000   -0.4515975666000000   28.9964147692999994
   Bi   La   Sn   O    C    H 
    22    23    23     2     1     1
Selective dynamics
Direct
  0.7597465006650058  0.4788322915922389  0.3999086303816868   T   T   T
  0.6481936140507825  0.6849260052775532  0.5498328561900895   T   T   T
  0.3635159101301950  0.4567289689030709  0.4266134515328054   T   T   T
  0.5519884276835448  0.7137700303992817  0.5838317025158131   T   T   T
  0.5915029568994470  0.5209714444905416  0.5841479689498996   F   F   F
  0.6400897404586620  0.6801512831978446  0.4445904924828955   T   T   T
  0.6956555643779547  0.5200874225336785  0.6535498767757606   T   T   T
  0.4871264179314858  0.7014799423752917  0.4986352874184311   T   T   T
  0.5004839460855024  0.5502791173970252  0.5477141156400123   F   F   F
  0.3300539479482686  0.4845411936275235  0.5792977580724853   T   T   T
  0.3835126423742701  0.6073461247161099  0.5384438376683228   T   T   T
  0.6667129484492236  0.4827404655721850  0.5105018184570156   F   F   F
  0.5763997220267569  0.4263140504383500  0.5448328182496311   F   F   F
  0.6693403022909973  0.3737702029348327  0.5065802620926178   T   T   T
  0.4624382640844338  0.3380252445048027  0.4950177086747050   T   T   T
  0.6484934028780529  0.5775373212088155  0.4602701624361103   F   F   F
  0.5547864570851706  0.4342261429516640  0.7496234414846478   T   T   T
  0.5911599328185940  0.3487287556089948  0.6677399354372338   T   T   T
  0.4948967283450774  0.2989524594463558  0.4064348924221934   T   T   T
  0.6611583888549410  0.6158663773775525  0.6681190628233189   T   T   T
  0.4930395643258204  0.4105413792497042  0.3034949321874587   T   T   T
  0.6208611247715380  0.3173705540577254  0.5730651752795094   T   T   T
  0.5394554862890639  0.6837969630000281  0.4040567747375970   T   T   T
  0.3903158979855413  0.4146581065662169  0.5258887679270361   T   T   T
  0.6281167537542398  0.5519206922624361  0.2823567108418799   T   T   T
  0.4737260040069093  0.4817753605164146  0.6929390754594145   T   T   T
  0.5683115009887700  0.5094300495444983  0.4784716241115703   F   F   F
  0.4203210565129183  0.5084107200613417  0.5018573595042781   F   F   F
  0.4546180574223921  0.4007538529619574  0.4036900008376583   T   T   T
  0.5648554360526513  0.3498361575384847  0.3518571673471716   T   T   T
  0.4144126959680426  0.5392966836026548  0.6135880079226758   T   T   T
  0.6000188272494495  0.4421162017428139  0.3047681928184985   T   T   T
  0.4545823779878565  0.5996817076052153  0.3632174391532585   T   T   T
  0.4197937463087454  0.4876491067161054  0.3381053825699207   T   T   T
  0.6605696673963802  0.4262290938027953  0.6045815669843381   T   T   T
  0.6740536068434259  0.5786825320153562  0.5641774733043839   T   T   T
  0.5261443632554181  0.5092732664247619  0.3281373321838011   T   T   T
  0.5664568116094317  0.3567833305277889  0.4691460448582273   T   T   T
  0.3130614713380320  0.5375580374311784  0.4925940276488913   T   T   T
  0.6602659406816908  0.4293210580470391  0.4154694616507917   T   T   T
  0.5660841929594156  0.6261437171197244  0.5094829013827464   F   F   F
  0.5962653124767600  0.5266343580063444  0.6901945329203518   T   T   T
  0.4711688340142154  0.6430529245266744  0.5876351555845956   T   T   T
  0.4620403209852476  0.6035639510726623  0.4638713094262900   T   T   T
  0.7166919716232319  0.5742026410106139  0.3837005910159930   T   T   T
  0.5499310510395361  0.5822218838566187  0.4076968008106903   F   F   F
  0.4794126430662260  0.5072205383607624  0.4190535757241776   F   F   F
  0.6956060476690163  0.4814097380777334  0.3247443965164129   T   T   T
  0.7518733019202404  0.4286990335282557  0.4875281939182265   T   T   T
  0.7486662248233552  0.5385693459236051  0.4860747541266925   T   T   T
  0.7490441283953584  0.4888705475705091  0.5720314759389624   T   T   T
  0.6442782848970877  0.4304316868295709  0.7086532632081459   T   T   T
  0.5775218304354337  0.7436666032899323  0.4924977939969015   T   T   T
  0.6192554540844384  0.5183157687966542  0.3801816896793397   F   F   F
  0.5086451330224240  0.5660770192214285  0.6505143437783572   T   T   T
  0.4922009500451665  0.4366758245867572  0.4933013002826740   F   F   F
  0.5608844484509063  0.4404139570509003  0.6454865549417619   F   F   F
  0.5803316274902982  0.6179288215877823  0.6128679600759854   T   T   T
  0.5441689666445505  0.6172263558712565  0.3125710407837313   T   T   T
  0.6276815356016906  0.6246829642668731  0.3600178068737974   T   T   T
  0.3769107316837552  0.5553869502594461  0.4128164563523716   T   T   T
  0.4723078164089713  0.4557257050327763  0.5877273803360978   F   F   F
  0.7273605594864075  0.6353990239201173  0.4840680964867993   T   T   T
  0.4913809371721947  0.3786768499514941  0.6779787041896923   T   T   T
  0.3887394953854549  0.4362358408105735  0.6417293383758214   T   T   T
  0.5544592502646992  0.4379899399457940  0.4037542370104745   F   F   F
  0.4307680028656549  0.3551017204471643  0.6021053513558320   T   T   T
  0.5256278875903081  0.3495741481247483  0.5760438327616195   T   T   T
  0.2386988236960183  0.4999854232338407  0.4701492189111327   T   T   T
  0.2380367596918231  0.5758899686763994  0.4878956892382742   T   T   T
  0.2180565038748461  0.5388755362495727  0.4735390006792711   T   T   T
  0.1811186304693241  0.5412169967431599  0.4635927977383571   T   T   T
 
  0.00000000E+00  0.00000000E+00  0.00000000E+00
  0.00000000E+00  0.00000000E+00  0.00000000E+00
  0.00000000E+00  0.00000000E+00  0.00000000E+00
  0.00000000E+00  0.00000000E+00  0.00000000E+00
  0.00000000E+00  0.00000000E+00  0.00000000E+00
  0.00000000E+00  0.00000000E+00  0.00000000E+00
  0.00000000E+00  0.00000000E+00  0.00000000E+00
  0.00000000E+00  0.00000000E+00  0.00000000E+00
  0.00000000E+00  0.00000000E+00  0.00000000E+00
  0.00000000E+00  0.00000000E+00  0.00000000E+00
  0.00000000E+00  0.00000000E+00  0.00000000E+00
  0.00000000E+00  0.00000000E+00  0.00000000E+00
  0.00000000E+00  0.00000000E+00  0.00000000E+00
  0.00000000E+00  0.00000000E+00  0.00000000E+00
  0.00000000E+00  0.00000000E+00  0.00000000E+00
  0.00000000E+00  0.00000000E+00  0.00000000E+00
  0.00000000E+00  0.00000000E+00  0.00000000E+00
  0.00000000E+00  0.00000000E+00  0.00000000E+00
  0.00000000E+00  0.00000000E+00  0.00000000E+00
  0.00000000E+00  0.00000000E+00  0.00000000E+00
  0.00000000E+00  0.00000000E+00  0.00000000E+00
  0.00000000E+00  0.00000000E+00  0.00000000E+00
  0.00000000E+00  0.00000000E+00  0.00000000E+00
  0.00000000E+00  0.00000000E+00  0.00000000E+00
  0.00000000E+00  0.00000000E+00  0.00000000E+00
  0.00000000E+00  0.00000000E+00  0.00000000E+00
  0.00000000E+00  0.00000000E+00  0.00000000E+00
  0.00000000E+00  0.00000000E+00  0.00000000E+00
  0.00000000E+00  0.00000000E+00  0.00000000E+00
  0.00000000E+00  0.00000000E+00  0.00000000E+00
  0.00000000E+00  0.00000000E+00  0.00000000E+00
  0.00000000E+00  0.00000000E+00  0.00000000E+00
  0.00000000E+00  0.00000000E+00  0.00000000E+00
  0.00000000E+00  0.00000000E+00  0.00000000E+00
  0.00000000E+00  0.00000000E+00  0.00000000E+00
  0.00000000E+00  0.00000000E+00  0.00000000E+00
  0.00000000E+00  0.00000000E+00  0.00000000E+00
  0.00000000E+00  0.00000000E+00  0.00000000E+00
  0.00000000E+00  0.00000000E+00  0.00000000E+00
  0.00000000E+00  0.00000000E+00  0.00000000E+00
  0.00000000E+00  0.00000000E+00  0.00000000E+00
  0.00000000E+00  0.00000000E+00  0.00000000E+00
  0.00000000E+00  0.00000000E+00  0.00000000E+00
  0.00000000E+00  0.00000000E+00  0.00000000E+00
  0.00000000E+00  0.00000000E+00  0.00000000E+00
  0.00000000E+00  0.00000000E+00  0.00000000E+00
  0.00000000E+00  0.00000000E+00  0.00000000E+00
  0.00000000E+00  0.00000000E+00  0.00000000E+00
  0.00000000E+00  0.00000000E+00  0.00000000E+00
  0.00000000E+00  0.00000000E+00  0.00000000E+00
  0.00000000E+00  0.00000000E+00  0.00000000E+00
  0.00000000E+00  0.00000000E+00  0.00000000E+00
  0.00000000E+00  0.00000000E+00  0.00000000E+00
  0.00000000E+00  0.00000000E+00  0.00000000E+00
  0.00000000E+00  0.00000000E+00  0.00000000E+00
  0.00000000E+00  0.00000000E+00  0.00000000E+00
  0.00000000E+00  0.00000000E+00  0.00000000E+00
  0.00000000E+00  0.00000000E+00  0.00000000E+00
  0.00000000E+00  0.00000000E+00  0.00000000E+00
  0.00000000E+00  0.00000000E+00  0.00000000E+00
  0.00000000E+00  0.00000000E+00  0.00000000E+00
  0.00000000E+00  0.00000000E+00  0.00000000E+00
  0.00000000E+00  0.00000000E+00  0.00000000E+00
  0.00000000E+00  0.00000000E+00  0.00000000E+00
  0.00000000E+00  0.00000000E+00  0.00000000E+00
  0.00000000E+00  0.00000000E+00  0.00000000E+00
  0.00000000E+00  0.00000000E+00  0.00000000E+00
  0.00000000E+00  0.00000000E+00  0.00000000E+00
  0.00000000E+00  0.00000000E+00  0.00000000E+00
  0.00000000E+00  0.00000000E+00  0.00000000E+00
  0.00000000E+00  0.00000000E+00  0.00000000E+00
  0.00000000E+00  0.00000000E+00  0.00000000E+00
