Bi La Sn O  C  H                        
   1.00000000000000     
    29.0000000000000000    0.0000000000000000    0.0000000000000000
     0.2488180851000000   28.9989325590000000    0.0000000000000000
    -0.0631677343000000   -0.4515975666000000   28.9964147692999994
   Bi   La   Sn   O    C    H 
    22    23    23     2     1     1
Selective dynamics
Direct
  0.7603114474867484  0.4786397387970702  0.3998683803576208   T   T   T
  0.6464636062975282  0.6841637529263362  0.5530992449870744   T   T   T
  0.3566275053561754  0.4595738711009821  0.4312329557603824   T   T   T
  0.5504347724555633  0.7131021541177325  0.5851979109616168   T   T   T
  0.5915029568994470  0.5209714444905416  0.5841479689498996   F   F   F
  0.6402773497601241  0.6811736340330995  0.4465992917462083   T   T   T
  0.6957479932432648  0.5222508565670437  0.6544294439838634   T   T   T
  0.4857242710179677  0.7006366296070264  0.5002365937521956   T   T   T
  0.5004839460855024  0.5502791173970252  0.5477141156400123   F   F   F
  0.3246857717516814  0.4863831939160736  0.5731697986726264   T   T   T
  0.3830281401977302  0.6113646252402603  0.5349872919084238   T   T   T
  0.6667129484492236  0.4827404655721850  0.5105018184570156   F   F   F
  0.5763997220267569  0.4263140504383500  0.5448328182496311   F   F   F
  0.6692024372148084  0.3741475466917535  0.5058332621640719   T   T   T
  0.4637395761777839  0.3374486141710405  0.5007921190165832   T   T   T
  0.6484934028780529  0.5775373212088155  0.4602701624361103   F   F   F
  0.5577482222954715  0.4371269742797378  0.7499223688813119   T   T   T
  0.6050317789231362  0.3513039719851003  0.6690949676451096   T   T   T
  0.4932867251428746  0.2984443984887653  0.4110390679266315   T   T   T
  0.6597084509536335  0.6186404757966920  0.6659108464533069   T   T   T
  0.4982214634677002  0.4088482822545882  0.3124096497937157   T   T   T
  0.6223488492148447  0.3167851437261526  0.5727462422272542   T   T   T
  0.5387815699480070  0.6837121594055514  0.4051992638062954   T   T   T
  0.3911164833886993  0.4149152530320117  0.5280178441685395   T   T   T
  0.6312905127369627  0.5536313910181974  0.2833535695085765   T   T   T
  0.4708003627086136  0.4701276411971370  0.6912761847105199   T   T   T
  0.5683115009887700  0.5094300495444983  0.4784716241115703   F   F   F
  0.4203210565129183  0.5084107200613417  0.5018573595042781   F   F   F
  0.4496864850491180  0.3988671892544023  0.4082281480670648   T   T   T
  0.5678999006521062  0.3461643114833897  0.3581547411996709   T   T   T
  0.4103801205017186  0.5404323532194631  0.6092540671566400   T   T   T
  0.6008065331624994  0.4433320393282404  0.3046961366808124   T   T   T
  0.4556281743431879  0.5992669678022334  0.3619857449577251   T   T   T
  0.4146911013294473  0.4813785201544095  0.3406147758524938   T   T   T
  0.6612065805417825  0.4281960659940909  0.6041560064969340   T   T   T
  0.6732076685921164  0.5784592076152029  0.5639750593315345   T   T   T
  0.5268756041485828  0.5101060746908408  0.3275046271036254   T   T   T
  0.5662889769212037  0.3580609178811719  0.4690707363420673   T   T   T
  0.3153907018349066  0.5444436129373672  0.4913984586143847   T   T   T
  0.6607654240789337  0.4299024301605951  0.4153315892862900   T   T   T
  0.5660841929594156  0.6261437171197244  0.5094829013827464   F   F   F
  0.5952801244637281  0.5291108073025012  0.6898062450705493   T   T   T
  0.4702698451897442  0.6414776342201129  0.5889189538222493   T   T   T
  0.4629209276505118  0.6033757140839546  0.4631782910254691   T   T   T
  0.7171027451861787  0.5743105801850041  0.3838304680587759   T   T   T
  0.5499310510395361  0.5822218838566187  0.4076968008106903   F   F   F
  0.4794126430662260  0.5072205383607624  0.4190535757241776   F   F   F
  0.6967522316154112  0.4809752438893087  0.3251583919940892   T   T   T
  0.7523786370581192  0.4297537594617597  0.4888341747787806   T   T   T
  0.7484311213593656  0.5382130996100727  0.4859594546229475   T   T   T
  0.7488380808694961  0.4911967756837735  0.5730727440088461   T   T   T
  0.6478444473817208  0.4378078731236362  0.7089026532482658   T   T   T
  0.5759044129768628  0.7428333265565086  0.4937911254176112   T   T   T
  0.6192554540844384  0.5183157687966542  0.3801816896793397   F   F   F
  0.5042937515193001  0.5591276954357015  0.6502561306461064   T   T   T
  0.4922009500451665  0.4366758245867572  0.4933013002826740   F   F   F
  0.5608844484509063  0.4404139570509003  0.6454865549417619   F   F   F
  0.5767552483149877  0.6158052762667900  0.6137522940613372   T   T   T
  0.5461487862587882  0.6178117493827380  0.3125669502479368   T   T   T
  0.6280503239738309  0.6257640974566732  0.3620424479617870   T   T   T
  0.3774074314631427  0.5557520610622166  0.4116135428692073   T   T   T
  0.4723078164089713  0.4557257050327763  0.5877273803360978   F   F   F
  0.7271555854716093  0.6350514088348375  0.4850731232584347   T   T   T
  0.5057402618692171  0.3683985212270624  0.6854505073912177   T   T   T
  0.3797570833399283  0.4422352499174572  0.6399836143546344   T   T   T
  0.5544592502646992  0.4379899399457940  0.4037542370104745   F   F   F
  0.4353608057136735  0.3654866329510681  0.6128170348445833   T   T   T
  0.5286153160249755  0.3490841384705957  0.5803129257740030   T   T   T
  0.3901597182507938  0.3880524170169622  0.3478284917740325   T   T   T
  0.3689650725087198  0.4310223454387101  0.2873857151103213   T   T   T
  0.3689850254298794  0.3935179340534881  0.3095310186704746   T   T   T
  0.3496393476863865  0.3637478812913865  0.2953554658348249   T   T   T
 
  0.00000000E+00  0.00000000E+00  0.00000000E+00
  0.00000000E+00  0.00000000E+00  0.00000000E+00
  0.00000000E+00  0.00000000E+00  0.00000000E+00
  0.00000000E+00  0.00000000E+00  0.00000000E+00
  0.00000000E+00  0.00000000E+00  0.00000000E+00
  0.00000000E+00  0.00000000E+00  0.00000000E+00
  0.00000000E+00  0.00000000E+00  0.00000000E+00
  0.00000000E+00  0.00000000E+00  0.00000000E+00
  0.00000000E+00  0.00000000E+00  0.00000000E+00
  0.00000000E+00  0.00000000E+00  0.00000000E+00
  0.00000000E+00  0.00000000E+00  0.00000000E+00
  0.00000000E+00  0.00000000E+00  0.00000000E+00
  0.00000000E+00  0.00000000E+00  0.00000000E+00
  0.00000000E+00  0.00000000E+00  0.00000000E+00
  0.00000000E+00  0.00000000E+00  0.00000000E+00
  0.00000000E+00  0.00000000E+00  0.00000000E+00
  0.00000000E+00  0.00000000E+00  0.00000000E+00
  0.00000000E+00  0.00000000E+00  0.00000000E+00
  0.00000000E+00  0.00000000E+00  0.00000000E+00
  0.00000000E+00  0.00000000E+00  0.00000000E+00
  0.00000000E+00  0.00000000E+00  0.00000000E+00
  0.00000000E+00  0.00000000E+00  0.00000000E+00
  0.00000000E+00  0.00000000E+00  0.00000000E+00
  0.00000000E+00  0.00000000E+00  0.00000000E+00
  0.00000000E+00  0.00000000E+00  0.00000000E+00
  0.00000000E+00  0.00000000E+00  0.00000000E+00
  0.00000000E+00  0.00000000E+00  0.00000000E+00
  0.00000000E+00  0.00000000E+00  0.00000000E+00
  0.00000000E+00  0.00000000E+00  0.00000000E+00
  0.00000000E+00  0.00000000E+00  0.00000000E+00
  0.00000000E+00  0.00000000E+00  0.00000000E+00
  0.00000000E+00  0.00000000E+00  0.00000000E+00
  0.00000000E+00  0.00000000E+00  0.00000000E+00
  0.00000000E+00  0.00000000E+00  0.00000000E+00
  0.00000000E+00  0.00000000E+00  0.00000000E+00
  0.00000000E+00  0.00000000E+00  0.00000000E+00
  0.00000000E+00  0.00000000E+00  0.00000000E+00
  0.00000000E+00  0.00000000E+00  0.00000000E+00
  0.00000000E+00  0.00000000E+00  0.00000000E+00
  0.00000000E+00  0.00000000E+00  0.00000000E+00
  0.00000000E+00  0.00000000E+00  0.00000000E+00
  0.00000000E+00  0.00000000E+00  0.00000000E+00
  0.00000000E+00  0.00000000E+00  0.00000000E+00
  0.00000000E+00  0.00000000E+00  0.00000000E+00
  0.00000000E+00  0.00000000E+00  0.00000000E+00
  0.00000000E+00  0.00000000E+00  0.00000000E+00
  0.00000000E+00  0.00000000E+00  0.00000000E+00
  0.00000000E+00  0.00000000E+00  0.00000000E+00
  0.00000000E+00  0.00000000E+00  0.00000000E+00
  0.00000000E+00  0.00000000E+00  0.00000000E+00
  0.00000000E+00  0.00000000E+00  0.00000000E+00
  0.00000000E+00  0.00000000E+00  0.00000000E+00
  0.00000000E+00  0.00000000E+00  0.00000000E+00
  0.00000000E+00  0.00000000E+00  0.00000000E+00
  0.00000000E+00  0.00000000E+00  0.00000000E+00
  0.00000000E+00  0.00000000E+00  0.00000000E+00
  0.00000000E+00  0.00000000E+00  0.00000000E+00
  0.00000000E+00  0.00000000E+00  0.00000000E+00
  0.00000000E+00  0.00000000E+00  0.00000000E+00
  0.00000000E+00  0.00000000E+00  0.00000000E+00
  0.00000000E+00  0.00000000E+00  0.00000000E+00
  0.00000000E+00  0.00000000E+00  0.00000000E+00
  0.00000000E+00  0.00000000E+00  0.00000000E+00
  0.00000000E+00  0.00000000E+00  0.00000000E+00
  0.00000000E+00  0.00000000E+00  0.00000000E+00
  0.00000000E+00  0.00000000E+00  0.00000000E+00
  0.00000000E+00  0.00000000E+00  0.00000000E+00
  0.00000000E+00  0.00000000E+00  0.00000000E+00
  0.00000000E+00  0.00000000E+00  0.00000000E+00
  0.00000000E+00  0.00000000E+00  0.00000000E+00
  0.00000000E+00  0.00000000E+00  0.00000000E+00
  0.00000000E+00  0.00000000E+00  0.00000000E+00
