Bi La Sn O  C  H                        
   1.00000000000000     
    29.0000000000000000    0.0000000000000000    0.0000000000000000
     0.2488180851000000   28.9989325590000000    0.0000000000000000
    -0.0631677343000000   -0.4515975666000000   28.9964147692999994
   Bi   La   Sn   O    C    H 
    22    23    23     2     1     1
Selective dynamics
Direct
  0.7598415752342179  0.4788755659315020  0.3993483232242246   T   T   T
  0.6463010289965484  0.6846593557210510  0.5526475232180090   T   T   T
  0.3595268205249379  0.4590722690769216  0.4283410299734894   T   T   T
  0.5501001343714088  0.7132500365340692  0.5851836193042231   T   T   T
  0.5915029568994470  0.5209714444905416  0.5841479689498996   F   F   F
  0.6403123300030292  0.6803014447042762  0.4458489978321998   T   T   T
  0.6961226939932224  0.5226135582395902  0.6536267281590599   T   T   T
  0.4862382616961596  0.7010565897198952  0.5004137276784503   T   T   T
  0.5004839460855024  0.5502791173970252  0.5477141156400123   F   F   F
  0.3252938025981839  0.4861211077473235  0.5750379597385707   T   T   T
  0.3821783462525830  0.6102019704458910  0.5355979250890617   T   T   T
  0.6667129484492236  0.4827404655721850  0.5105018184570156   F   F   F
  0.5763997220267569  0.4263140504383500  0.5448328182496311   F   F   F
  0.6684963790895972  0.3742696426454339  0.5074163519796719   T   T   T
  0.4629936873244377  0.3383169463107158  0.4992603042118228   T   T   T
  0.6484934028780529  0.5775373212088155  0.4602701624361103   F   F   F
  0.5580221055054734  0.4368958778253158  0.7498596887353636   T   T   T
  0.6029311380424688  0.3513732642873279  0.6690131734421951   T   T   T
  0.4923630364209219  0.2995493789294890  0.4090745933722912   T   T   T
  0.6601815878601092  0.6185009140003339  0.6661415782597949   T   T   T
  0.4926634361046225  0.4103781231505549  0.3086157294058107   T   T   T
  0.6217108291188761  0.3159825945490265  0.5732798252146021   T   T   T
  0.5386634727238030  0.6840401517163184  0.4052172382091467   T   T   T
  0.3903908570026488  0.4155133195836091  0.5271497225234166   T   T   T
  0.6298408288593561  0.5540094539915804  0.2841030266255931   T   T   T
  0.4715927876314916  0.4717753982688969  0.6921438145667255   T   T   T
  0.5683115009887700  0.5094300495444983  0.4784716241115703   F   F   F
  0.4203210565129183  0.5084107200613417  0.5018573595042781   F   F   F
  0.4516070008336088  0.4007909601464298  0.4072572337169370   T   T   T
  0.5652753488044866  0.3484047578992109  0.3549535681171880   T   T   T
  0.4110698225939510  0.5399919386191770  0.6101040659702349   T   T   T
  0.5983660205791748  0.4424533193068049  0.3040584024201409   T   T   T
  0.4550033813067478  0.6005738130958432  0.3633556630266549   T   T   T
  0.4185193493357944  0.4875714061873124  0.3401010982510980   T   T   T
  0.6611750662402219  0.4283588893800653  0.6048016262344220   T   T   T
  0.6731627342145283  0.5786297713258758  0.5638622812956359   T   T   T
  0.5267280344816606  0.5102729639556006  0.3274663554232410   T   T   T
  0.5656635646480703  0.3573306667540726  0.4690828019330919   T   T   T
  0.3154350655508826  0.5418967511182673  0.4916471825254194   T   T   T
  0.6598511708970379  0.4296029272696111  0.4160667278399409   T   T   T
  0.5660841929594156  0.6261437171197244  0.5094829013827464   F   F   F
  0.5960624158676175  0.5285912153624058  0.6897526972027237   T   T   T
  0.4699662921084951  0.6413547789923182  0.5887895859841986   T   T   T
  0.4630111623570840  0.6034022913902928  0.4639502411484197   T   T   T
  0.7177062227763030  0.5769508339969948  0.3817811301437639   T   T   T
  0.5499310510395361  0.5822218838566187  0.4076968008106903   F   F   F
  0.4794126430662260  0.5072205383607624  0.4190535757241776   F   F   F
  0.6949015710270976  0.4805439373042490  0.3256578767655278   T   T   T
  0.7515046952427976  0.4290848612973992  0.4877268614040444   T   T   T
  0.7482132327523171  0.5381729816467542  0.4852659242676908   T   T   T
  0.7492578971700090  0.4899928366289675  0.5721537221098387   T   T   T
  0.6477756750750959  0.4366887737373946  0.7090400533828389   T   T   T
  0.5769654747364915  0.7429060064339472  0.4937635526792600   T   T   T
  0.6192554540844384  0.5183157687966542  0.3801816896793397   F   F   F
  0.5053969770007869  0.5597522308846414  0.6501843523199881   T   T   T
  0.4922009500451665  0.4366758245867572  0.4933013002826740   F   F   F
  0.5608844484509063  0.4404139570509003  0.6454865549417619   F   F   F
  0.5771586991927510  0.6162724495566609  0.6135564992235788   T   T   T
  0.5450369747452652  0.6187200927652694  0.3132586988718910   T   T   T
  0.6278301240163012  0.6273546178881153  0.3611012911365304   T   T   T
  0.3768205592164367  0.5575329357923730  0.4127955143073770   T   T   T
  0.4723078164089713  0.4557257050327763  0.5877273803360978   F   F   F
  0.7272547418439224  0.6350521425858533  0.4851811213598050   T   T   T
  0.5029979236634792  0.3694052795702633  0.6840965396609342   T   T   T
  0.3816053715653490  0.4407281449948853  0.6402352217582357   T   T   T
  0.5544592502646992  0.4379899399457940  0.4037542370104745   F   F   F
  0.4342918083771868  0.3631130560024939  0.6097121657403114   T   T   T
  0.5281070828399480  0.3490716775048255  0.5791465944569217   T   T   T
  0.7406836842264251  0.6353016960398299  0.3313288399712708   T   T   T
  0.6807061179767293  0.6817173888212331  0.3095572599333659   T   T   T
  0.7227262570448383  0.6719253458242191  0.3131739326402039   T   T   T
  0.7482891046076224  0.6967372678146073  0.2994564247646430   T   T   T
 
  0.00000000E+00  0.00000000E+00  0.00000000E+00
  0.00000000E+00  0.00000000E+00  0.00000000E+00
  0.00000000E+00  0.00000000E+00  0.00000000E+00
  0.00000000E+00  0.00000000E+00  0.00000000E+00
  0.00000000E+00  0.00000000E+00  0.00000000E+00
  0.00000000E+00  0.00000000E+00  0.00000000E+00
  0.00000000E+00  0.00000000E+00  0.00000000E+00
  0.00000000E+00  0.00000000E+00  0.00000000E+00
  0.00000000E+00  0.00000000E+00  0.00000000E+00
  0.00000000E+00  0.00000000E+00  0.00000000E+00
  0.00000000E+00  0.00000000E+00  0.00000000E+00
  0.00000000E+00  0.00000000E+00  0.00000000E+00
  0.00000000E+00  0.00000000E+00  0.00000000E+00
  0.00000000E+00  0.00000000E+00  0.00000000E+00
  0.00000000E+00  0.00000000E+00  0.00000000E+00
  0.00000000E+00  0.00000000E+00  0.00000000E+00
  0.00000000E+00  0.00000000E+00  0.00000000E+00
  0.00000000E+00  0.00000000E+00  0.00000000E+00
  0.00000000E+00  0.00000000E+00  0.00000000E+00
  0.00000000E+00  0.00000000E+00  0.00000000E+00
  0.00000000E+00  0.00000000E+00  0.00000000E+00
  0.00000000E+00  0.00000000E+00  0.00000000E+00
  0.00000000E+00  0.00000000E+00  0.00000000E+00
  0.00000000E+00  0.00000000E+00  0.00000000E+00
  0.00000000E+00  0.00000000E+00  0.00000000E+00
  0.00000000E+00  0.00000000E+00  0.00000000E+00
  0.00000000E+00  0.00000000E+00  0.00000000E+00
  0.00000000E+00  0.00000000E+00  0.00000000E+00
  0.00000000E+00  0.00000000E+00  0.00000000E+00
  0.00000000E+00  0.00000000E+00  0.00000000E+00
  0.00000000E+00  0.00000000E+00  0.00000000E+00
  0.00000000E+00  0.00000000E+00  0.00000000E+00
  0.00000000E+00  0.00000000E+00  0.00000000E+00
  0.00000000E+00  0.00000000E+00  0.00000000E+00
  0.00000000E+00  0.00000000E+00  0.00000000E+00
  0.00000000E+00  0.00000000E+00  0.00000000E+00
  0.00000000E+00  0.00000000E+00  0.00000000E+00
  0.00000000E+00  0.00000000E+00  0.00000000E+00
  0.00000000E+00  0.00000000E+00  0.00000000E+00
  0.00000000E+00  0.00000000E+00  0.00000000E+00
  0.00000000E+00  0.00000000E+00  0.00000000E+00
  0.00000000E+00  0.00000000E+00  0.00000000E+00
  0.00000000E+00  0.00000000E+00  0.00000000E+00
  0.00000000E+00  0.00000000E+00  0.00000000E+00
  0.00000000E+00  0.00000000E+00  0.00000000E+00
  0.00000000E+00  0.00000000E+00  0.00000000E+00
  0.00000000E+00  0.00000000E+00  0.00000000E+00
  0.00000000E+00  0.00000000E+00  0.00000000E+00
  0.00000000E+00  0.00000000E+00  0.00000000E+00
  0.00000000E+00  0.00000000E+00  0.00000000E+00
  0.00000000E+00  0.00000000E+00  0.00000000E+00
  0.00000000E+00  0.00000000E+00  0.00000000E+00
  0.00000000E+00  0.00000000E+00  0.00000000E+00
  0.00000000E+00  0.00000000E+00  0.00000000E+00
  0.00000000E+00  0.00000000E+00  0.00000000E+00
  0.00000000E+00  0.00000000E+00  0.00000000E+00
  0.00000000E+00  0.00000000E+00  0.00000000E+00
  0.00000000E+00  0.00000000E+00  0.00000000E+00
  0.00000000E+00  0.00000000E+00  0.00000000E+00
  0.00000000E+00  0.00000000E+00  0.00000000E+00
  0.00000000E+00  0.00000000E+00  0.00000000E+00
  0.00000000E+00  0.00000000E+00  0.00000000E+00
  0.00000000E+00  0.00000000E+00  0.00000000E+00
  0.00000000E+00  0.00000000E+00  0.00000000E+00
  0.00000000E+00  0.00000000E+00  0.00000000E+00
  0.00000000E+00  0.00000000E+00  0.00000000E+00
  0.00000000E+00  0.00000000E+00  0.00000000E+00
  0.00000000E+00  0.00000000E+00  0.00000000E+00
  0.00000000E+00  0.00000000E+00  0.00000000E+00
  0.00000000E+00  0.00000000E+00  0.00000000E+00
  0.00000000E+00  0.00000000E+00  0.00000000E+00
  0.00000000E+00  0.00000000E+00  0.00000000E+00
