Bi La Sn O  C  H                        
   1.00000000000000     
    29.0000000000000000    0.0000000000000000    0.0000000000000000
     0.2488180851000000   28.9989325590000000    0.0000000000000000
    -0.0631677343000000   -0.4515975666000000   28.9964147692999994
   Bi   La   Sn   O    C    H 
    22    23    23     2     1     1
Selective dynamics
Direct
  0.7594455091297981  0.4798902832337106  0.3980914304586545   T   T   T
  0.6462590738618106  0.6845777519017109  0.5524170703159131   T   T   T
  0.3590210279010688  0.4592599770613287  0.4286753717346559   T   T   T
  0.5500818453117347  0.7130139644328155  0.5851923328221204   T   T   T
  0.5915029568994470  0.5209714444905416  0.5841479689498996   F   F   F
  0.6398630597856870  0.6804407064348420  0.4457928903610344   T   T   T
  0.6965903954494737  0.5230722643601144  0.6550326756771536   T   T   T
  0.4859118460642382  0.7008773282902384  0.5003634304225532   T   T   T
  0.5004839460855024  0.5502791173970252  0.5477141156400123   F   F   F
  0.3251305989237748  0.4865005893506340  0.5754611625356896   T   T   T
  0.3821653599399620  0.6102931712896623  0.5355797437770567   T   T   T
  0.6667129484492236  0.4827404655721850  0.5105018184570156   F   F   F
  0.5763997220267569  0.4263140504383500  0.5448328182496311   F   F   F
  0.6694893611649276  0.3757871790169056  0.5083717381305444   T   T   T
  0.4620348137724051  0.3391221865806670  0.4990960817496854   T   T   T
  0.6484934028780529  0.5775373212088155  0.4602701624361103   F   F   F
  0.5594935418031997  0.4352635031593375  0.7492469649645672   T   T   T
  0.6039198787179070  0.3524245315182681  0.6685532886639137   T   T   T
  0.4893965825694276  0.3010394724704059  0.4088376243553129   T   T   T
  0.6600082116084313  0.6187708082335005  0.6664297110637339   T   T   T
  0.4927229976671388  0.4108856028591615  0.3079957195691584   T   T   T
  0.6214811923286314  0.3162871021659970  0.5725990860669723   T   T   T
  0.5386870265912960  0.6838427475214210  0.4054143785021938   T   T   T
  0.3899445228905312  0.4159560360413513  0.5272840321191651   T   T   T
  0.6269823141293684  0.5539159020280546  0.2816768470577628   T   T   T
  0.4721269100183229  0.4711719058546902  0.6925092161031398   T   T   T
  0.5683115009887700  0.5094300495444983  0.4784716241115703   F   F   F
  0.4203210565129183  0.5084107200613417  0.5018573595042781   F   F   F
  0.4511889227073171  0.4019582351846254  0.4064469325583369   T   T   T
  0.5657983797316875  0.3470745736010287  0.3543915028532526   T   T   T
  0.4111292253640735  0.5400833791792069  0.6100862043894973   T   T   T
  0.5980225829270945  0.4437755615469068  0.3048078579092178   T   T   T
  0.4548605832372506  0.6009116790741793  0.3639652224872145   T   T   T
  0.4181614579258348  0.4877957671013142  0.3404896902135988   T   T   T
  0.6611079707676092  0.4290715123396411  0.6053133582879219   T   T   T
  0.6731260592951458  0.5786902909841954  0.5643883220645216   T   T   T
  0.5258115917062250  0.5106876560634127  0.3276309090442958   T   T   T
  0.5654573352499529  0.3554243059486525  0.4697807170358303   T   T   T
  0.3153019302008302  0.5419802046998198  0.4918970744702725   T   T   T
  0.6610833491542272  0.4290692627770480  0.4144716713487646   T   T   T
  0.5660841929594156  0.6261437171197244  0.5094829013827464   F   F   F
  0.5961142613710648  0.5284603146845089  0.6898576270396691   T   T   T
  0.4699073163375680  0.6413143403834036  0.5888488998725471   T   T   T
  0.4630319898501112  0.6033233543320390  0.4639959635894231   T   T   T
  0.7169295520638667  0.5760224505261564  0.3837670514175969   T   T   T
  0.5499310510395361  0.5822218838566187  0.4076968008106903   F   F   F
  0.4794126430662260  0.5072205383607624  0.4190535757241776   F   F   F
  0.6946833375670775  0.4842503026612340  0.3240869060878104   T   T   T
  0.7525480727505188  0.4311304672484939  0.4869814128512151   T   T   T
  0.7483631405381556  0.5392792826606464  0.4853081040609466   T   T   T
  0.7487264400227429  0.4913793174893449  0.5722513317365352   T   T   T
  0.6495862292245429  0.4377198597478879  0.7095745656288494   T   T   T
  0.5763705339046670  0.7429490379863390  0.4938038174629347   T   T   T
  0.6192554540844384  0.5183157687966542  0.3801816896793397   F   F   F
  0.5053562675470588  0.5593618507011313  0.6502715458180980   T   T   T
  0.4922009500451665  0.4366758245867572  0.4933013002826740   F   F   F
  0.5608844484509063  0.4404139570509003  0.6454865549417619   F   F   F
  0.5770883870553667  0.6161178348201379  0.6137904439261211   T   T   T
  0.5440304502452415  0.6189278019809609  0.3125923976370853   T   T   T
  0.6271230711047314  0.6253909433359841  0.3607345954880053   T   T   T
  0.3765245754831373  0.5581231839006318  0.4130249342679350   T   T   T
  0.4723078164089713  0.4557257050327763  0.5877273803360978   F   F   F
  0.7267016198876858  0.6362289822336321  0.4854898021369072   T   T   T
  0.5032203007371825  0.3684802431076969  0.6833136699460459   T   T   T
  0.3821152952236911  0.4409309439039161  0.6403704426614236   T   T   T
  0.5544592502646992  0.4379899399457940  0.4037542370104745   F   F   F
  0.4334871769553799  0.3630243589328721  0.6097300660838200   T   T   T
  0.5276205968493272  0.3490203305532061  0.5791277360541224   T   T   T
  0.6132965797040096  0.3039694548764799  0.4182575503076083   T   T   T
  0.6533587499596774  0.3525313880102627  0.3738818884394491   T   T   T
  0.6514757662370415  0.3234928900217021  0.4077065241126665   T   T   T
  0.6838591347562967  0.3123139006422378  0.4242137032227468   T   T   T
 
  0.00000000E+00  0.00000000E+00  0.00000000E+00
  0.00000000E+00  0.00000000E+00  0.00000000E+00
  0.00000000E+00  0.00000000E+00  0.00000000E+00
  0.00000000E+00  0.00000000E+00  0.00000000E+00
  0.00000000E+00  0.00000000E+00  0.00000000E+00
  0.00000000E+00  0.00000000E+00  0.00000000E+00
  0.00000000E+00  0.00000000E+00  0.00000000E+00
  0.00000000E+00  0.00000000E+00  0.00000000E+00
  0.00000000E+00  0.00000000E+00  0.00000000E+00
  0.00000000E+00  0.00000000E+00  0.00000000E+00
  0.00000000E+00  0.00000000E+00  0.00000000E+00
  0.00000000E+00  0.00000000E+00  0.00000000E+00
  0.00000000E+00  0.00000000E+00  0.00000000E+00
  0.00000000E+00  0.00000000E+00  0.00000000E+00
  0.00000000E+00  0.00000000E+00  0.00000000E+00
  0.00000000E+00  0.00000000E+00  0.00000000E+00
  0.00000000E+00  0.00000000E+00  0.00000000E+00
  0.00000000E+00  0.00000000E+00  0.00000000E+00
  0.00000000E+00  0.00000000E+00  0.00000000E+00
  0.00000000E+00  0.00000000E+00  0.00000000E+00
  0.00000000E+00  0.00000000E+00  0.00000000E+00
  0.00000000E+00  0.00000000E+00  0.00000000E+00
  0.00000000E+00  0.00000000E+00  0.00000000E+00
  0.00000000E+00  0.00000000E+00  0.00000000E+00
  0.00000000E+00  0.00000000E+00  0.00000000E+00
  0.00000000E+00  0.00000000E+00  0.00000000E+00
  0.00000000E+00  0.00000000E+00  0.00000000E+00
  0.00000000E+00  0.00000000E+00  0.00000000E+00
  0.00000000E+00  0.00000000E+00  0.00000000E+00
  0.00000000E+00  0.00000000E+00  0.00000000E+00
  0.00000000E+00  0.00000000E+00  0.00000000E+00
  0.00000000E+00  0.00000000E+00  0.00000000E+00
  0.00000000E+00  0.00000000E+00  0.00000000E+00
  0.00000000E+00  0.00000000E+00  0.00000000E+00
  0.00000000E+00  0.00000000E+00  0.00000000E+00
  0.00000000E+00  0.00000000E+00  0.00000000E+00
  0.00000000E+00  0.00000000E+00  0.00000000E+00
  0.00000000E+00  0.00000000E+00  0.00000000E+00
  0.00000000E+00  0.00000000E+00  0.00000000E+00
  0.00000000E+00  0.00000000E+00  0.00000000E+00
  0.00000000E+00  0.00000000E+00  0.00000000E+00
  0.00000000E+00  0.00000000E+00  0.00000000E+00
  0.00000000E+00  0.00000000E+00  0.00000000E+00
  0.00000000E+00  0.00000000E+00  0.00000000E+00
  0.00000000E+00  0.00000000E+00  0.00000000E+00
  0.00000000E+00  0.00000000E+00  0.00000000E+00
  0.00000000E+00  0.00000000E+00  0.00000000E+00
  0.00000000E+00  0.00000000E+00  0.00000000E+00
  0.00000000E+00  0.00000000E+00  0.00000000E+00
  0.00000000E+00  0.00000000E+00  0.00000000E+00
  0.00000000E+00  0.00000000E+00  0.00000000E+00
  0.00000000E+00  0.00000000E+00  0.00000000E+00
  0.00000000E+00  0.00000000E+00  0.00000000E+00
  0.00000000E+00  0.00000000E+00  0.00000000E+00
  0.00000000E+00  0.00000000E+00  0.00000000E+00
  0.00000000E+00  0.00000000E+00  0.00000000E+00
  0.00000000E+00  0.00000000E+00  0.00000000E+00
  0.00000000E+00  0.00000000E+00  0.00000000E+00
  0.00000000E+00  0.00000000E+00  0.00000000E+00
  0.00000000E+00  0.00000000E+00  0.00000000E+00
  0.00000000E+00  0.00000000E+00  0.00000000E+00
  0.00000000E+00  0.00000000E+00  0.00000000E+00
  0.00000000E+00  0.00000000E+00  0.00000000E+00
  0.00000000E+00  0.00000000E+00  0.00000000E+00
  0.00000000E+00  0.00000000E+00  0.00000000E+00
  0.00000000E+00  0.00000000E+00  0.00000000E+00
  0.00000000E+00  0.00000000E+00  0.00000000E+00
  0.00000000E+00  0.00000000E+00  0.00000000E+00
  0.00000000E+00  0.00000000E+00  0.00000000E+00
  0.00000000E+00  0.00000000E+00  0.00000000E+00
  0.00000000E+00  0.00000000E+00  0.00000000E+00
  0.00000000E+00  0.00000000E+00  0.00000000E+00
