Bi La Sn O  C  H                        
   1.00000000000000     
    29.0000000000000000    0.0000000000000000    0.0000000000000000
     0.2488180851000000   28.9989325590000000    0.0000000000000000
    -0.0631677343000000   -0.4515975666000000   28.9964147692999994
   Bi   La   Sn   O    C    H 
    22    23    23     2     1     1
Selective dynamics
Direct
  0.7596664023662519  0.4780364955416797  0.3981294197165320   T   T   T
  0.6474182162740765  0.6838782709141662  0.5518908786510083   T   T   T
  0.3592893646173207  0.4588936925162711  0.4288288520269165   T   T   T
  0.5518804453344981  0.7130420984340358  0.5852092871918432   T   T   T
  0.5915029568994470  0.5209714444905416  0.5841479689498996   F   F   F
  0.6399962315447785  0.6804769690977926  0.4458301218547081   T   T   T
  0.6954716133675828  0.5207731368973533  0.6543200120912638   T   T   T
  0.4858581755358867  0.7001655980129082  0.5014735475341487   T   T   T
  0.5004839460855024  0.5502791173970252  0.5477141156400123   F   F   F
  0.3251316683203334  0.4856418063868276  0.5761284133865456   T   T   T
  0.3835794822371747  0.6110985370117225  0.5368423308594913   T   T   T
  0.6667129484492236  0.4827404655721850  0.5105018184570156   F   F   F
  0.5763997220267569  0.4263140504383500  0.5448328182496311   F   F   F
  0.6692266466401461  0.3736361778981816  0.5059157442268422   T   T   T
  0.4624146746237128  0.3385274242342576  0.4984354772740159   T   T   T
  0.6484934028780529  0.5775373212088155  0.4602701624361103   F   F   F
  0.5581946086768598  0.4333466461832684  0.7497378470575486   T   T   T
  0.6010920890841246  0.3501217376351173  0.6674640751205201   T   T   T
  0.4924237504835265  0.2996128194215759  0.4086575144097135   T   T   T
  0.6610515767124642  0.6170382342631460  0.6658652180072083   T   T   T
  0.4913829520519875  0.4106710439736178  0.3062190826676408   T   T   T
  0.6220695540865858  0.3158825023057831  0.5717333975392654   T   T   T
  0.5381660249795528  0.6834448410182372  0.4055882236626327   T   T   T
  0.3900783199689494  0.4157077128701856  0.5272178435780275   T   T   T
  0.6278719456439101  0.5524856564880325  0.2829341128452330   T   T   T
  0.4723321504380577  0.4726440194253845  0.6930558816157713   T   T   T
  0.5683115009887700  0.5094300495444983  0.4784716241115703   F   F   F
  0.4203210565129183  0.5084107200613417  0.5018573595042781   F   F   F
  0.4517918981966205  0.4011228843430993  0.4062003795623678   T   T   T
  0.5629553540657453  0.3492100723231998  0.3529691173572522   T   T   T
  0.4111970669188941  0.5393031394226688  0.6097278489256716   T   T   T
  0.5985739222332688  0.4424690793180439  0.3043009573100312   T   T   T
  0.4544456665277906  0.6002106254132539  0.3638855191815909   T   T   T
  0.4178589961431269  0.4874809041819084  0.3404972339883707   T   T   T
  0.6612984399489589  0.4272616286943159  0.6037203599671971   T   T   T
  0.6738644869295544  0.5781502282325306  0.5636443013203367   T   T   T
  0.5258319891007169  0.5097767449434344  0.3280479980536811   T   T   T
  0.5658061875972773  0.3572135963012201  0.4689776973280290   T   T   T
  0.3160654117071568  0.5429059456116884  0.4934133832648838   T   T   T
  0.6602951519751741  0.4297049350999306  0.4154208206716236   T   T   T
  0.5660841929594156  0.6261437171197244  0.5094829013827464   F   F   F
  0.5944912323280847  0.5295376970261579  0.6919881733215764   T   T   T
  0.4715622221595845  0.6415883657756486  0.5914998659370301   T   T   T
  0.4623976788475918  0.6030630769307661  0.4640151389824463   T   T   T
  0.7160888059602301  0.5736713854344618  0.3826231969072245   T   T   T
  0.5499310510395361  0.5822218838566187  0.4076968008106903   F   F   F
  0.4794126430662260  0.5072205383607624  0.4190535757241776   F   F   F
  0.6946839801895612  0.4803719431758099  0.3237902168682222   T   T   T
  0.7520352812738461  0.4295934714020672  0.4875996084595829   T   T   T
  0.7488365683095053  0.5370076732185329  0.4843652444439596   T   T   T
  0.7489015489029520  0.4907551429736994  0.5724015340748325   T   T   T
  0.6473717511949029  0.4355995885636423  0.7077199237829501   T   T   T
  0.5762679484762426  0.7427675632949748  0.4936573701898102   T   T   T
  0.6192554540844384  0.5183157687966542  0.3801816896793397   F   F   F
  0.5067435579095965  0.5588500617610452  0.6485269743480572   T   T   T
  0.4922009500451665  0.4366758245867572  0.4933013002826740   F   F   F
  0.5608844484509063  0.4404139570509003  0.6454865549417619   F   F   F
  0.5783153114648911  0.6159649247848629  0.6133360354618745   T   T   T
  0.5436558770832199  0.6178354232684228  0.3127224917549885   T   T   T
  0.6269214185177840  0.6255756908132430  0.3608980141563169   T   T   T
  0.3760427983908345  0.5572219923204621  0.4132471243933332   T   T   T
  0.4723078164089713  0.4557257050327763  0.5877273803360978   F   F   F
  0.7278029552289259  0.6338995353535730  0.4837701742673786   T   T   T
  0.5017980580163333  0.3702964432305269  0.6828014344902743   T   T   T
  0.3831251282791000  0.4397809422582514  0.6400071790717576   T   T   T
  0.5544592502646992  0.4379899399457940  0.4037542370104745   F   F   F
  0.4346994795781217  0.3614395083576498  0.6075906392177121   T   T   T
  0.5282821386850846  0.3485309782471663  0.5778759713660782   T   T   T
  0.5530246147785408  0.5835303335050198  0.7404124598909869   T   T   T
  0.5011123871975033  0.6317872611506863  0.7066779411628853   T   T   T
  0.5335805604009067  0.6231502459521037  0.7342662515022512   T   T   T
  0.5476389864071602  0.6520566529405375  0.7556073576691543   T   T   T
 
  0.00000000E+00  0.00000000E+00  0.00000000E+00
  0.00000000E+00  0.00000000E+00  0.00000000E+00
  0.00000000E+00  0.00000000E+00  0.00000000E+00
  0.00000000E+00  0.00000000E+00  0.00000000E+00
  0.00000000E+00  0.00000000E+00  0.00000000E+00
  0.00000000E+00  0.00000000E+00  0.00000000E+00
  0.00000000E+00  0.00000000E+00  0.00000000E+00
  0.00000000E+00  0.00000000E+00  0.00000000E+00
  0.00000000E+00  0.00000000E+00  0.00000000E+00
  0.00000000E+00  0.00000000E+00  0.00000000E+00
  0.00000000E+00  0.00000000E+00  0.00000000E+00
  0.00000000E+00  0.00000000E+00  0.00000000E+00
  0.00000000E+00  0.00000000E+00  0.00000000E+00
  0.00000000E+00  0.00000000E+00  0.00000000E+00
  0.00000000E+00  0.00000000E+00  0.00000000E+00
  0.00000000E+00  0.00000000E+00  0.00000000E+00
  0.00000000E+00  0.00000000E+00  0.00000000E+00
  0.00000000E+00  0.00000000E+00  0.00000000E+00
  0.00000000E+00  0.00000000E+00  0.00000000E+00
  0.00000000E+00  0.00000000E+00  0.00000000E+00
  0.00000000E+00  0.00000000E+00  0.00000000E+00
  0.00000000E+00  0.00000000E+00  0.00000000E+00
  0.00000000E+00  0.00000000E+00  0.00000000E+00
  0.00000000E+00  0.00000000E+00  0.00000000E+00
  0.00000000E+00  0.00000000E+00  0.00000000E+00
  0.00000000E+00  0.00000000E+00  0.00000000E+00
  0.00000000E+00  0.00000000E+00  0.00000000E+00
  0.00000000E+00  0.00000000E+00  0.00000000E+00
  0.00000000E+00  0.00000000E+00  0.00000000E+00
  0.00000000E+00  0.00000000E+00  0.00000000E+00
  0.00000000E+00  0.00000000E+00  0.00000000E+00
  0.00000000E+00  0.00000000E+00  0.00000000E+00
  0.00000000E+00  0.00000000E+00  0.00000000E+00
  0.00000000E+00  0.00000000E+00  0.00000000E+00
  0.00000000E+00  0.00000000E+00  0.00000000E+00
  0.00000000E+00  0.00000000E+00  0.00000000E+00
  0.00000000E+00  0.00000000E+00  0.00000000E+00
  0.00000000E+00  0.00000000E+00  0.00000000E+00
  0.00000000E+00  0.00000000E+00  0.00000000E+00
  0.00000000E+00  0.00000000E+00  0.00000000E+00
  0.00000000E+00  0.00000000E+00  0.00000000E+00
  0.00000000E+00  0.00000000E+00  0.00000000E+00
  0.00000000E+00  0.00000000E+00  0.00000000E+00
  0.00000000E+00  0.00000000E+00  0.00000000E+00
  0.00000000E+00  0.00000000E+00  0.00000000E+00
  0.00000000E+00  0.00000000E+00  0.00000000E+00
  0.00000000E+00  0.00000000E+00  0.00000000E+00
  0.00000000E+00  0.00000000E+00  0.00000000E+00
  0.00000000E+00  0.00000000E+00  0.00000000E+00
  0.00000000E+00  0.00000000E+00  0.00000000E+00
  0.00000000E+00  0.00000000E+00  0.00000000E+00
  0.00000000E+00  0.00000000E+00  0.00000000E+00
  0.00000000E+00  0.00000000E+00  0.00000000E+00
  0.00000000E+00  0.00000000E+00  0.00000000E+00
  0.00000000E+00  0.00000000E+00  0.00000000E+00
  0.00000000E+00  0.00000000E+00  0.00000000E+00
  0.00000000E+00  0.00000000E+00  0.00000000E+00
  0.00000000E+00  0.00000000E+00  0.00000000E+00
  0.00000000E+00  0.00000000E+00  0.00000000E+00
  0.00000000E+00  0.00000000E+00  0.00000000E+00
  0.00000000E+00  0.00000000E+00  0.00000000E+00
  0.00000000E+00  0.00000000E+00  0.00000000E+00
  0.00000000E+00  0.00000000E+00  0.00000000E+00
  0.00000000E+00  0.00000000E+00  0.00000000E+00
  0.00000000E+00  0.00000000E+00  0.00000000E+00
  0.00000000E+00  0.00000000E+00  0.00000000E+00
  0.00000000E+00  0.00000000E+00  0.00000000E+00
  0.00000000E+00  0.00000000E+00  0.00000000E+00
  0.00000000E+00  0.00000000E+00  0.00000000E+00
  0.00000000E+00  0.00000000E+00  0.00000000E+00
  0.00000000E+00  0.00000000E+00  0.00000000E+00
  0.00000000E+00  0.00000000E+00  0.00000000E+00
