Bi La Sn O  C  H                        
   1.00000000000000     
    29.0000000000000000    0.0000000000000000    0.0000000000000000
     0.2488180851000000   28.9989325590000000    0.0000000000000000
    -0.0631677343000000   -0.4515975666000000   28.9964147692999994
   Bi   La   Sn   O    C    H 
    22    23    23     2     1     1
Selective dynamics
Direct
  0.7602286616187156  0.4767822707195529  0.3990739662895023   T   T   T
  0.6484717458843542  0.6845745167421745  0.5502159152059340   T   T   T
  0.3607739404247547  0.4592800170606093  0.4268294536055854   T   T   T
  0.5524119674137491  0.7136303435713814  0.5842290158625757   T   T   T
  0.5915029568994470  0.5209714444905416  0.5841479689498996   F   F   F
  0.6406817760453181  0.6802053459445093  0.4448831331920629   T   T   T
  0.6961492367433154  0.5192816110195417  0.6529507488728601   T   T   T
  0.4875251714658980  0.7020550006579700  0.4989871073785126   T   T   T
  0.5004839460855024  0.5502791173970252  0.5477141156400123   F   F   F
  0.3286190632778649  0.4856162117954319  0.5796128829338750   T   T   T
  0.3832051235613734  0.6088254123780619  0.5386033594762795   T   T   T
  0.6667129484492236  0.4827404655721850  0.5105018184570156   F   F   F
  0.5763997220267569  0.4263140504383500  0.5448328182496311   F   F   F
  0.6679917207267639  0.3731922112411025  0.5061034080397215   T   T   T
  0.4596640103211450  0.3390483634610731  0.4941431690139370   T   T   T
  0.6484934028780529  0.5775373212088155  0.4602701624361103   F   F   F
  0.5553816814127439  0.4302512942082541  0.7482611759295917   T   T   T
  0.5893237310016486  0.3487269244474696  0.6665225697760999   T   T   T
  0.4923854927635657  0.3000827773711014  0.4055562371738244   T   T   T
  0.6626115209766901  0.6153641581151348  0.6666025535229125   T   T   T
  0.4895421246811177  0.4127541930384874  0.3018207712885964   T   T   T
  0.6187007112071146  0.3164620726773943  0.5715127654703691   T   T   T
  0.5400602781552643  0.6838167973992363  0.4044412858065847   T   T   T
  0.3887724442931993  0.4160686291274552  0.5252949966585924   T   T   T
  0.6283068014126990  0.5516166952883094  0.2822948037230001   T   T   T
  0.4745475170301098  0.4802282693603084  0.6936154863157300   T   T   T
  0.5683115009887700  0.5094300495444983  0.4784716241115703   F   F   F
  0.4203210565129183  0.5084107200613417  0.5018573595042781   F   F   F
  0.4529388688952435  0.4023206977999896  0.4034112687861911   T   T   T
  0.5604826966125384  0.3514930872884217  0.3494723966843417   T   T   T
  0.4142226324617613  0.5391169017432050  0.6131055719497124   T   T   T
  0.5992647803883473  0.4424638353401139  0.3046154641856055   T   T   T
  0.4548203004935076  0.6008090328208852  0.3636411533168471   T   T   T
  0.4182272687257065  0.4900248373965829  0.3387922899234296   T   T   T
  0.6607710950942093  0.4254751056613568  0.6043599303289959   T   T   T
  0.6744285173202230  0.5781737831232933  0.5635241443930256   T   T   T
  0.5258982971863250  0.5096492858110200  0.3281603695703260   T   T   T
  0.5645692219163622  0.3563839431391774  0.4692758892661091   T   T   T
  0.3167834656614209  0.5399432557850411  0.4945930761086318   T   T   T
  0.6601424608793606  0.4295180548520861  0.4156722000920891   T   T   T
  0.5660841929594156  0.6261437171197244  0.5094829013827464   F   F   F
  0.5973021471148980  0.5265214590757834  0.6923969042410980   T   T   T
  0.4716870611667295  0.6429192119607720  0.5880797608875047   T   T   T
  0.4626616477759808  0.6039141975601429  0.4646802834744359   T   T   T
  0.7170005117394719  0.5725735943033333  0.3838854226298265   T   T   T
  0.5499310510395361  0.5822218838566187  0.4076968008106903   F   F   F
  0.4794126430662260  0.5072205383607624  0.4190535757241776   F   F   F
  0.6952575497094264  0.4807062055533641  0.3243823084676411   T   T   T
  0.7512882423732481  0.4276566473360102  0.4874546918595054   T   T   T
  0.7493007358220116  0.5366952473025247  0.4853028713842468   T   T   T
  0.7492098864180786  0.4881863410526618  0.5718687129389169   T   T   T
  0.6463743839975560  0.4307445213123519  0.7079110780431936   T   T   T
  0.5783392542574223  0.7437142822916418  0.4929112320721724   T   T   T
  0.6192554540844384  0.5183157687966542  0.3801816896793397   F   F   F
  0.5090410088647862  0.5645834237250731  0.6498896246843691   T   T   T
  0.4922009500451665  0.4366758245867572  0.4933013002826740   F   F   F
  0.5608844484509063  0.4404139570509003  0.6454865549417619   F   F   F
  0.5807535418481393  0.6175985922310037  0.6130456150207805   T   T   T
  0.5449652393754445  0.6170908698855690  0.3131236152583463   T   T   T
  0.6285657836820928  0.6243322262599866  0.3604922192773279   T   T   T
  0.3764524217830109  0.5580311022149629  0.4142370471658840   T   T   T
  0.4723078164089713  0.4557257050327763  0.5877273803360978   F   F   F
  0.7281082730108976  0.6342021439564126  0.4835463029442318   T   T   T
  0.4902519318280349  0.3775850860995967  0.6749531450190781   T   T   T
  0.3889823205552386  0.4360370568248000  0.6408251118075509   T   T   T
  0.5544592502646992  0.4379899399457940  0.4037542370104745   F   F   F
  0.4282485836772406  0.3539015967953653  0.5998687047982202   T   T   T
  0.5238275479266219  0.3497812587128606  0.5749236074030770   T   T   T
  0.6373513312086960  0.5247501761276397  0.7659291385597590   T   T   T
  0.6857543317573125  0.4629362465231659  0.7708126160893577   T   T   T
  0.6693783767792219  0.5014908814784853  0.7848804479384230   T   T   T
  0.6847564305195633  0.5161022828473143  0.8169430117346412   T   T   T
 
  0.00000000E+00  0.00000000E+00  0.00000000E+00
  0.00000000E+00  0.00000000E+00  0.00000000E+00
  0.00000000E+00  0.00000000E+00  0.00000000E+00
  0.00000000E+00  0.00000000E+00  0.00000000E+00
  0.00000000E+00  0.00000000E+00  0.00000000E+00
  0.00000000E+00  0.00000000E+00  0.00000000E+00
  0.00000000E+00  0.00000000E+00  0.00000000E+00
  0.00000000E+00  0.00000000E+00  0.00000000E+00
  0.00000000E+00  0.00000000E+00  0.00000000E+00
  0.00000000E+00  0.00000000E+00  0.00000000E+00
  0.00000000E+00  0.00000000E+00  0.00000000E+00
  0.00000000E+00  0.00000000E+00  0.00000000E+00
  0.00000000E+00  0.00000000E+00  0.00000000E+00
  0.00000000E+00  0.00000000E+00  0.00000000E+00
  0.00000000E+00  0.00000000E+00  0.00000000E+00
  0.00000000E+00  0.00000000E+00  0.00000000E+00
  0.00000000E+00  0.00000000E+00  0.00000000E+00
  0.00000000E+00  0.00000000E+00  0.00000000E+00
  0.00000000E+00  0.00000000E+00  0.00000000E+00
  0.00000000E+00  0.00000000E+00  0.00000000E+00
  0.00000000E+00  0.00000000E+00  0.00000000E+00
  0.00000000E+00  0.00000000E+00  0.00000000E+00
  0.00000000E+00  0.00000000E+00  0.00000000E+00
  0.00000000E+00  0.00000000E+00  0.00000000E+00
  0.00000000E+00  0.00000000E+00  0.00000000E+00
  0.00000000E+00  0.00000000E+00  0.00000000E+00
  0.00000000E+00  0.00000000E+00  0.00000000E+00
  0.00000000E+00  0.00000000E+00  0.00000000E+00
  0.00000000E+00  0.00000000E+00  0.00000000E+00
  0.00000000E+00  0.00000000E+00  0.00000000E+00
  0.00000000E+00  0.00000000E+00  0.00000000E+00
  0.00000000E+00  0.00000000E+00  0.00000000E+00
  0.00000000E+00  0.00000000E+00  0.00000000E+00
  0.00000000E+00  0.00000000E+00  0.00000000E+00
  0.00000000E+00  0.00000000E+00  0.00000000E+00
  0.00000000E+00  0.00000000E+00  0.00000000E+00
  0.00000000E+00  0.00000000E+00  0.00000000E+00
  0.00000000E+00  0.00000000E+00  0.00000000E+00
  0.00000000E+00  0.00000000E+00  0.00000000E+00
  0.00000000E+00  0.00000000E+00  0.00000000E+00
  0.00000000E+00  0.00000000E+00  0.00000000E+00
  0.00000000E+00  0.00000000E+00  0.00000000E+00
  0.00000000E+00  0.00000000E+00  0.00000000E+00
  0.00000000E+00  0.00000000E+00  0.00000000E+00
  0.00000000E+00  0.00000000E+00  0.00000000E+00
  0.00000000E+00  0.00000000E+00  0.00000000E+00
  0.00000000E+00  0.00000000E+00  0.00000000E+00
  0.00000000E+00  0.00000000E+00  0.00000000E+00
  0.00000000E+00  0.00000000E+00  0.00000000E+00
  0.00000000E+00  0.00000000E+00  0.00000000E+00
  0.00000000E+00  0.00000000E+00  0.00000000E+00
  0.00000000E+00  0.00000000E+00  0.00000000E+00
  0.00000000E+00  0.00000000E+00  0.00000000E+00
  0.00000000E+00  0.00000000E+00  0.00000000E+00
  0.00000000E+00  0.00000000E+00  0.00000000E+00
  0.00000000E+00  0.00000000E+00  0.00000000E+00
  0.00000000E+00  0.00000000E+00  0.00000000E+00
  0.00000000E+00  0.00000000E+00  0.00000000E+00
  0.00000000E+00  0.00000000E+00  0.00000000E+00
  0.00000000E+00  0.00000000E+00  0.00000000E+00
  0.00000000E+00  0.00000000E+00  0.00000000E+00
  0.00000000E+00  0.00000000E+00  0.00000000E+00
  0.00000000E+00  0.00000000E+00  0.00000000E+00
  0.00000000E+00  0.00000000E+00  0.00000000E+00
  0.00000000E+00  0.00000000E+00  0.00000000E+00
  0.00000000E+00  0.00000000E+00  0.00000000E+00
  0.00000000E+00  0.00000000E+00  0.00000000E+00
  0.00000000E+00  0.00000000E+00  0.00000000E+00
  0.00000000E+00  0.00000000E+00  0.00000000E+00
  0.00000000E+00  0.00000000E+00  0.00000000E+00
  0.00000000E+00  0.00000000E+00  0.00000000E+00
  0.00000000E+00  0.00000000E+00  0.00000000E+00
