Bi La Sn O  C  H                        
   1.00000000000000     
    29.0000000000000000    0.0000000000000000    0.0000000000000000
     0.2488180851000000   28.9989325590000000    0.0000000000000000
    -0.0631677343000000   -0.4515975666000000   28.9964147692999994
   Bi   La   Sn   O    C    H 
    22    23    23     2     1     1
Selective dynamics
Direct
  0.7597478295817984  0.4788811149684881  0.4015608031265696   T   T   T
  0.6470236251052559  0.6835305724579662  0.5523153883278384   T   T   T
  0.3597168588839993  0.4584593851160612  0.4285712667165740   T   T   T
  0.5503989912609605  0.7128013129410379  0.5843816045602092   T   T   T
  0.5915029568994470  0.5209714444905416  0.5841479689498996   F   F   F
  0.6397391965386530  0.6804702795811566  0.4458286365961621   T   T   T
  0.6965674810805196  0.5244838365033769  0.6550165112119295   T   T   T
  0.4864867273045934  0.7015949754911407  0.4994574102755538   T   T   T
  0.5004839460855024  0.5502791173970252  0.5477141156400123   F   F   F
  0.3246047872085786  0.4861173337436040  0.5742903154279208   T   T   T
  0.3815486456275438  0.6108838538444185  0.5348088720067188   T   T   T
  0.6667129484492236  0.4827404655721850  0.5105018184570156   F   F   F
  0.5763997220267569  0.4263140504383500  0.5448328182496311   F   F   F
  0.6681681083621522  0.3745566483961396  0.5069851237399415   T   T   T
  0.4627361609456904  0.3385489316610154  0.4999127765024184   T   T   T
  0.6484934028780529  0.5775373212088155  0.4602701624361103   F   F   F
  0.5599974790848700  0.4384791796277205  0.7501092482118101   T   T   T
  0.6051801524198194  0.3521229032353440  0.6680517543426200   T   T   T
  0.4918874702514743  0.2987014802067042  0.4102354984040328   T   T   T
  0.6592967398669535  0.6201290918611834  0.6656711328315452   T   T   T
  0.4923076496908913  0.4097410621277802  0.3065137952328545   T   T   T
  0.6215874597314928  0.3159930579463696  0.5724529490127458   T   T   T
  0.5388576865349473  0.6836153719179677  0.4044444961690948   T   T   T
  0.3904508974215801  0.4153489780842953  0.5279121650948965   T   T   T
  0.6293323318795060  0.5520244452430741  0.2824246988941188   T   T   T
  0.4716687734970198  0.4701748785761624  0.6920265086945859   T   T   T
  0.5683115009887700  0.5094300495444983  0.4784716241115703   F   F   F
  0.4203210565129183  0.5084107200613417  0.5018573595042781   F   F   F
  0.4521518042089020  0.4006675875376959  0.4067394716831314   T   T   T
  0.5629523337095376  0.3484954584287879  0.3544876892453473   T   T   T
  0.4105353638038026  0.5404462928200762  0.6091918160074150   T   T   T
  0.6002200268781231  0.4420546788785920  0.3050591258107910   T   T   T
  0.4549825003297409  0.5996244493418215  0.3626057813284255   T   T   T
  0.4184891094544083  0.4861770840997288  0.3399231875436505   T   T   T
  0.6625113786213918  0.4295891119763847  0.6040777512029591   T   T   T
  0.6744274269887962  0.5777706992480185  0.5639252869766704   T   T   T
  0.5265718771751881  0.5090673404067191  0.3279246871448235   T   T   T
  0.5650868757165919  0.3571184395368501  0.4691802329024057   T   T   T
  0.3156029563069601  0.5420159926466114  0.4910939829295082   T   T   T
  0.6600787566803412  0.4299296032641261  0.4161553831902258   T   T   T
  0.5660841929594156  0.6261437171197244  0.5094829013827464   F   F   F
  0.5958654418401388  0.5295675770210130  0.6893695373737045   T   T   T
  0.4695811026620719  0.6414662783505151  0.5880729435907949   T   T   T
  0.4630779907571805  0.6035230358041170  0.4642491810073401   T   T   T
  0.7174104270144206  0.5742413624525660  0.3847804077753570   T   T   T
  0.5499310510395361  0.5822218838566187  0.4076968008106903   F   F   F
  0.4794126430662260  0.5072205383607624  0.4190535757241776   F   F   F
  0.6961988879554118  0.4817548608727789  0.3254979858869960   T   T   T
  0.7515889882433123  0.4303947690513730  0.4897609765366788   T   T   T
  0.7526302522534665  0.5395845605875049  0.4881855951085155   T   T   T
  0.7503120395459549  0.4906586881401160  0.5730135739438106   T   T   T
  0.6486566058959499  0.4382200625352298  0.7076627026560260   T   T   T
  0.5769741796747253  0.7434233450315023  0.4933098259627139   T   T   T
  0.6192554540844384  0.5183157687966542  0.3801816896793397   F   F   F
  0.5043109704552307  0.5593343455389100  0.6501840920975018   T   T   T
  0.4922009500451665  0.4366758245867572  0.4933013002826740   F   F   F
  0.5608844484509063  0.4404139570509003  0.6454865549417619   F   F   F
  0.5765577194189385  0.6157422969599090  0.6135083223027350   T   T   T
  0.5450506726754923  0.6165315948148093  0.3123824979485262   T   T   T
  0.6278394649392685  0.6247326128699090  0.3609262182924567   T   T   T
  0.3774714662737934  0.5564685984484932  0.4122802745343724   T   T   T
  0.4723078164089713  0.4557257050327763  0.5877273803360978   F   F   F
  0.7269676155027263  0.6351899322643301  0.4844517225491744   T   T   T
  0.5053394107081941  0.3681958410369600  0.6853973374894609   T   T   T
  0.3806768205515720  0.4422456660100988  0.6405572022856498   T   T   T
  0.5544592502646992  0.4379899399457940  0.4037542370104745   F   F   F
  0.4344634541500253  0.3648247000874553  0.6124310151743175   T   T   T
  0.5277006894177833  0.3496008079489527  0.5798598593844505   T   T   T
  0.8308364023637675  0.5492513179967494  0.5091849812741570   T   T   T
  0.8284948166341334  0.5121860216119560  0.5787679363167255   T   T   T
  0.8474904372059513  0.5356895223705518  0.5474029962780738   T   T   T
  0.8837903971293783  0.5458967959530882  0.5544634202505555   T   T   T
 
  0.00000000E+00  0.00000000E+00  0.00000000E+00
  0.00000000E+00  0.00000000E+00  0.00000000E+00
  0.00000000E+00  0.00000000E+00  0.00000000E+00
  0.00000000E+00  0.00000000E+00  0.00000000E+00
  0.00000000E+00  0.00000000E+00  0.00000000E+00
  0.00000000E+00  0.00000000E+00  0.00000000E+00
  0.00000000E+00  0.00000000E+00  0.00000000E+00
  0.00000000E+00  0.00000000E+00  0.00000000E+00
  0.00000000E+00  0.00000000E+00  0.00000000E+00
  0.00000000E+00  0.00000000E+00  0.00000000E+00
  0.00000000E+00  0.00000000E+00  0.00000000E+00
  0.00000000E+00  0.00000000E+00  0.00000000E+00
  0.00000000E+00  0.00000000E+00  0.00000000E+00
  0.00000000E+00  0.00000000E+00  0.00000000E+00
  0.00000000E+00  0.00000000E+00  0.00000000E+00
  0.00000000E+00  0.00000000E+00  0.00000000E+00
  0.00000000E+00  0.00000000E+00  0.00000000E+00
  0.00000000E+00  0.00000000E+00  0.00000000E+00
  0.00000000E+00  0.00000000E+00  0.00000000E+00
  0.00000000E+00  0.00000000E+00  0.00000000E+00
  0.00000000E+00  0.00000000E+00  0.00000000E+00
  0.00000000E+00  0.00000000E+00  0.00000000E+00
  0.00000000E+00  0.00000000E+00  0.00000000E+00
  0.00000000E+00  0.00000000E+00  0.00000000E+00
  0.00000000E+00  0.00000000E+00  0.00000000E+00
  0.00000000E+00  0.00000000E+00  0.00000000E+00
  0.00000000E+00  0.00000000E+00  0.00000000E+00
  0.00000000E+00  0.00000000E+00  0.00000000E+00
  0.00000000E+00  0.00000000E+00  0.00000000E+00
  0.00000000E+00  0.00000000E+00  0.00000000E+00
  0.00000000E+00  0.00000000E+00  0.00000000E+00
  0.00000000E+00  0.00000000E+00  0.00000000E+00
  0.00000000E+00  0.00000000E+00  0.00000000E+00
  0.00000000E+00  0.00000000E+00  0.00000000E+00
  0.00000000E+00  0.00000000E+00  0.00000000E+00
  0.00000000E+00  0.00000000E+00  0.00000000E+00
  0.00000000E+00  0.00000000E+00  0.00000000E+00
  0.00000000E+00  0.00000000E+00  0.00000000E+00
  0.00000000E+00  0.00000000E+00  0.00000000E+00
  0.00000000E+00  0.00000000E+00  0.00000000E+00
  0.00000000E+00  0.00000000E+00  0.00000000E+00
  0.00000000E+00  0.00000000E+00  0.00000000E+00
  0.00000000E+00  0.00000000E+00  0.00000000E+00
  0.00000000E+00  0.00000000E+00  0.00000000E+00
  0.00000000E+00  0.00000000E+00  0.00000000E+00
  0.00000000E+00  0.00000000E+00  0.00000000E+00
  0.00000000E+00  0.00000000E+00  0.00000000E+00
  0.00000000E+00  0.00000000E+00  0.00000000E+00
  0.00000000E+00  0.00000000E+00  0.00000000E+00
  0.00000000E+00  0.00000000E+00  0.00000000E+00
  0.00000000E+00  0.00000000E+00  0.00000000E+00
  0.00000000E+00  0.00000000E+00  0.00000000E+00
  0.00000000E+00  0.00000000E+00  0.00000000E+00
  0.00000000E+00  0.00000000E+00  0.00000000E+00
  0.00000000E+00  0.00000000E+00  0.00000000E+00
  0.00000000E+00  0.00000000E+00  0.00000000E+00
  0.00000000E+00  0.00000000E+00  0.00000000E+00
  0.00000000E+00  0.00000000E+00  0.00000000E+00
  0.00000000E+00  0.00000000E+00  0.00000000E+00
  0.00000000E+00  0.00000000E+00  0.00000000E+00
  0.00000000E+00  0.00000000E+00  0.00000000E+00
  0.00000000E+00  0.00000000E+00  0.00000000E+00
  0.00000000E+00  0.00000000E+00  0.00000000E+00
  0.00000000E+00  0.00000000E+00  0.00000000E+00
  0.00000000E+00  0.00000000E+00  0.00000000E+00
  0.00000000E+00  0.00000000E+00  0.00000000E+00
  0.00000000E+00  0.00000000E+00  0.00000000E+00
  0.00000000E+00  0.00000000E+00  0.00000000E+00
  0.00000000E+00  0.00000000E+00  0.00000000E+00
  0.00000000E+00  0.00000000E+00  0.00000000E+00
  0.00000000E+00  0.00000000E+00  0.00000000E+00
  0.00000000E+00  0.00000000E+00  0.00000000E+00
