Bi La Sn O  C  H                        
   1.00000000000000     
    29.0000000000000000    0.0000000000000000    0.0000000000000000
     0.2488180851000000   28.9989325590000000    0.0000000000000000
    -0.0631677343000000   -0.4515975666000000   28.9964147692999994
   Bi   La   Sn   O    C    H 
    22    23    23     2     1     1
Selective dynamics
Direct
  0.7592796793756814  0.4775385510707183  0.3974245099029730   T   T   T
  0.6467711516337465  0.6843690676040824  0.5534242477670687   T   T   T
  0.3589795488065290  0.4592573242118689  0.4286836831013803   T   T   T
  0.5511249356620893  0.7133908851685651  0.5841816253548004   T   T   T
  0.5915029568994470  0.5209714444905416  0.5841479689498996   F   F   F
  0.6401569937481518  0.6811919401940340  0.4476689066925731   T   T   T
  0.6962391485580451  0.5222990524257449  0.6539628159752302   T   T   T
  0.4859338079155719  0.7012216538005598  0.4993391618460019   T   T   T
  0.5004839460855024  0.5502791173970252  0.5477141156400123   F   F   F
  0.3251049381026518  0.4865351961794933  0.5750887710145453   T   T   T
  0.3822971836338468  0.6103643590550077  0.5350479582033392   T   T   T
  0.6667129484492236  0.4827404655721850  0.5105018184570156   F   F   F
  0.5763997220267569  0.4263140504383500  0.5448328182496311   F   F   F
  0.6691003385097488  0.3740422957313603  0.5084720868440908   T   T   T
  0.4635656674029762  0.3388995067866340  0.5002975272104352   T   T   T
  0.6484934028780529  0.5775373212088155  0.4602701624361103   F   F   F
  0.5577943730117259  0.4377742979506414  0.7498128789917127   T   T   T
  0.6040077150115298  0.3516656119119432  0.6692758487683134   T   T   T
  0.4920424507945070  0.2995981873285973  0.4099214130533211   T   T   T
  0.6604875173717181  0.6185026703123307  0.6659129414279551   T   T   T
  0.4912475922405318  0.4109438596720545  0.3086915771159827   T   T   T
  0.6213250081432568  0.3157424418195837  0.5733074605410203   T   T   T
  0.5384669678286050  0.6839308445575223  0.4044510187249171   T   T   T
  0.3904292383909622  0.4159964933507101  0.5274520100746325   T   T   T
  0.6335791911250012  0.5555541105883646  0.2836823837262104   T   T   T
  0.4715059886366511  0.4712104350518383  0.6919994343743587   T   T   T
  0.5683115009887700  0.5094300495444983  0.4784716241115703   F   F   F
  0.4203210565129183  0.5084107200613417  0.5018573595042781   F   F   F
  0.4508100465276653  0.4009331630601517  0.4077196980827540   T   T   T
  0.5636019735856961  0.3486198880305582  0.3546778586151413   T   T   T
  0.4110357697576871  0.5403494069997341  0.6097509425484895   T   T   T
  0.5975336543257187  0.4404779533863422  0.3035468462653523   T   T   T
  0.4548558012721260  0.6007552518367072  0.3638733992204361   T   T   T
  0.4172218000804715  0.4882508927190478  0.3403628828121852   T   T   T
  0.6613461191460577  0.4288141830910778  0.6049645965738173   T   T   T
  0.6733924808525399  0.5785506542752580  0.5635409069813638   T   T   T
  0.5265529757833349  0.5103370939289630  0.3280677466806617   T   T   T
  0.5660266834415121  0.3574627860783912  0.4691119688751382   T   T   T
  0.3148664498978992  0.5421198095376023  0.4918271572294461   T   T   T
  0.6589639116423339  0.4289862778911813  0.4168247255502640   T   T   T
  0.5660841929594156  0.6261437171197244  0.5094829013827464   F   F   F
  0.5960713015070339  0.5289279327147413  0.6894441031932343   T   T   T
  0.4704186399824819  0.6416979089643307  0.5881607455550678   T   T   T
  0.4636543708606681  0.6030673083094573  0.4638144193997751   T   T   T
  0.7163769945194284  0.5740188077447836  0.3787224357322617   T   T   T
  0.5499310510395361  0.5822218838566187  0.4076968008106903   F   F   F
  0.4794126430662260  0.5072205383607624  0.4190535757241776   F   F   F
  0.6929610923531064  0.4753041048089605  0.3257109838858508   T   T   T
  0.7514328412896415  0.4296704154521952  0.4870187409585158   T   T   T
  0.7477016705908397  0.5370930915126575  0.4832606217382911   T   T   T
  0.7491191612357914  0.4910898246383156  0.5720803911653534   T   T   T
  0.6478855686934264  0.4370184989318809  0.7094410647167816   T   T   T
  0.5757189771479382  0.7439088510700306  0.4927574540215767   T   T   T
  0.6192554540844384  0.5183157687966542  0.3801816896793397   F   F   F
  0.5051690047408013  0.5596427442818199  0.6500226804943211   T   T   T
  0.4922009500451665  0.4366758245867572  0.4933013002826740   F   F   F
  0.5608844484509063  0.4404139570509003  0.6454865549417619   F   F   F
  0.5773438923488545  0.6160833897952509  0.6135601299985075   T   T   T
  0.5435545997351646  0.6169362858847839  0.3114144354714358   T   T   T
  0.6248522207910022  0.6265139575770726  0.3629835004022203   T   T   T
  0.3764708192684212  0.5579914058256755  0.4134393467692872   T   T   T
  0.4723078164089713  0.4557257050327763  0.5877273803360978   F   F   F
  0.7276156158993752  0.6336683457259158  0.4828427203489685   T   T   T
  0.5038807298568668  0.3684609621001239  0.6849625114481674   T   T   T
  0.3812693172452354  0.4414527064594619  0.6403694842309585   T   T   T
  0.5544592502646992  0.4379899399457940  0.4037542370104745   F   F   F
  0.4341550088892208  0.3637803204553727  0.6109815941796918   T   T   T
  0.5280380110494508  0.3495944989004762  0.5801806114743627   T   T   T
  0.7090385835382303  0.5887775699410890  0.2793464322472825   T   T   T
  0.7649936862352331  0.6191042797187783  0.3240612722776842   T   T   T
  0.7474516934832657  0.6102069427469697  0.2850457037697842   T   T   T
  0.7657098878321895  0.6208679448527824  0.2534120702026160   T   T   T
 
  0.00000000E+00  0.00000000E+00  0.00000000E+00
  0.00000000E+00  0.00000000E+00  0.00000000E+00
  0.00000000E+00  0.00000000E+00  0.00000000E+00
  0.00000000E+00  0.00000000E+00  0.00000000E+00
  0.00000000E+00  0.00000000E+00  0.00000000E+00
  0.00000000E+00  0.00000000E+00  0.00000000E+00
  0.00000000E+00  0.00000000E+00  0.00000000E+00
  0.00000000E+00  0.00000000E+00  0.00000000E+00
  0.00000000E+00  0.00000000E+00  0.00000000E+00
  0.00000000E+00  0.00000000E+00  0.00000000E+00
  0.00000000E+00  0.00000000E+00  0.00000000E+00
  0.00000000E+00  0.00000000E+00  0.00000000E+00
  0.00000000E+00  0.00000000E+00  0.00000000E+00
  0.00000000E+00  0.00000000E+00  0.00000000E+00
  0.00000000E+00  0.00000000E+00  0.00000000E+00
  0.00000000E+00  0.00000000E+00  0.00000000E+00
  0.00000000E+00  0.00000000E+00  0.00000000E+00
  0.00000000E+00  0.00000000E+00  0.00000000E+00
  0.00000000E+00  0.00000000E+00  0.00000000E+00
  0.00000000E+00  0.00000000E+00  0.00000000E+00
  0.00000000E+00  0.00000000E+00  0.00000000E+00
  0.00000000E+00  0.00000000E+00  0.00000000E+00
  0.00000000E+00  0.00000000E+00  0.00000000E+00
  0.00000000E+00  0.00000000E+00  0.00000000E+00
  0.00000000E+00  0.00000000E+00  0.00000000E+00
  0.00000000E+00  0.00000000E+00  0.00000000E+00
  0.00000000E+00  0.00000000E+00  0.00000000E+00
  0.00000000E+00  0.00000000E+00  0.00000000E+00
  0.00000000E+00  0.00000000E+00  0.00000000E+00
  0.00000000E+00  0.00000000E+00  0.00000000E+00
  0.00000000E+00  0.00000000E+00  0.00000000E+00
  0.00000000E+00  0.00000000E+00  0.00000000E+00
  0.00000000E+00  0.00000000E+00  0.00000000E+00
  0.00000000E+00  0.00000000E+00  0.00000000E+00
  0.00000000E+00  0.00000000E+00  0.00000000E+00
  0.00000000E+00  0.00000000E+00  0.00000000E+00
  0.00000000E+00  0.00000000E+00  0.00000000E+00
  0.00000000E+00  0.00000000E+00  0.00000000E+00
  0.00000000E+00  0.00000000E+00  0.00000000E+00
  0.00000000E+00  0.00000000E+00  0.00000000E+00
  0.00000000E+00  0.00000000E+00  0.00000000E+00
  0.00000000E+00  0.00000000E+00  0.00000000E+00
  0.00000000E+00  0.00000000E+00  0.00000000E+00
  0.00000000E+00  0.00000000E+00  0.00000000E+00
  0.00000000E+00  0.00000000E+00  0.00000000E+00
  0.00000000E+00  0.00000000E+00  0.00000000E+00
  0.00000000E+00  0.00000000E+00  0.00000000E+00
  0.00000000E+00  0.00000000E+00  0.00000000E+00
  0.00000000E+00  0.00000000E+00  0.00000000E+00
  0.00000000E+00  0.00000000E+00  0.00000000E+00
  0.00000000E+00  0.00000000E+00  0.00000000E+00
  0.00000000E+00  0.00000000E+00  0.00000000E+00
  0.00000000E+00  0.00000000E+00  0.00000000E+00
  0.00000000E+00  0.00000000E+00  0.00000000E+00
  0.00000000E+00  0.00000000E+00  0.00000000E+00
  0.00000000E+00  0.00000000E+00  0.00000000E+00
  0.00000000E+00  0.00000000E+00  0.00000000E+00
  0.00000000E+00  0.00000000E+00  0.00000000E+00
  0.00000000E+00  0.00000000E+00  0.00000000E+00
  0.00000000E+00  0.00000000E+00  0.00000000E+00
  0.00000000E+00  0.00000000E+00  0.00000000E+00
  0.00000000E+00  0.00000000E+00  0.00000000E+00
  0.00000000E+00  0.00000000E+00  0.00000000E+00
  0.00000000E+00  0.00000000E+00  0.00000000E+00
  0.00000000E+00  0.00000000E+00  0.00000000E+00
  0.00000000E+00  0.00000000E+00  0.00000000E+00
  0.00000000E+00  0.00000000E+00  0.00000000E+00
  0.00000000E+00  0.00000000E+00  0.00000000E+00
  0.00000000E+00  0.00000000E+00  0.00000000E+00
  0.00000000E+00  0.00000000E+00  0.00000000E+00
  0.00000000E+00  0.00000000E+00  0.00000000E+00
  0.00000000E+00  0.00000000E+00  0.00000000E+00
