Bi La Sn O  C  H                        
   1.00000000000000     
    29.0000000000000000    0.0000000000000000    0.0000000000000000
     0.2488180851000000   28.9989325590000000    0.0000000000000000
    -0.0631677343000000   -0.4515975666000000   28.9964147692999994
   Bi   La   Sn   O    C    H 
    22    23    23     2     1     1
Selective dynamics
Direct
  0.7580806694985122  0.4787226614404849  0.3997346556688156   T   T   T
  0.6478297071438315  0.6844032353037537  0.5512980504467861   T   T   T
  0.3601093617560273  0.4591831109280810  0.4276176830934993   T   T   T
  0.5514078966220677  0.7133637609611516  0.5845460950969653   T   T   T
  0.5915029568994470  0.5209714444905416  0.5841479689498996   F   F   F
  0.6404637896690372  0.6800506468839812  0.4454745958311965   T   T   T
  0.6970429802450748  0.5222782372660753  0.6549083612835751   T   T   T
  0.4869835431581721  0.7019141568880360  0.4994854797995536   T   T   T
  0.5004839460855024  0.5502791173970252  0.5477141156400123   F   F   F
  0.3273240580915023  0.4850578922526391  0.5778858152241797   T   T   T
  0.3825979481598925  0.6087644184254598  0.5373596790593768   T   T   T
  0.6667129484492236  0.4827404655721850  0.5105018184570156   F   F   F
  0.5763997220267569  0.4263140504383500  0.5448328182496311   F   F   F
  0.6689449944288517  0.3757740543164756  0.5113725676339738   T   T   T
  0.4622919303060611  0.3387449898126831  0.4957372795942911   T   T   T
  0.6484934028780529  0.5775373212088155  0.4602701624361103   F   F   F
  0.5558688979075664  0.4368205288706232  0.7496770242296241   T   T   T
  0.5950920763875124  0.3510579527805934  0.6703377273505801   T   T   T
  0.4928530622148751  0.3012981006819818  0.4057494081471280   T   T   T
  0.6607496176421295  0.6177336438722119  0.6674202687453928   T   T   T
  0.4910289175181832  0.4129465055818397  0.3051169708073811   T   T   T
  0.6202484866792001  0.3172331889148781  0.5756000695885746   T   T   T
  0.5395453164914847  0.6839773882175438  0.4049994477694654   T   T   T
  0.3897326413613438  0.4155357810007091  0.5255179043249604   T   T   T
  0.6279860720329951  0.5535605461722281  0.2823688894955015   T   T   T
  0.4728999238486987  0.4786757123416359  0.6931898638590273   T   T   T
  0.5683115009887700  0.5094300495444983  0.4784716241115703   F   F   F
  0.4203210565129183  0.5084107200613417  0.5018573595042781   F   F   F
  0.4522487050465741  0.4023463359713640  0.4048181444124213   T   T   T
  0.5641952875990184  0.3494535348921876  0.3502604115536192   T   T   T
  0.4127818273883070  0.5391518123674139  0.6119190736402080   T   T   T
  0.5971649942039987  0.4449188768318946  0.3040359805903434   T   T   T
  0.4546178583954324  0.6016514062865895  0.3641643387206412   T   T   T
  0.4179520188563580  0.4897094891461630  0.3397919758998916   T   T   T
  0.6604386752136384  0.4286761581814102  0.6067709695077094   T   T   T
  0.6741724946378049  0.5782764001485406  0.5644764408231027   T   T   T
  0.5253953480599076  0.5114216222565992  0.3280522101509487   T   T   T
  0.5669687000130551  0.3563724463412720  0.4688196228528710   T   T   T
  0.3159911575693041  0.5400039006119878  0.4935589406254038   T   T   T
  0.6602681949653999  0.4251255494216696  0.4141643675311901   T   T   T
  0.5660841929594156  0.6261437171197244  0.5094829013827464   F   F   F
  0.5966229797440520  0.5276337451710299  0.6897573878701299   T   T   T
  0.4706726093722833  0.6424876859611565  0.5878693691921476   T   T   T
  0.4631185325441153  0.6038136985181103  0.4645057211267197   T   T   T
  0.7166898509142668  0.5748066451925083  0.3835075234738665   T   T   T
  0.5499310510395361  0.5822218838566187  0.4076968008106903   F   F   F
  0.4794126430662260  0.5072205383607624  0.4190535757241776   F   F   F
  0.6941304238907318  0.4814153619063674  0.3247927334901834   T   T   T
  0.7517453460943808  0.4292663619180041  0.4874611728721125   T   T   T
  0.7486678922817005  0.5385101051621811  0.4860871364137696   T   T   T
  0.7485878206921778  0.4895128556377584  0.5723687488284076   T   T   T
  0.6459245077228187  0.4338749898558020  0.7107553687090483   T   T   T
  0.5778836119360757  0.7433397969157428  0.4933187214203942   T   T   T
  0.6192554540844384  0.5183157687966542  0.3801816896793397   F   F   F
  0.5075293481966940  0.5634718610030596  0.6498013396884078   T   T   T
  0.4922009500451665  0.4366758245867572  0.4933013002826740   F   F   F
  0.5608844484509063  0.4404139570509003  0.6454865549417619   F   F   F
  0.5793305087461604  0.6172053122656623  0.6130092222127117   T   T   T
  0.5444187917452803  0.6190614453409005  0.3127605581088631   T   T   T
  0.6276060572594020  0.6253101822584360  0.3607173066501447   T   T   T
  0.3763046405477943  0.5585564247120461  0.4142386599947723   T   T   T
  0.4723078164089713  0.4557257050327763  0.5877273803360978   F   F   F
  0.7277939928955837  0.6352577853175846  0.4847357133951844   T   T   T
  0.4936721527806919  0.3757837773794110  0.6776259829599496   T   T   T
  0.3865480427388298  0.4370048008959508  0.6405724565239126   T   T   T
  0.5544592502646992  0.4379899399457940  0.4037542370104745   F   F   F
  0.4296471169432466  0.3564708165631970  0.6023690791987312   T   T   T
  0.5255280068917073  0.3499188375130770  0.5770003233774534   T   T   T
  0.7033463698376688  0.3486928073731573  0.3968118580965759   T   T   T
  0.6270689544827228  0.3369281877580660  0.4047665686280792   T   T   T
  0.6707671740270787  0.3255125821672902  0.4122957706568856   T   T   T
  0.6767156573253843  0.2935048195967153  0.4315130616988662   T   T   T
 
  0.00000000E+00  0.00000000E+00  0.00000000E+00
  0.00000000E+00  0.00000000E+00  0.00000000E+00
  0.00000000E+00  0.00000000E+00  0.00000000E+00
  0.00000000E+00  0.00000000E+00  0.00000000E+00
  0.00000000E+00  0.00000000E+00  0.00000000E+00
  0.00000000E+00  0.00000000E+00  0.00000000E+00
  0.00000000E+00  0.00000000E+00  0.00000000E+00
  0.00000000E+00  0.00000000E+00  0.00000000E+00
  0.00000000E+00  0.00000000E+00  0.00000000E+00
  0.00000000E+00  0.00000000E+00  0.00000000E+00
  0.00000000E+00  0.00000000E+00  0.00000000E+00
  0.00000000E+00  0.00000000E+00  0.00000000E+00
  0.00000000E+00  0.00000000E+00  0.00000000E+00
  0.00000000E+00  0.00000000E+00  0.00000000E+00
  0.00000000E+00  0.00000000E+00  0.00000000E+00
  0.00000000E+00  0.00000000E+00  0.00000000E+00
  0.00000000E+00  0.00000000E+00  0.00000000E+00
  0.00000000E+00  0.00000000E+00  0.00000000E+00
  0.00000000E+00  0.00000000E+00  0.00000000E+00
  0.00000000E+00  0.00000000E+00  0.00000000E+00
  0.00000000E+00  0.00000000E+00  0.00000000E+00
  0.00000000E+00  0.00000000E+00  0.00000000E+00
  0.00000000E+00  0.00000000E+00  0.00000000E+00
  0.00000000E+00  0.00000000E+00  0.00000000E+00
  0.00000000E+00  0.00000000E+00  0.00000000E+00
  0.00000000E+00  0.00000000E+00  0.00000000E+00
  0.00000000E+00  0.00000000E+00  0.00000000E+00
  0.00000000E+00  0.00000000E+00  0.00000000E+00
  0.00000000E+00  0.00000000E+00  0.00000000E+00
  0.00000000E+00  0.00000000E+00  0.00000000E+00
  0.00000000E+00  0.00000000E+00  0.00000000E+00
  0.00000000E+00  0.00000000E+00  0.00000000E+00
  0.00000000E+00  0.00000000E+00  0.00000000E+00
  0.00000000E+00  0.00000000E+00  0.00000000E+00
  0.00000000E+00  0.00000000E+00  0.00000000E+00
  0.00000000E+00  0.00000000E+00  0.00000000E+00
  0.00000000E+00  0.00000000E+00  0.00000000E+00
  0.00000000E+00  0.00000000E+00  0.00000000E+00
  0.00000000E+00  0.00000000E+00  0.00000000E+00
  0.00000000E+00  0.00000000E+00  0.00000000E+00
  0.00000000E+00  0.00000000E+00  0.00000000E+00
  0.00000000E+00  0.00000000E+00  0.00000000E+00
  0.00000000E+00  0.00000000E+00  0.00000000E+00
  0.00000000E+00  0.00000000E+00  0.00000000E+00
  0.00000000E+00  0.00000000E+00  0.00000000E+00
  0.00000000E+00  0.00000000E+00  0.00000000E+00
  0.00000000E+00  0.00000000E+00  0.00000000E+00
  0.00000000E+00  0.00000000E+00  0.00000000E+00
  0.00000000E+00  0.00000000E+00  0.00000000E+00
  0.00000000E+00  0.00000000E+00  0.00000000E+00
  0.00000000E+00  0.00000000E+00  0.00000000E+00
  0.00000000E+00  0.00000000E+00  0.00000000E+00
  0.00000000E+00  0.00000000E+00  0.00000000E+00
  0.00000000E+00  0.00000000E+00  0.00000000E+00
  0.00000000E+00  0.00000000E+00  0.00000000E+00
  0.00000000E+00  0.00000000E+00  0.00000000E+00
  0.00000000E+00  0.00000000E+00  0.00000000E+00
  0.00000000E+00  0.00000000E+00  0.00000000E+00
  0.00000000E+00  0.00000000E+00  0.00000000E+00
  0.00000000E+00  0.00000000E+00  0.00000000E+00
  0.00000000E+00  0.00000000E+00  0.00000000E+00
  0.00000000E+00  0.00000000E+00  0.00000000E+00
  0.00000000E+00  0.00000000E+00  0.00000000E+00
  0.00000000E+00  0.00000000E+00  0.00000000E+00
  0.00000000E+00  0.00000000E+00  0.00000000E+00
  0.00000000E+00  0.00000000E+00  0.00000000E+00
  0.00000000E+00  0.00000000E+00  0.00000000E+00
  0.00000000E+00  0.00000000E+00  0.00000000E+00
  0.00000000E+00  0.00000000E+00  0.00000000E+00
  0.00000000E+00  0.00000000E+00  0.00000000E+00
  0.00000000E+00  0.00000000E+00  0.00000000E+00
  0.00000000E+00  0.00000000E+00  0.00000000E+00
