Bi La Sn O  C  H                        
   1.00000000000000     
    29.0000000000000000    0.0000000000000000    0.0000000000000000
     0.2488180851000000   28.9989325590000000    0.0000000000000000
    -0.0631677343000000   -0.4515975666000000   28.9964147692999994
   Bi   La   Sn   O    C    H 
    22    23    23     2     1     1
Selective dynamics
Direct
  0.7606982849665909  0.4792731963618006  0.3998104249384879   T   T   T
  0.6458661803040158  0.6844800708625624  0.5528212383397121   T   T   T
  0.3596401811450988  0.4585692585510270  0.4284874392905927   T   T   T
  0.5494969037201636  0.7127026248715800  0.5859655596592789   T   T   T
  0.5915029568994470  0.5209714444905416  0.5841479689498996   F   F   F
  0.6404147766244178  0.6804485782189255  0.4454425167714109   T   T   T
  0.6957675660064275  0.5225737954294434  0.6544376098042878   T   T   T
  0.4859941420239361  0.7005576171485604  0.5008022720090830   T   T   T
  0.5004839460855024  0.5502791173970252  0.5477141156400123   F   F   F
  0.3240022125059168  0.4865681155782559  0.5737029003238215   T   T   T
  0.3820244716133820  0.6115034954792180  0.5342027692254572   T   T   T
  0.6667129484492236  0.4827404655721850  0.5105018184570156   F   F   F
  0.5763997220267569  0.4263140504383500  0.5448328182496311   F   F   F
  0.6691749361666032  0.3743596947516543  0.5066991279245221   T   T   T
  0.4638365507715893  0.3392385298886958  0.5016274500075660   T   T   T
  0.6484934028780529  0.5775373212088155  0.4602701624361103   F   F   F
  0.5577180618363449  0.4376874443530869  0.7499334329291614   T   T   T
  0.6056631289382076  0.3512895604751190  0.6685292653627052   T   T   T
  0.4908746907043224  0.2981916537421592  0.4122415999855098   T   T   T
  0.6596630046677836  0.6186478789280345  0.6661740294626374   T   T   T
  0.4929541073810591  0.4097055664305464  0.3077184342682038   T   T   T
  0.6221161125983038  0.3161662764625039  0.5724627991330551   T   T   T
  0.5387493958614973  0.6837634170925713  0.4055683584961190   T   T   T
  0.3905796188349064  0.4155899108467297  0.5280891194843906   T   T   T
  0.6279455132921612  0.5522284712932982  0.2807950801209130   T   T   T
  0.4709576861226670  0.4692666950032018  0.6914643584549023   T   T   T
  0.5683115009887700  0.5094300495444983  0.4784716241115703   F   F   F
  0.4203210565129183  0.5084107200613417  0.5018573595042781   F   F   F
  0.4517487698741771  0.4004805839469214  0.4074262356701290   T   T   T
  0.5617246407034745  0.3469991562666905  0.3562275321676633   T   T   T
  0.4100782030260356  0.5406944837167968  0.6086492190262801   T   T   T
  0.6012295900152720  0.4400536421875598  0.3032840628518681   T   T   T
  0.4553191152623599  0.6001830900361514  0.3630515121758793   T   T   T
  0.4190095141423711  0.4869772720536932  0.3394808514272631   T   T   T
  0.6613246177957132  0.4284586213688172  0.6045454643535847   T   T   T
  0.6730684760394053  0.5787163665132595  0.5640888660931138   T   T   T
  0.5257685035596015  0.5096737997582683  0.3281438066337780   T   T   T
  0.5661614958462752  0.3578157834579301  0.4686822734478639   T   T   T
  0.3156296057719301  0.5426814366626591  0.4906020736170751   T   T   T
  0.6610486665308495  0.4299176857799143  0.4157723481229106   T   T   T
  0.5660841929594156  0.6261437171197244  0.5094829013827464   F   F   F
  0.5954620410045958  0.5289180505242929  0.6896560357759610   T   T   T
  0.4693313163839298  0.6409915909677302  0.5890479272942545   T   T   T
  0.4630336967987507  0.6030152080470762  0.4636736971750817   T   T   T
  0.7174074238279833  0.5754015607114619  0.3845705335214905   T   T   T
  0.5499310510395361  0.5822218838566187  0.4076968008106903   F   F   F
  0.4794126430662260  0.5072205383607624  0.4190535757241776   F   F   F
  0.6958745915087179  0.4831968423500970  0.3261506228827252   T   T   T
  0.7522522484350519  0.4298893841578927  0.4884874921052069   T   T   T
  0.7482922006949684  0.5386651666550413  0.4859778151078051   T   T   T
  0.7486464467365841  0.4911648281030421  0.5729800929264254   T   T   T
  0.6477715030624511  0.4373694662021571  0.7092436696564850   T   T   T
  0.5768995609337115  0.7422483325362323  0.4943530190902573   T   T   T
  0.6192554540844384  0.5183157687966542  0.3801816896793397   F   F   F
  0.5041939410950912  0.5583924397736858  0.6500508460515400   T   T   T
  0.4922009500451665  0.4366758245867572  0.4933013002826740   F   F   F
  0.5608844484509063  0.4404139570509003  0.6454865549417619   F   F   F
  0.5764448995460810  0.6157868481867134  0.6138769398874707   T   T   T
  0.5445604225815480  0.6185348062084698  0.3128104532879828   T   T   T
  0.6275364296646384  0.6254155336705578  0.3610790981375868   T   T   T
  0.3772534435331217  0.5564788304251056  0.4118205446371455   T   T   T
  0.4723078164089713  0.4557257050327763  0.5877273803360978   F   F   F
  0.7270045007534669  0.6355930462597705  0.4854508148305972   T   T   T
  0.5061251109140300  0.3671948819025621  0.6858786602534159   T   T   T
  0.3802887538234131  0.4427490549920682  0.6397888651626313   T   T   T
  0.5544592502646992  0.4379899399457940  0.4037542370104745   F   F   F
  0.4352047822885046  0.3653460370293977  0.6129411333328515   T   T   T
  0.5288648851105148  0.3494010922313813  0.5811860496120260   T   T   T
  0.6343175810341369  0.5103848282444824  0.2083417747448768   T   T   T
  0.6239875242653241  0.4343460874258300  0.2210150612451743   T   T   T
  0.6347374446154654  0.4678702687150175  0.1957542515444724   T   T   T
  0.6453850760964067  0.4600145988798170  0.1597233450714942   T   T   T
 
  0.00000000E+00  0.00000000E+00  0.00000000E+00
  0.00000000E+00  0.00000000E+00  0.00000000E+00
  0.00000000E+00  0.00000000E+00  0.00000000E+00
  0.00000000E+00  0.00000000E+00  0.00000000E+00
  0.00000000E+00  0.00000000E+00  0.00000000E+00
  0.00000000E+00  0.00000000E+00  0.00000000E+00
  0.00000000E+00  0.00000000E+00  0.00000000E+00
  0.00000000E+00  0.00000000E+00  0.00000000E+00
  0.00000000E+00  0.00000000E+00  0.00000000E+00
  0.00000000E+00  0.00000000E+00  0.00000000E+00
  0.00000000E+00  0.00000000E+00  0.00000000E+00
  0.00000000E+00  0.00000000E+00  0.00000000E+00
  0.00000000E+00  0.00000000E+00  0.00000000E+00
  0.00000000E+00  0.00000000E+00  0.00000000E+00
  0.00000000E+00  0.00000000E+00  0.00000000E+00
  0.00000000E+00  0.00000000E+00  0.00000000E+00
  0.00000000E+00  0.00000000E+00  0.00000000E+00
  0.00000000E+00  0.00000000E+00  0.00000000E+00
  0.00000000E+00  0.00000000E+00  0.00000000E+00
  0.00000000E+00  0.00000000E+00  0.00000000E+00
  0.00000000E+00  0.00000000E+00  0.00000000E+00
  0.00000000E+00  0.00000000E+00  0.00000000E+00
  0.00000000E+00  0.00000000E+00  0.00000000E+00
  0.00000000E+00  0.00000000E+00  0.00000000E+00
  0.00000000E+00  0.00000000E+00  0.00000000E+00
  0.00000000E+00  0.00000000E+00  0.00000000E+00
  0.00000000E+00  0.00000000E+00  0.00000000E+00
  0.00000000E+00  0.00000000E+00  0.00000000E+00
  0.00000000E+00  0.00000000E+00  0.00000000E+00
  0.00000000E+00  0.00000000E+00  0.00000000E+00
  0.00000000E+00  0.00000000E+00  0.00000000E+00
  0.00000000E+00  0.00000000E+00  0.00000000E+00
  0.00000000E+00  0.00000000E+00  0.00000000E+00
  0.00000000E+00  0.00000000E+00  0.00000000E+00
  0.00000000E+00  0.00000000E+00  0.00000000E+00
  0.00000000E+00  0.00000000E+00  0.00000000E+00
  0.00000000E+00  0.00000000E+00  0.00000000E+00
  0.00000000E+00  0.00000000E+00  0.00000000E+00
  0.00000000E+00  0.00000000E+00  0.00000000E+00
  0.00000000E+00  0.00000000E+00  0.00000000E+00
  0.00000000E+00  0.00000000E+00  0.00000000E+00
  0.00000000E+00  0.00000000E+00  0.00000000E+00
  0.00000000E+00  0.00000000E+00  0.00000000E+00
  0.00000000E+00  0.00000000E+00  0.00000000E+00
  0.00000000E+00  0.00000000E+00  0.00000000E+00
  0.00000000E+00  0.00000000E+00  0.00000000E+00
  0.00000000E+00  0.00000000E+00  0.00000000E+00
  0.00000000E+00  0.00000000E+00  0.00000000E+00
  0.00000000E+00  0.00000000E+00  0.00000000E+00
  0.00000000E+00  0.00000000E+00  0.00000000E+00
  0.00000000E+00  0.00000000E+00  0.00000000E+00
  0.00000000E+00  0.00000000E+00  0.00000000E+00
  0.00000000E+00  0.00000000E+00  0.00000000E+00
  0.00000000E+00  0.00000000E+00  0.00000000E+00
  0.00000000E+00  0.00000000E+00  0.00000000E+00
  0.00000000E+00  0.00000000E+00  0.00000000E+00
  0.00000000E+00  0.00000000E+00  0.00000000E+00
  0.00000000E+00  0.00000000E+00  0.00000000E+00
  0.00000000E+00  0.00000000E+00  0.00000000E+00
  0.00000000E+00  0.00000000E+00  0.00000000E+00
  0.00000000E+00  0.00000000E+00  0.00000000E+00
  0.00000000E+00  0.00000000E+00  0.00000000E+00
  0.00000000E+00  0.00000000E+00  0.00000000E+00
  0.00000000E+00  0.00000000E+00  0.00000000E+00
  0.00000000E+00  0.00000000E+00  0.00000000E+00
  0.00000000E+00  0.00000000E+00  0.00000000E+00
  0.00000000E+00  0.00000000E+00  0.00000000E+00
  0.00000000E+00  0.00000000E+00  0.00000000E+00
  0.00000000E+00  0.00000000E+00  0.00000000E+00
  0.00000000E+00  0.00000000E+00  0.00000000E+00
  0.00000000E+00  0.00000000E+00  0.00000000E+00
  0.00000000E+00  0.00000000E+00  0.00000000E+00
