Bi La Sn O  C  H                        
   1.00000000000000     
    29.0000000000000000    0.0000000000000000    0.0000000000000000
     0.2488180851000000   28.9989325590000000    0.0000000000000000
    -0.0631677343000000   -0.4515975666000000   28.9964147692999994
   Bi   La   Sn   O    C    H 
    22    23    23     2     1     1
Selective dynamics
Direct
  0.7604816299524023  0.4765658109376338  0.3995925735029042   T   T   T
  0.6466109690930613  0.6852947368642527  0.5503887771381093   T   T   T
  0.3599615681997904  0.4584085791461133  0.4281243649626564   T   T   T
  0.5500802091728529  0.7129059233859522  0.5839710769651423   T   T   T
  0.5915029568994470  0.5209714444905416  0.5841479689498996   F   F   F
  0.6395705513565413  0.6805988826422432  0.4445233254963649   T   T   T
  0.6921369809699989  0.5220627267862580  0.6550653686342898   T   T   T
  0.4863252437849724  0.7016173629472811  0.4991484388679166   T   T   T
  0.5004839460855024  0.5502791173970252  0.5477141156400123   F   F   F
  0.3243322636423757  0.4857672233488249  0.5741506765823433   T   T   T
  0.3813765618063499  0.6104020173344582  0.5347954079884397   T   T   T
  0.6667129484492236  0.4827404655721850  0.5105018184570156   F   F   F
  0.5763997220267569  0.4263140504383500  0.5448328182496311   F   F   F
  0.6685504733948590  0.3740272453860754  0.5057402361742457   T   T   T
  0.4622139793707802  0.3382450059813120  0.4991238202191158   T   T   T
  0.6484934028780529  0.5775373212088155  0.4602701624361103   F   F   F
  0.5574566178363278  0.4354816791223113  0.7500006433504336   T   T   T
  0.6033316519537026  0.3509816977502082  0.6682419561772033   T   T   T
  0.4920671251411775  0.2984701583068025  0.4097197507153754   T   T   T
  0.6572695493896139  0.6178263566459726  0.6684072940179125   T   T   T
  0.4926050026552304  0.4093934631861765  0.3067118824021454   T   T   T
  0.6218003335513946  0.3165801790666329  0.5724575735183396   T   T   T
  0.5390974701995009  0.6834476714105506  0.4042436038207392   T   T   T
  0.3902674739947800  0.4153664284677562  0.5272249679458563   T   T   T
  0.6293521704320114  0.5508396990800809  0.2823748486158710   T   T   T
  0.4711515579051471  0.4712883381716431  0.6915847559829527   T   T   T
  0.5683115009887700  0.5094300495444983  0.4784716241115703   F   F   F
  0.4203210565129183  0.5084107200613417  0.5018573595042781   F   F   F
  0.4522993296407757  0.4006684711189510  0.4066970389687484   T   T   T
  0.5635169524161705  0.3484711039209859  0.3547770833099269   T   T   T
  0.4101890187264665  0.5399235915745487  0.6090303838826195   T   T   T
  0.6000040693861095  0.4411592466804694  0.3048480126388846   T   T   T
  0.4551790693165268  0.5996277497117559  0.3624286730222974   T   T   T
  0.4188107450821597  0.4864680350994040  0.3396911601683889   T   T   T
  0.6619192229009139  0.4281041332036598  0.6037767961944038   T   T   T
  0.6761626983101799  0.5805943308512639  0.5649056618502490   T   T   T
  0.5263635698274923  0.5090133863129145  0.3278743295892354   T   T   T
  0.5651381483843320  0.3571443681837823  0.4690655753084051   T   T   T
  0.3154211579688804  0.5414920871853669  0.4907668227265349   T   T   T
  0.6598722563817633  0.4293662871729459  0.4152681789482765   T   T   T
  0.5660841929594156  0.6261437171197244  0.5094829013827464   F   F   F
  0.5928231511913646  0.5285024032804271  0.6910045013827060   T   T   T
  0.4691844354288351  0.6417918080292933  0.5875742339609662   T   T   T
  0.4629707429338465  0.6034972808184296  0.4638859148176057   T   T   T
  0.7168108798008389  0.5722476958666144  0.3833281625984324   T   T   T
  0.5499310510395361  0.5822218838566187  0.4076968008106903   F   F   F
  0.4794126430662260  0.5072205383607624  0.4190535757241776   F   F   F
  0.6959527552642902  0.4797552514842195  0.3248199105173717   T   T   T
  0.7514630189895147  0.4299689690068337  0.4894044913083032   T   T   T
  0.7478462860355056  0.5379760704329543  0.4849767127459663   T   T   T
  0.7498626531910174  0.4942424097183017  0.5740661764097779   T   T   T
  0.6470831581740937  0.4371846050045785  0.7081940169575371   T   T   T
  0.5768367783033607  0.7436947544396906  0.4927474488283936   T   T   T
  0.6192554540844384  0.5183157687966542  0.3801816896793397   F   F   F
  0.5035746522051999  0.5604635376185930  0.6498838659264475   T   T   T
  0.4922009500451665  0.4366758245867572  0.4933013002826740   F   F   F
  0.5608844484509063  0.4404139570509003  0.6454865549417619   F   F   F
  0.5765941951950018  0.6157481468930081  0.6136404019390630   T   T   T
  0.5455596767361832  0.6167670717468305  0.3124185525185811   T   T   T
  0.6285314305418831  0.6242216754888832  0.3602206069279756   T   T   T
  0.3772444983531643  0.5566105203016790  0.4121434372924040   T   T   T
  0.4723078164089713  0.4557257050327763  0.5877273803360978   F   F   F
  0.7265722516723471  0.6360045618840809  0.4822344446827863   T   T   T
  0.5037692264173621  0.3690705047583270  0.6834385845005391   T   T   T
  0.3806106415604967  0.4413047298657228  0.6399686257324082   T   T   T
  0.5544592502646992  0.4379899399457940  0.4037542370104745   F   F   F
  0.4341736535707726  0.3638492358913462  0.6104739214070616   T   T   T
  0.5276113904205187  0.3491297274844997  0.5784934576988362   T   T   T
  0.7517104067576780  0.6042692856953333  0.5925433765374641   T   T   T
  0.8037722740404348  0.5477966106268267  0.6100526154146571   T   T   T
  0.7901545782232345  0.5894782690797025  0.6079542952631493   T   T   T
  0.8145092163962617  0.6161856142851647  0.6209355267492669   T   T   T
 
  0.00000000E+00  0.00000000E+00  0.00000000E+00
  0.00000000E+00  0.00000000E+00  0.00000000E+00
  0.00000000E+00  0.00000000E+00  0.00000000E+00
  0.00000000E+00  0.00000000E+00  0.00000000E+00
  0.00000000E+00  0.00000000E+00  0.00000000E+00
  0.00000000E+00  0.00000000E+00  0.00000000E+00
  0.00000000E+00  0.00000000E+00  0.00000000E+00
  0.00000000E+00  0.00000000E+00  0.00000000E+00
  0.00000000E+00  0.00000000E+00  0.00000000E+00
  0.00000000E+00  0.00000000E+00  0.00000000E+00
  0.00000000E+00  0.00000000E+00  0.00000000E+00
  0.00000000E+00  0.00000000E+00  0.00000000E+00
  0.00000000E+00  0.00000000E+00  0.00000000E+00
  0.00000000E+00  0.00000000E+00  0.00000000E+00
  0.00000000E+00  0.00000000E+00  0.00000000E+00
  0.00000000E+00  0.00000000E+00  0.00000000E+00
  0.00000000E+00  0.00000000E+00  0.00000000E+00
  0.00000000E+00  0.00000000E+00  0.00000000E+00
  0.00000000E+00  0.00000000E+00  0.00000000E+00
  0.00000000E+00  0.00000000E+00  0.00000000E+00
  0.00000000E+00  0.00000000E+00  0.00000000E+00
  0.00000000E+00  0.00000000E+00  0.00000000E+00
  0.00000000E+00  0.00000000E+00  0.00000000E+00
  0.00000000E+00  0.00000000E+00  0.00000000E+00
  0.00000000E+00  0.00000000E+00  0.00000000E+00
  0.00000000E+00  0.00000000E+00  0.00000000E+00
  0.00000000E+00  0.00000000E+00  0.00000000E+00
  0.00000000E+00  0.00000000E+00  0.00000000E+00
  0.00000000E+00  0.00000000E+00  0.00000000E+00
  0.00000000E+00  0.00000000E+00  0.00000000E+00
  0.00000000E+00  0.00000000E+00  0.00000000E+00
  0.00000000E+00  0.00000000E+00  0.00000000E+00
  0.00000000E+00  0.00000000E+00  0.00000000E+00
  0.00000000E+00  0.00000000E+00  0.00000000E+00
  0.00000000E+00  0.00000000E+00  0.00000000E+00
  0.00000000E+00  0.00000000E+00  0.00000000E+00
  0.00000000E+00  0.00000000E+00  0.00000000E+00
  0.00000000E+00  0.00000000E+00  0.00000000E+00
  0.00000000E+00  0.00000000E+00  0.00000000E+00
  0.00000000E+00  0.00000000E+00  0.00000000E+00
  0.00000000E+00  0.00000000E+00  0.00000000E+00
  0.00000000E+00  0.00000000E+00  0.00000000E+00
  0.00000000E+00  0.00000000E+00  0.00000000E+00
  0.00000000E+00  0.00000000E+00  0.00000000E+00
  0.00000000E+00  0.00000000E+00  0.00000000E+00
  0.00000000E+00  0.00000000E+00  0.00000000E+00
  0.00000000E+00  0.00000000E+00  0.00000000E+00
  0.00000000E+00  0.00000000E+00  0.00000000E+00
  0.00000000E+00  0.00000000E+00  0.00000000E+00
  0.00000000E+00  0.00000000E+00  0.00000000E+00
  0.00000000E+00  0.00000000E+00  0.00000000E+00
  0.00000000E+00  0.00000000E+00  0.00000000E+00
  0.00000000E+00  0.00000000E+00  0.00000000E+00
  0.00000000E+00  0.00000000E+00  0.00000000E+00
  0.00000000E+00  0.00000000E+00  0.00000000E+00
  0.00000000E+00  0.00000000E+00  0.00000000E+00
  0.00000000E+00  0.00000000E+00  0.00000000E+00
  0.00000000E+00  0.00000000E+00  0.00000000E+00
  0.00000000E+00  0.00000000E+00  0.00000000E+00
  0.00000000E+00  0.00000000E+00  0.00000000E+00
  0.00000000E+00  0.00000000E+00  0.00000000E+00
  0.00000000E+00  0.00000000E+00  0.00000000E+00
  0.00000000E+00  0.00000000E+00  0.00000000E+00
  0.00000000E+00  0.00000000E+00  0.00000000E+00
  0.00000000E+00  0.00000000E+00  0.00000000E+00
  0.00000000E+00  0.00000000E+00  0.00000000E+00
  0.00000000E+00  0.00000000E+00  0.00000000E+00
  0.00000000E+00  0.00000000E+00  0.00000000E+00
  0.00000000E+00  0.00000000E+00  0.00000000E+00
  0.00000000E+00  0.00000000E+00  0.00000000E+00
  0.00000000E+00  0.00000000E+00  0.00000000E+00
  0.00000000E+00  0.00000000E+00  0.00000000E+00
