Bi La Sn O  C  H                        
   1.00000000000000     
    29.0000000000000000    0.0000000000000000    0.0000000000000000
     0.2488180851000000   28.9989325590000000    0.0000000000000000
    -0.0631677343000000   -0.4515975666000000   28.9964147692999994
   Bi   La   Sn   O    C    H 
    22    23    23     2     1     1
Selective dynamics
Direct
  0.7590635321712915  0.4794767059907736  0.3994346705975338   T   T   T
  0.6484221035240623  0.6849979960769550  0.5478596141804721   T   T   T
  0.3607466746615331  0.4585346586713571  0.4277421303002698   T   T   T
  0.5508352109147264  0.7133333449301923  0.5831775858654451   T   T   T
  0.5915029568994470  0.5209714444905416  0.5841479689498996   F   F   F
  0.6386905413146278  0.6785700655289286  0.4422886301423360   T   T   T
  0.6932478566042386  0.5194921266074357  0.6538744358075652   T   T   T
  0.4866729026742445  0.7021349228459881  0.4991341884216590   T   T   T
  0.5004839460855024  0.5502791173970252  0.5477141156400123   F   F   F
  0.3263069581621448  0.4853890709219216  0.5771115608363496   T   T   T
  0.3822128891238919  0.6094597456238385  0.5362116853987833   T   T   T
  0.6667129484492236  0.4827404655721850  0.5105018184570156   F   F   F
  0.5763997220267569  0.4263140504383500  0.5448328182496311   F   F   F
  0.6686576739444092  0.3739462642364024  0.5058004893462906   T   T   T
  0.4616921207732208  0.3383672063586905  0.4973643174806410   T   T   T
  0.6484934028780529  0.5775373212088155  0.4602701624361103   F   F   F
  0.5559840508925586  0.4323254881918434  0.7498289493325320   T   T   T
  0.5959415711747776  0.3484677642195448  0.6679438320824235   T   T   T
  0.4926985283540711  0.2991284212788910  0.4083873940409943   T   T   T
  0.6580746997930886  0.6145887321441384  0.6701831982841133   T   T   T
  0.4914522698228277  0.4110617535861640  0.3052026127984998   T   T   T
  0.6217191716291324  0.3162009763256399  0.5724801508395082   T   T   T
  0.5376400541587206  0.6839203502079848  0.4035726414067650   T   T   T
  0.3895391766109476  0.4152545450217072  0.5263272170127350   T   T   T
  0.6272399761258531  0.5512340690342868  0.2809611836356973   T   T   T
  0.4726371512049822  0.4768413486383671  0.6925604497929231   T   T   T
  0.5683115009887700  0.5094300495444983  0.4784716241115703   F   F   F
  0.4203210565129183  0.5084107200613417  0.5018573595042781   F   F   F
  0.4525929120716509  0.4012554106034770  0.4056405494689137   T   T   T
  0.5625140252091427  0.3496678465311755  0.3524993777768267   T   T   T
  0.4121162019141588  0.5396443439799458  0.6108525989469598   T   T   T
  0.5998373761472969  0.4411436327893650  0.3053203653685710   T   T   T
  0.4543661684961935  0.5997124158953466  0.3629715710392150   T   T   T
  0.4185303945929171  0.4883187472131540  0.3392339697224450   T   T   T
  0.6610355453168656  0.4256006404727111  0.6039457361839894   T   T   T
  0.6763891967352252  0.5805950006274679  0.5649972856025066   T   T   T
  0.5262995689014721  0.5095308245810241  0.3281938659041272   T   T   T
  0.5654118567328572  0.3570363630730368  0.4692400368048578   T   T   T
  0.3158045817458418  0.5401942229817757  0.4927272641679549   T   T   T
  0.6603810353970243  0.4294348965611280  0.4147827869591817   T   T   T
  0.5660841929594156  0.6261437171197244  0.5094829013827464   F   F   F
  0.5937934982460612  0.5264146581657513  0.6913312279204454   T   T   T
  0.4703725878366443  0.6424111408803969  0.5875205493707182   T   T   T
  0.4632872306325522  0.6037761437929779  0.4645527380069490   T   T   T
  0.7165327421559965  0.5746727332212496  0.3834111029753937   T   T   T
  0.5499310510395361  0.5822218838566187  0.4076968008106903   F   F   F
  0.4794126430662260  0.5072205383607624  0.4190535757241776   F   F   F
  0.6951783722677845  0.4822900146157720  0.3235860693616666   T   T   T
  0.7515096745466164  0.4293608352615634  0.4873161712962294   T   T   T
  0.7474246507867056  0.5394448005186356  0.4853063406514225   T   T   T
  0.7485002932872532  0.4896884923755190  0.5717810884336557   T   T   T
  0.6455006187830651  0.4324245007989151  0.7077461668820585   T   T   T
  0.5779067352214534  0.7427130404834817  0.4919278993730036   T   T   T
  0.6192554540844384  0.5183157687966542  0.3801816896793397   F   F   F
  0.5061272742789947  0.5633455713070336  0.6499224704850738   T   T   T
  0.4922009500451665  0.4366758245867572  0.4933013002826740   F   F   F
  0.5608844484509063  0.4404139570509003  0.6454865549417619   F   F   F
  0.5788375414327963  0.6169289286919329  0.6134189537088135   T   T   T
  0.5437605998400762  0.6174333353070995  0.3123587091556275   T   T   T
  0.6278096501190070  0.6244484792223620  0.3577217580145079   T   T   T
  0.3762992215995341  0.5572657033564234  0.4134491024341373   T   T   T
  0.4723078164089713  0.4557257050327763  0.5877273803360978   F   F   F
  0.7280696958720067  0.6378982597292563  0.4856571400423381   T   T   T
  0.4971080587989393  0.3735295692273949  0.6807984839812952   T   T   T
  0.3846669468796525  0.4387374430572250  0.6404487986492583   T   T   T
  0.5544592502646992  0.4379899399457940  0.4037542370104745   F   F   F
  0.4330244354045074  0.3596503066379880  0.6050147326584059   T   T   T
  0.5273403588204729  0.3486691759995711  0.5768421481564296   T   T   T
  0.7467413024872656  0.6189334242380993  0.5904022388633510   T   T   T
  0.7888233461729325  0.6581080708836925  0.5378388291683479   T   T   T
  0.7801049903437585  0.6441812960011996  0.5782588156658297   T   T   T
  0.8041301248698536  0.6555437060809463  0.6060671171664977   T   T   T
 
  0.00000000E+00  0.00000000E+00  0.00000000E+00
  0.00000000E+00  0.00000000E+00  0.00000000E+00
  0.00000000E+00  0.00000000E+00  0.00000000E+00
  0.00000000E+00  0.00000000E+00  0.00000000E+00
  0.00000000E+00  0.00000000E+00  0.00000000E+00
  0.00000000E+00  0.00000000E+00  0.00000000E+00
  0.00000000E+00  0.00000000E+00  0.00000000E+00
  0.00000000E+00  0.00000000E+00  0.00000000E+00
  0.00000000E+00  0.00000000E+00  0.00000000E+00
  0.00000000E+00  0.00000000E+00  0.00000000E+00
  0.00000000E+00  0.00000000E+00  0.00000000E+00
  0.00000000E+00  0.00000000E+00  0.00000000E+00
  0.00000000E+00  0.00000000E+00  0.00000000E+00
  0.00000000E+00  0.00000000E+00  0.00000000E+00
  0.00000000E+00  0.00000000E+00  0.00000000E+00
  0.00000000E+00  0.00000000E+00  0.00000000E+00
  0.00000000E+00  0.00000000E+00  0.00000000E+00
  0.00000000E+00  0.00000000E+00  0.00000000E+00
  0.00000000E+00  0.00000000E+00  0.00000000E+00
  0.00000000E+00  0.00000000E+00  0.00000000E+00
  0.00000000E+00  0.00000000E+00  0.00000000E+00
  0.00000000E+00  0.00000000E+00  0.00000000E+00
  0.00000000E+00  0.00000000E+00  0.00000000E+00
  0.00000000E+00  0.00000000E+00  0.00000000E+00
  0.00000000E+00  0.00000000E+00  0.00000000E+00
  0.00000000E+00  0.00000000E+00  0.00000000E+00
  0.00000000E+00  0.00000000E+00  0.00000000E+00
  0.00000000E+00  0.00000000E+00  0.00000000E+00
  0.00000000E+00  0.00000000E+00  0.00000000E+00
  0.00000000E+00  0.00000000E+00  0.00000000E+00
  0.00000000E+00  0.00000000E+00  0.00000000E+00
  0.00000000E+00  0.00000000E+00  0.00000000E+00
  0.00000000E+00  0.00000000E+00  0.00000000E+00
  0.00000000E+00  0.00000000E+00  0.00000000E+00
  0.00000000E+00  0.00000000E+00  0.00000000E+00
  0.00000000E+00  0.00000000E+00  0.00000000E+00
  0.00000000E+00  0.00000000E+00  0.00000000E+00
  0.00000000E+00  0.00000000E+00  0.00000000E+00
  0.00000000E+00  0.00000000E+00  0.00000000E+00
  0.00000000E+00  0.00000000E+00  0.00000000E+00
  0.00000000E+00  0.00000000E+00  0.00000000E+00
  0.00000000E+00  0.00000000E+00  0.00000000E+00
  0.00000000E+00  0.00000000E+00  0.00000000E+00
  0.00000000E+00  0.00000000E+00  0.00000000E+00
  0.00000000E+00  0.00000000E+00  0.00000000E+00
  0.00000000E+00  0.00000000E+00  0.00000000E+00
  0.00000000E+00  0.00000000E+00  0.00000000E+00
  0.00000000E+00  0.00000000E+00  0.00000000E+00
  0.00000000E+00  0.00000000E+00  0.00000000E+00
  0.00000000E+00  0.00000000E+00  0.00000000E+00
  0.00000000E+00  0.00000000E+00  0.00000000E+00
  0.00000000E+00  0.00000000E+00  0.00000000E+00
  0.00000000E+00  0.00000000E+00  0.00000000E+00
  0.00000000E+00  0.00000000E+00  0.00000000E+00
  0.00000000E+00  0.00000000E+00  0.00000000E+00
  0.00000000E+00  0.00000000E+00  0.00000000E+00
  0.00000000E+00  0.00000000E+00  0.00000000E+00
  0.00000000E+00  0.00000000E+00  0.00000000E+00
  0.00000000E+00  0.00000000E+00  0.00000000E+00
  0.00000000E+00  0.00000000E+00  0.00000000E+00
  0.00000000E+00  0.00000000E+00  0.00000000E+00
  0.00000000E+00  0.00000000E+00  0.00000000E+00
  0.00000000E+00  0.00000000E+00  0.00000000E+00
  0.00000000E+00  0.00000000E+00  0.00000000E+00
  0.00000000E+00  0.00000000E+00  0.00000000E+00
  0.00000000E+00  0.00000000E+00  0.00000000E+00
  0.00000000E+00  0.00000000E+00  0.00000000E+00
  0.00000000E+00  0.00000000E+00  0.00000000E+00
  0.00000000E+00  0.00000000E+00  0.00000000E+00
  0.00000000E+00  0.00000000E+00  0.00000000E+00
  0.00000000E+00  0.00000000E+00  0.00000000E+00
  0.00000000E+00  0.00000000E+00  0.00000000E+00
