Bi La Sn O  C  H                        
   1.00000000000000     
    29.0000000000000000    0.0000000000000000    0.0000000000000000
     0.2488180851000000   28.9989325590000000    0.0000000000000000
    -0.0631677343000000   -0.4515975666000000   28.9964147692999994
   Bi   La   Sn   O    C    H 
    22    23    23     2     1     1
Selective dynamics
Direct
  0.7595971936744740  0.4768418843842075  0.4005610135480970   T   T   T
  0.6476009014578678  0.6838954528652295  0.5536385021817283   T   T   T
  0.3593779978887202  0.4592014244865680  0.4274724972855248   T   T   T
  0.5525171473349439  0.7138512512808273  0.5840650984831416   T   T   T
  0.5915029568994470  0.5209714444905416  0.5841479689498996   F   F   F
  0.6408989353153302  0.6814326593558719  0.4485255697297763   T   T   T
  0.6956934644535417  0.5204521061815293  0.6542022922981588   T   T   T
  0.4867115037164594  0.7015307053882658  0.4981737942127405   T   T   T
  0.5004839460855024  0.5502791173970252  0.5477141156400123   F   F   F
  0.3274641602496248  0.4850223874870947  0.5773057317029333   T   T   T
  0.3832744014414280  0.6093701274778651  0.5371940537337576   T   T   T
  0.6667129484492236  0.4827404655721850  0.5105018184570156   F   F   F
  0.5763997220267569  0.4263140504383500  0.5448328182496311   F   F   F
  0.6675694299361788  0.3726892372822779  0.5085796432989832   T   T   T
  0.4609190480014030  0.3372800467111703  0.4947736987124084   T   T   T
  0.6484934028780529  0.5775373212088155  0.4602701624361103   F   F   F
  0.5548755200858355  0.4361012351072476  0.7494773349134189   T   T   T
  0.5933457984617408  0.3498180986136515  0.6686825204482759   T   T   T
  0.4930963015415445  0.3008667337108782  0.4045513705044336   T   T   T
  0.6611018775631298  0.6166666097888549  0.6668690631672879   T   T   T
  0.4926858175534884  0.4111580822226771  0.3066998035651731   T   T   T
  0.6182581433207456  0.3156313940915486  0.5739757109474266   T   T   T
  0.5398400801516663  0.6841249328250779  0.4041621705759225   T   T   T
  0.3896879850567451  0.4155332770812638  0.5247255994548683   T   T   T
  0.6364892688347916  0.5562852152973240  0.2848760614713109   T   T   T
  0.4727231869177164  0.4792637545284932  0.6930112934407094   T   T   T
  0.5683115009887700  0.5094300495444983  0.4784716241115703   F   F   F
  0.4203210565129183  0.5084107200613417  0.5018573595042781   F   F   F
  0.4516557116361901  0.4019187106601074  0.4055086453963783   T   T   T
  0.5663227988939005  0.3499327255890992  0.3526676549260273   T   T   T
  0.4127615246543054  0.5391112184051583  0.6117477462160475   T   T   T
  0.5987703302212639  0.4413899665541546  0.3036234217821625   T   T   T
  0.4552970124704371  0.6004118273463044  0.3635368403041797   T   T   T
  0.4181999438271357  0.4881168748088426  0.3395896308321503   T   T   T
  0.6605416564009481  0.4265515222541852  0.6051773406392136   T   T   T
  0.6740633046874308  0.5778152732747922  0.5639920484881811   T   T   T
  0.5268695578971783  0.5103571972478805  0.3279576372439677   T   T   T
  0.5647757582446712  0.3567970473554091  0.4690979033296855   T   T   T
  0.3163801075332080  0.5408251228198853  0.4934318888837461   T   T   T
  0.6584417720620303  0.4283556279295333  0.4173999192395477   T   T   T
  0.5660841929594156  0.6261437171197244  0.5094829013827464   F   F   F
  0.5959593999670945  0.5273051062717374  0.6898084560508918   T   T   T
  0.4715022434148748  0.6430110768280625  0.5874102950906290   T   T   T
  0.4628383811569963  0.6033357790428904  0.4637585849982339   T   T   T
  0.7173698693712176  0.5736968661720069  0.3803114853172823   T   T   T
  0.5499310510395361  0.5822218838566187  0.4076968008106903   F   F   F
  0.4794126430662260  0.5072205383607624  0.4190535757241776   F   F   F
  0.6942820089459304  0.4751878854108882  0.3275384317679516   T   T   T
  0.7503752784650460  0.4270403120843395  0.4887816483629452   T   T   T
  0.7485965530435973  0.5366638583849545  0.4857493601828304   T   T   T
  0.7488600484221436  0.4882869007803411  0.5728812572351375   T   T   T
  0.6447095997038231  0.4319303199405906  0.7093382769576251   T   T   T
  0.5763321472161813  0.7442956793142789  0.4926296722663155   T   T   T
  0.6192554540844384  0.5183157687966542  0.3801816896793397   F   F   F
  0.5068296785600195  0.5643039673269724  0.6500878739455186   T   T   T
  0.4922009500451665  0.4366758245867572  0.4933013002826740   F   F   F
  0.5608844484509063  0.4404139570509003  0.6454865549417619   F   F   F
  0.5790907049834293  0.6171049637520536  0.6130770718689545   T   T   T
  0.5453857506927070  0.6164318670526994  0.3121327778437002   T   T   T
  0.6261075515336829  0.6265286214154531  0.3643530370745419   T   T   T
  0.3763264825265717  0.5576435817616598  0.4131874081585341   T   T   T
  0.4723078164089713  0.4557257050327763  0.5877273803360978   F   F   F
  0.7282501041537609  0.6329196117666669  0.4840460953683440   T   T   T
  0.4923520717341047  0.3765093951414680  0.6758919598495539   T   T   T
  0.3870432918246621  0.4364259209844003  0.6394285707838847   T   T   T
  0.5544592502646992  0.4379899399457940  0.4037542370104745   F   F   F
  0.4282687146197289  0.3547106067475403  0.6011134384570627   T   T   T
  0.5240732993957653  0.3504133716907186  0.5756322000777272   T   T   T
  0.7126521955397692  0.5906887414431616  0.2862408288189112   T   T   T
  0.7678229873143632  0.6227875266317729  0.3306704689552038   T   T   T
  0.7503604889592882  0.6135498966533568  0.2917119234572090   T   T   T
  0.7679826856087878  0.6251299717686246  0.2600752435041105   T   T   T
 
  0.00000000E+00  0.00000000E+00  0.00000000E+00
  0.00000000E+00  0.00000000E+00  0.00000000E+00
  0.00000000E+00  0.00000000E+00  0.00000000E+00
  0.00000000E+00  0.00000000E+00  0.00000000E+00
  0.00000000E+00  0.00000000E+00  0.00000000E+00
  0.00000000E+00  0.00000000E+00  0.00000000E+00
  0.00000000E+00  0.00000000E+00  0.00000000E+00
  0.00000000E+00  0.00000000E+00  0.00000000E+00
  0.00000000E+00  0.00000000E+00  0.00000000E+00
  0.00000000E+00  0.00000000E+00  0.00000000E+00
  0.00000000E+00  0.00000000E+00  0.00000000E+00
  0.00000000E+00  0.00000000E+00  0.00000000E+00
  0.00000000E+00  0.00000000E+00  0.00000000E+00
  0.00000000E+00  0.00000000E+00  0.00000000E+00
  0.00000000E+00  0.00000000E+00  0.00000000E+00
  0.00000000E+00  0.00000000E+00  0.00000000E+00
  0.00000000E+00  0.00000000E+00  0.00000000E+00
  0.00000000E+00  0.00000000E+00  0.00000000E+00
  0.00000000E+00  0.00000000E+00  0.00000000E+00
  0.00000000E+00  0.00000000E+00  0.00000000E+00
  0.00000000E+00  0.00000000E+00  0.00000000E+00
  0.00000000E+00  0.00000000E+00  0.00000000E+00
  0.00000000E+00  0.00000000E+00  0.00000000E+00
  0.00000000E+00  0.00000000E+00  0.00000000E+00
  0.00000000E+00  0.00000000E+00  0.00000000E+00
  0.00000000E+00  0.00000000E+00  0.00000000E+00
  0.00000000E+00  0.00000000E+00  0.00000000E+00
  0.00000000E+00  0.00000000E+00  0.00000000E+00
  0.00000000E+00  0.00000000E+00  0.00000000E+00
  0.00000000E+00  0.00000000E+00  0.00000000E+00
  0.00000000E+00  0.00000000E+00  0.00000000E+00
  0.00000000E+00  0.00000000E+00  0.00000000E+00
  0.00000000E+00  0.00000000E+00  0.00000000E+00
  0.00000000E+00  0.00000000E+00  0.00000000E+00
  0.00000000E+00  0.00000000E+00  0.00000000E+00
  0.00000000E+00  0.00000000E+00  0.00000000E+00
  0.00000000E+00  0.00000000E+00  0.00000000E+00
  0.00000000E+00  0.00000000E+00  0.00000000E+00
  0.00000000E+00  0.00000000E+00  0.00000000E+00
  0.00000000E+00  0.00000000E+00  0.00000000E+00
  0.00000000E+00  0.00000000E+00  0.00000000E+00
  0.00000000E+00  0.00000000E+00  0.00000000E+00
  0.00000000E+00  0.00000000E+00  0.00000000E+00
  0.00000000E+00  0.00000000E+00  0.00000000E+00
  0.00000000E+00  0.00000000E+00  0.00000000E+00
  0.00000000E+00  0.00000000E+00  0.00000000E+00
  0.00000000E+00  0.00000000E+00  0.00000000E+00
  0.00000000E+00  0.00000000E+00  0.00000000E+00
  0.00000000E+00  0.00000000E+00  0.00000000E+00
  0.00000000E+00  0.00000000E+00  0.00000000E+00
  0.00000000E+00  0.00000000E+00  0.00000000E+00
  0.00000000E+00  0.00000000E+00  0.00000000E+00
  0.00000000E+00  0.00000000E+00  0.00000000E+00
  0.00000000E+00  0.00000000E+00  0.00000000E+00
  0.00000000E+00  0.00000000E+00  0.00000000E+00
  0.00000000E+00  0.00000000E+00  0.00000000E+00
  0.00000000E+00  0.00000000E+00  0.00000000E+00
  0.00000000E+00  0.00000000E+00  0.00000000E+00
  0.00000000E+00  0.00000000E+00  0.00000000E+00
  0.00000000E+00  0.00000000E+00  0.00000000E+00
  0.00000000E+00  0.00000000E+00  0.00000000E+00
  0.00000000E+00  0.00000000E+00  0.00000000E+00
  0.00000000E+00  0.00000000E+00  0.00000000E+00
  0.00000000E+00  0.00000000E+00  0.00000000E+00
  0.00000000E+00  0.00000000E+00  0.00000000E+00
  0.00000000E+00  0.00000000E+00  0.00000000E+00
  0.00000000E+00  0.00000000E+00  0.00000000E+00
  0.00000000E+00  0.00000000E+00  0.00000000E+00
  0.00000000E+00  0.00000000E+00  0.00000000E+00
  0.00000000E+00  0.00000000E+00  0.00000000E+00
  0.00000000E+00  0.00000000E+00  0.00000000E+00
  0.00000000E+00  0.00000000E+00  0.00000000E+00
