Bi La Sn O  C  H                        
   1.00000000000000     
    29.0000000000000000    0.0000000000000000    0.0000000000000000
     0.2488180851000000   28.9989325590000000    0.0000000000000000
    -0.0631677343000000   -0.4515975666000000   28.9964147692999994
   Bi   La   Sn   O    C    H 
    22    23    23     2     1     1
Selective dynamics
Direct
  0.7594592653066773  0.4791451847071521  0.3986599492749430   T   T   T
  0.6484252592072230  0.6845114254831778  0.5494229682570455   T   T   T
  0.3601011541738190  0.4581342327780572  0.4280801424895260   T   T   T
  0.5519234267085438  0.7138016039510705  0.5830601233958052   T   T   T
  0.5915029568994470  0.5209714444905416  0.5841479689498996   F   F   F
  0.6404708788981321  0.6794241021644870  0.4444094525454447   T   T   T
  0.6933954891695238  0.5174998053572180  0.6542178008305360   T   T   T
  0.4873154964295556  0.7018879046940139  0.4982248182119011   T   T   T
  0.5004839460855024  0.5502791173970252  0.5477141156400123   F   F   F
  0.3277976299644653  0.4842704585820746  0.5790916152817331   T   T   T
  0.3823376907020842  0.6088679335968655  0.5374133551920276   T   T   T
  0.6667129484492236  0.4827404655721850  0.5105018184570156   F   F   F
  0.5763997220267569  0.4263140504383500  0.5448328182496311   F   F   F
  0.6687090141877060  0.3734376074228838  0.5051816078935775   T   T   T
  0.4610321410328562  0.3379953414348641  0.4946053330154559   T   T   T
  0.6484934028780529  0.5775373212088155  0.4602701624361103   F   F   F
  0.5559221698627085  0.4265393442081350  0.7487745234957125   T   T   T
  0.5913758749594865  0.3481163800595110  0.6660034928075762   T   T   T
  0.4925362465857939  0.2998835726600882  0.4053955129444473   T   T   T
  0.6609759744929132  0.6135794882920165  0.6686656454973303   T   T   T
  0.4901844283480848  0.4114282358009640  0.3031244687169121   T   T   T
  0.6199366756315553  0.3157101287994579  0.5701143318120749   T   T   T
  0.5393783756181307  0.6834845763827406  0.4037463819046277   T   T   T
  0.3898430705390855  0.4152667289763026  0.5260009648813720   T   T   T
  0.6262987041579847  0.5515846416102619  0.2815175798818943   T   T   T
  0.4744938053263200  0.4812478433884303  0.6959240842935036   T   T   T
  0.5683115009887700  0.5094300495444983  0.4784716241115703   F   F   F
  0.4203210565129183  0.5084107200613417  0.5018573595042781   F   F   F
  0.4526305988461722  0.4019133227709096  0.4043290401931717   T   T   T
  0.5619353654407059  0.3509823428814355  0.3505093780832921   T   T   T
  0.4129434945608040  0.5393294564295193  0.6119496758728882   T   T   T
  0.5995078906006738  0.4416056325669751  0.3048080640436499   T   T   T
  0.4541780916546608  0.5998572398957867  0.3641229999253051   T   T   T
  0.4178380009626565  0.4883459756020225  0.3399348755922206   T   T   T
  0.6610644647182304  0.4237992276002112  0.6032243263967071   T   T   T
  0.6743136082770277  0.5784191227242815  0.5644224222069256   T   T   T
  0.5253333204463007  0.5093089963104683  0.3281465749318568   T   T   T
  0.5652065500272395  0.3567277136730399  0.4684704426392217   T   T   T
  0.3158408490432247  0.5393350792330257  0.4946479931938548   T   T   T
  0.6605473313068209  0.4298313790475732  0.4149404735477832   T   T   T
  0.5660841929594156  0.6261437171197244  0.5094829013827464   F   F   F
  0.5934775862573078  0.5269663220938624  0.6935332156097488   T   T   T
  0.4707556275257484  0.6431670333385883  0.5871613594807048   T   T   T
  0.4625733759005962  0.6034815368908691  0.4643901220873594   T   T   T
  0.7162307408862192  0.5746135040905112  0.3832874620856220   T   T   T
  0.5499310510395361  0.5822218838566187  0.4076968008106903   F   F   F
  0.4794126430662260  0.5072205383607624  0.4190535757241776   F   F   F
  0.6949083359277628  0.4824479734186571  0.3237069122224875   T   T   T
  0.7519268884637552  0.4290997058500295  0.4869664508022312   T   T   T
  0.7485390820403127  0.5375190561949728  0.4851646402261038   T   T   T
  0.7480141488125336  0.4892568068099702  0.5723432654799313   T   T   T
  0.6448076788744040  0.4306845018408852  0.7069485271739440   T   T   T
  0.5779255666385730  0.7435928673445699  0.4918362315880631   T   T   T
  0.6192554540844384  0.5183157687966542  0.3801816896793397   F   F   F
  0.5080988670894886  0.5641881796827112  0.6477781634698138   T   T   T
  0.4922009500451665  0.4366758245867572  0.4933013002826740   F   F   F
  0.5608844484509063  0.4404139570509003  0.6454865549417619   F   F   F
  0.5803157128368617  0.6178987102811163  0.6130673143927479   T   T   T
  0.5429145672010290  0.6168138544428854  0.3119165114973702   T   T   T
  0.6264838612802072  0.6244756567138052  0.3594364954714195   T   T   T
  0.3755672557571479  0.5573009898054756  0.4143908813009715   T   T   T
  0.4723078164089713  0.4557257050327763  0.5877273803360978   F   F   F
  0.7278741329058295  0.6346828748819620  0.4840964753189039   T   T   T
  0.4927044526400060  0.3774727388574061  0.6773484872308794   T   T   T
  0.3886860617112688  0.4369602959833311  0.6411262328893498   T   T   T
  0.5544592502646992  0.4379899399457940  0.4037542370104745   F   F   F
  0.4316843936689344  0.3557789379072709  0.6020309891460218   T   T   T
  0.5257660026342966  0.3485682078558851  0.5743570440191023   T   T   T
  0.5573374039394604  0.5557147082563947  0.7643188011243376   T   T   T
  0.4838885632363590  0.5296636703519705  0.7647803657404738   T   T   T
  0.5178862604492432  0.5510924173260251  0.7825685709463036   T   T   T
  0.5125873643452374  0.5670932705100269  0.8171845569002897   T   T   T
 
  0.00000000E+00  0.00000000E+00  0.00000000E+00
  0.00000000E+00  0.00000000E+00  0.00000000E+00
  0.00000000E+00  0.00000000E+00  0.00000000E+00
  0.00000000E+00  0.00000000E+00  0.00000000E+00
  0.00000000E+00  0.00000000E+00  0.00000000E+00
  0.00000000E+00  0.00000000E+00  0.00000000E+00
  0.00000000E+00  0.00000000E+00  0.00000000E+00
  0.00000000E+00  0.00000000E+00  0.00000000E+00
  0.00000000E+00  0.00000000E+00  0.00000000E+00
  0.00000000E+00  0.00000000E+00  0.00000000E+00
  0.00000000E+00  0.00000000E+00  0.00000000E+00
  0.00000000E+00  0.00000000E+00  0.00000000E+00
  0.00000000E+00  0.00000000E+00  0.00000000E+00
  0.00000000E+00  0.00000000E+00  0.00000000E+00
  0.00000000E+00  0.00000000E+00  0.00000000E+00
  0.00000000E+00  0.00000000E+00  0.00000000E+00
  0.00000000E+00  0.00000000E+00  0.00000000E+00
  0.00000000E+00  0.00000000E+00  0.00000000E+00
  0.00000000E+00  0.00000000E+00  0.00000000E+00
  0.00000000E+00  0.00000000E+00  0.00000000E+00
  0.00000000E+00  0.00000000E+00  0.00000000E+00
  0.00000000E+00  0.00000000E+00  0.00000000E+00
  0.00000000E+00  0.00000000E+00  0.00000000E+00
  0.00000000E+00  0.00000000E+00  0.00000000E+00
  0.00000000E+00  0.00000000E+00  0.00000000E+00
  0.00000000E+00  0.00000000E+00  0.00000000E+00
  0.00000000E+00  0.00000000E+00  0.00000000E+00
  0.00000000E+00  0.00000000E+00  0.00000000E+00
  0.00000000E+00  0.00000000E+00  0.00000000E+00
  0.00000000E+00  0.00000000E+00  0.00000000E+00
  0.00000000E+00  0.00000000E+00  0.00000000E+00
  0.00000000E+00  0.00000000E+00  0.00000000E+00
  0.00000000E+00  0.00000000E+00  0.00000000E+00
  0.00000000E+00  0.00000000E+00  0.00000000E+00
  0.00000000E+00  0.00000000E+00  0.00000000E+00
  0.00000000E+00  0.00000000E+00  0.00000000E+00
  0.00000000E+00  0.00000000E+00  0.00000000E+00
  0.00000000E+00  0.00000000E+00  0.00000000E+00
  0.00000000E+00  0.00000000E+00  0.00000000E+00
  0.00000000E+00  0.00000000E+00  0.00000000E+00
  0.00000000E+00  0.00000000E+00  0.00000000E+00
  0.00000000E+00  0.00000000E+00  0.00000000E+00
  0.00000000E+00  0.00000000E+00  0.00000000E+00
  0.00000000E+00  0.00000000E+00  0.00000000E+00
  0.00000000E+00  0.00000000E+00  0.00000000E+00
  0.00000000E+00  0.00000000E+00  0.00000000E+00
  0.00000000E+00  0.00000000E+00  0.00000000E+00
  0.00000000E+00  0.00000000E+00  0.00000000E+00
  0.00000000E+00  0.00000000E+00  0.00000000E+00
  0.00000000E+00  0.00000000E+00  0.00000000E+00
  0.00000000E+00  0.00000000E+00  0.00000000E+00
  0.00000000E+00  0.00000000E+00  0.00000000E+00
  0.00000000E+00  0.00000000E+00  0.00000000E+00
  0.00000000E+00  0.00000000E+00  0.00000000E+00
  0.00000000E+00  0.00000000E+00  0.00000000E+00
  0.00000000E+00  0.00000000E+00  0.00000000E+00
  0.00000000E+00  0.00000000E+00  0.00000000E+00
  0.00000000E+00  0.00000000E+00  0.00000000E+00
  0.00000000E+00  0.00000000E+00  0.00000000E+00
  0.00000000E+00  0.00000000E+00  0.00000000E+00
  0.00000000E+00  0.00000000E+00  0.00000000E+00
  0.00000000E+00  0.00000000E+00  0.00000000E+00
  0.00000000E+00  0.00000000E+00  0.00000000E+00
  0.00000000E+00  0.00000000E+00  0.00000000E+00
  0.00000000E+00  0.00000000E+00  0.00000000E+00
  0.00000000E+00  0.00000000E+00  0.00000000E+00
  0.00000000E+00  0.00000000E+00  0.00000000E+00
  0.00000000E+00  0.00000000E+00  0.00000000E+00
  0.00000000E+00  0.00000000E+00  0.00000000E+00
  0.00000000E+00  0.00000000E+00  0.00000000E+00
  0.00000000E+00  0.00000000E+00  0.00000000E+00
  0.00000000E+00  0.00000000E+00  0.00000000E+00
