Bi La Sn O  C  H                        
   1.00000000000000     
    29.0000000000000000    0.0000000000000000    0.0000000000000000
     0.2488180851000000   28.9989325590000000    0.0000000000000000
    -0.0631677343000000   -0.4515975666000000   28.9964147692999994
   Bi   La   Sn   O    C    H 
    22    23    23     2     1     1
Selective dynamics
Direct
  0.7596334393614063  0.4783395088816537  0.3982024805421432   T   T   T
  0.6480469217744228  0.6848812294345753  0.5498407515967609   T   T   T
  0.3610813563631582  0.4598273327995739  0.4255368378810441   T   T   T
  0.5515487500067298  0.7135773943336443  0.5837222944955177   T   T   T
  0.5915029568994470  0.5209714444905416  0.5841479689498996   F   F   F
  0.6400581301837879  0.6794626381720551  0.4444126223158872   T   T   T
  0.6951620565411880  0.5201432466259326  0.6540257421939181   T   T   T
  0.4871920674330266  0.7017240534221779  0.4985488327001434   T   T   T
  0.5004839460855024  0.5502791173970252  0.5477141156400123   F   F   F
  0.3267919101378127  0.4862101543757151  0.5784448014194729   T   T   T
  0.3823724372852083  0.6091589158886025  0.5366083512798845   T   T   T
  0.6667129484492236  0.4827404655721850  0.5105018184570156   F   F   F
  0.5763997220267569  0.4263140504383500  0.5448328182496311   F   F   F
  0.6682022563611520  0.3740661440933435  0.5073111854537582   T   T   T
  0.4609410183171105  0.3390119915087529  0.4963027081204275   T   T   T
  0.6484934028780529  0.5775373212088155  0.4602701624361103   F   F   F
  0.5539665038906447  0.4324054941199364  0.7491118682759267   T   T   T
  0.5930197394668449  0.3491410002035694  0.6675439681346688   T   T   T
  0.4926579083884831  0.2994802931113038  0.4073365127992595   T   T   T
  0.6603148495756554  0.6158787899050835  0.6681096664858421   T   T   T
  0.4904771504097057  0.4118548228347443  0.3041513275179656   T   T   T
  0.6178944063911868  0.3167550364571697  0.5719035835115831   T   T   T
  0.5391710984184762  0.6836807849260214  0.4037853164520588   T   T   T
  0.3873577788123159  0.4165535742357849  0.5236723559509224   T   T   T
  0.6274243893636963  0.5514537683933535  0.2820643652931079   T   T   T
  0.4727992698036940  0.4794412365046357  0.6924083645455982   T   T   T
  0.5683115009887700  0.5094300495444983  0.4784716241115703   F   F   F
  0.4203210565129183  0.5084107200613417  0.5018573595042781   F   F   F
  0.4529546790234802  0.4016518821679079  0.4048027451869203   T   T   T
  0.5618164518848755  0.3501098167056345  0.3516730091686278   T   T   T
  0.4127625388388681  0.5394894875140449  0.6114512823325085   T   T   T
  0.5987740914198252  0.4415474955034671  0.3046890673113147   T   T   T
  0.4547006009195005  0.6009554950248470  0.3640467592059118   T   T   T
  0.4187263830486307  0.4904140871958246  0.3380890369133520   T   T   T
  0.6605950180951440  0.4266008236148068  0.6046567403481944   T   T   T
  0.6738728350520534  0.5787821535990794  0.5642410369240454   T   T   T
  0.5258251685662836  0.5097902499193362  0.3283851565975685   T   T   T
  0.5651177637036706  0.3569621966537282  0.4690526630593688   T   T   T
  0.3158600136939988  0.5398714523286656  0.4931346666407919   T   T   T
  0.6604136586758693  0.4295781047777040  0.4155155756528101   T   T   T
  0.5660841929594156  0.6261437171197244  0.5094829013827464   F   F   F
  0.5954654551999796  0.5268768122567525  0.6901493190451478   T   T   T
  0.4704839942639745  0.6428584495283646  0.5871799414631513   T   T   T
  0.4633429541056853  0.6035152287263746  0.4642016004086106   T   T   T
  0.7161022196488002  0.5736565438681978  0.3829679340119329   T   T   T
  0.5499310510395361  0.5822218838566187  0.4076968008106903   F   F   F
  0.4794126430662260  0.5072205383607624  0.4190535757241776   F   F   F
  0.6947743305912475  0.4806525681829723  0.3237839611461799   T   T   T
  0.7512775478356083  0.4293410871255308  0.4867925837179856   T   T   T
  0.7481268334149012  0.5375686007143382  0.4849500045619368   T   T   T
  0.7485586084702663  0.4893704297528933  0.5723177622668303   T   T   T
  0.6442653087132558  0.4316623804536772  0.7089847307909390   T   T   T
  0.5779323121370801  0.7434957880908065  0.4923864687703633   T   T   T
  0.6192554540844384  0.5183157687966542  0.3801816896793397   F   F   F
  0.5070324487524750  0.5647365643917618  0.6498610725278385   T   T   T
  0.4922009500451665  0.4366758245867572  0.4933013002826740   F   F   F
  0.5608844484509063  0.4404139570509003  0.6454865549417619   F   F   F
  0.5792129100822071  0.6173685916624095  0.6130335385217436   T   T   T
  0.5434421859050995  0.6170769351516342  0.3116938692015132   T   T   T
  0.6269022107974209  0.6246090018771824  0.3594376108945387   T   T   T
  0.3763383449757816  0.5581026566099161  0.4137336421076317   T   T   T
  0.4723078164089713  0.4557257050327763  0.5877273803360978   F   F   F
  0.7274368356835839  0.6349895270995453  0.4838345729988501   T   T   T
  0.4928509077329511  0.3769302704099579  0.6755983963975154   T   T   T
  0.3870997727699798  0.4367022690147228  0.6391992437086692   T   T   T
  0.5544592502646992  0.4379899399457940  0.4037542370104745   F   F   F
  0.4263480348473075  0.3529486746426560  0.6026197584540116   T   T   T
  0.5235468775782446  0.3514134174309567  0.5765580925806484   T   T   T
  0.3503550852935065  0.3093150000221802  0.5990472732205583   T   T   T
  0.3424832983879824  0.3516102454632113  0.5341277938152734   T   T   T
  0.3286343322380322  0.3223151278504244  0.5641658165983895   T   T   T
  0.2939553144620126  0.3075913414092291  0.5574339900702524   T   T   T
 
  0.00000000E+00  0.00000000E+00  0.00000000E+00
  0.00000000E+00  0.00000000E+00  0.00000000E+00
  0.00000000E+00  0.00000000E+00  0.00000000E+00
  0.00000000E+00  0.00000000E+00  0.00000000E+00
  0.00000000E+00  0.00000000E+00  0.00000000E+00
  0.00000000E+00  0.00000000E+00  0.00000000E+00
  0.00000000E+00  0.00000000E+00  0.00000000E+00
  0.00000000E+00  0.00000000E+00  0.00000000E+00
  0.00000000E+00  0.00000000E+00  0.00000000E+00
  0.00000000E+00  0.00000000E+00  0.00000000E+00
  0.00000000E+00  0.00000000E+00  0.00000000E+00
  0.00000000E+00  0.00000000E+00  0.00000000E+00
  0.00000000E+00  0.00000000E+00  0.00000000E+00
  0.00000000E+00  0.00000000E+00  0.00000000E+00
  0.00000000E+00  0.00000000E+00  0.00000000E+00
  0.00000000E+00  0.00000000E+00  0.00000000E+00
  0.00000000E+00  0.00000000E+00  0.00000000E+00
  0.00000000E+00  0.00000000E+00  0.00000000E+00
  0.00000000E+00  0.00000000E+00  0.00000000E+00
  0.00000000E+00  0.00000000E+00  0.00000000E+00
  0.00000000E+00  0.00000000E+00  0.00000000E+00
  0.00000000E+00  0.00000000E+00  0.00000000E+00
  0.00000000E+00  0.00000000E+00  0.00000000E+00
  0.00000000E+00  0.00000000E+00  0.00000000E+00
  0.00000000E+00  0.00000000E+00  0.00000000E+00
  0.00000000E+00  0.00000000E+00  0.00000000E+00
  0.00000000E+00  0.00000000E+00  0.00000000E+00
  0.00000000E+00  0.00000000E+00  0.00000000E+00
  0.00000000E+00  0.00000000E+00  0.00000000E+00
  0.00000000E+00  0.00000000E+00  0.00000000E+00
  0.00000000E+00  0.00000000E+00  0.00000000E+00
  0.00000000E+00  0.00000000E+00  0.00000000E+00
  0.00000000E+00  0.00000000E+00  0.00000000E+00
  0.00000000E+00  0.00000000E+00  0.00000000E+00
  0.00000000E+00  0.00000000E+00  0.00000000E+00
  0.00000000E+00  0.00000000E+00  0.00000000E+00
  0.00000000E+00  0.00000000E+00  0.00000000E+00
  0.00000000E+00  0.00000000E+00  0.00000000E+00
  0.00000000E+00  0.00000000E+00  0.00000000E+00
  0.00000000E+00  0.00000000E+00  0.00000000E+00
  0.00000000E+00  0.00000000E+00  0.00000000E+00
  0.00000000E+00  0.00000000E+00  0.00000000E+00
  0.00000000E+00  0.00000000E+00  0.00000000E+00
  0.00000000E+00  0.00000000E+00  0.00000000E+00
  0.00000000E+00  0.00000000E+00  0.00000000E+00
  0.00000000E+00  0.00000000E+00  0.00000000E+00
  0.00000000E+00  0.00000000E+00  0.00000000E+00
  0.00000000E+00  0.00000000E+00  0.00000000E+00
  0.00000000E+00  0.00000000E+00  0.00000000E+00
  0.00000000E+00  0.00000000E+00  0.00000000E+00
  0.00000000E+00  0.00000000E+00  0.00000000E+00
  0.00000000E+00  0.00000000E+00  0.00000000E+00
  0.00000000E+00  0.00000000E+00  0.00000000E+00
  0.00000000E+00  0.00000000E+00  0.00000000E+00
  0.00000000E+00  0.00000000E+00  0.00000000E+00
  0.00000000E+00  0.00000000E+00  0.00000000E+00
  0.00000000E+00  0.00000000E+00  0.00000000E+00
  0.00000000E+00  0.00000000E+00  0.00000000E+00
  0.00000000E+00  0.00000000E+00  0.00000000E+00
  0.00000000E+00  0.00000000E+00  0.00000000E+00
  0.00000000E+00  0.00000000E+00  0.00000000E+00
  0.00000000E+00  0.00000000E+00  0.00000000E+00
  0.00000000E+00  0.00000000E+00  0.00000000E+00
  0.00000000E+00  0.00000000E+00  0.00000000E+00
  0.00000000E+00  0.00000000E+00  0.00000000E+00
  0.00000000E+00  0.00000000E+00  0.00000000E+00
  0.00000000E+00  0.00000000E+00  0.00000000E+00
  0.00000000E+00  0.00000000E+00  0.00000000E+00
  0.00000000E+00  0.00000000E+00  0.00000000E+00
  0.00000000E+00  0.00000000E+00  0.00000000E+00
  0.00000000E+00  0.00000000E+00  0.00000000E+00
  0.00000000E+00  0.00000000E+00  0.00000000E+00
