Bi La Sn O  C  H                        
   1.00000000000000     
    29.0000000000000000    0.0000000000000000    0.0000000000000000
     0.2488180851000000   28.9989325590000000    0.0000000000000000
    -0.0631677343000000   -0.4515975666000000   28.9964147692999994
   Bi   La   Sn   O    C    H 
    22    23    23     2     1     1
Selective dynamics
Direct
  0.7596214746109685  0.4784415165874676  0.3975483883671182   T   T   T
  0.6493761171418223  0.6851225057757291  0.5466204274428335   T   T   T
  0.3607004713663191  0.4577804584430596  0.4275923057560850   T   T   T
  0.5510248297107364  0.7159084136707468  0.5816861065435940   T   T   T
  0.5915029568994470  0.5209714444905416  0.5841479689498996   F   F   F
  0.6394751109945482  0.6784359485235785  0.4427560081870557   T   T   T
  0.6942007754502719  0.5167763926708423  0.6531858585016304   T   T   T
  0.4879406690475606  0.7021438508338866  0.4978089716252154   T   T   T
  0.5004839460855024  0.5502791173970252  0.5477141156400123   F   F   F
  0.3285840338036739  0.4849191549589398  0.5791034919766320   T   T   T
  0.3819669016500134  0.6079326182885261  0.5372823136011876   T   T   T
  0.6667129484492236  0.4827404655721850  0.5105018184570156   F   F   F
  0.5763997220267569  0.4263140504383500  0.5448328182496311   F   F   F
  0.6682405894382777  0.3739576538614062  0.5060535111780664   T   T   T
  0.4608388083309735  0.3375359545675061  0.4944718717037180   T   T   T
  0.6484934028780529  0.5775373212088155  0.4602701624361103   F   F   F
  0.5539207468057065  0.4352700802764168  0.7497687522662431   T   T   T
  0.5906480897783739  0.3479330791225636  0.6662152463412926   T   T   T
  0.4923726209785385  0.2997980413661528  0.4047560182662085   T   T   T
  0.6623793213414211  0.6121198887379304  0.6705078351124594   T   T   T
  0.4905363682205879  0.4107012715057927  0.3035609574429773   T   T   T
  0.6203763798599393  0.3161376377260015  0.5721270281278344   T   T   T
  0.5385755656136711  0.6829737216911490  0.4021317473248409   T   T   T
  0.3896691665607667  0.4152402857222621  0.5256210512766450   T   T   T
  0.6267556422764837  0.5501546231514955  0.2815068432344960   T   T   T
  0.4737110021321728  0.4825241502531412  0.6920980054048579   T   T   T
  0.5683115009887700  0.5094300495444983  0.4784716241115703   F   F   F
  0.4203210565129183  0.5084107200613417  0.5018573595042781   F   F   F
  0.4529702935545361  0.4017375321130434  0.4043743637043273   T   T   T
  0.5631188267080305  0.3507678347477414  0.3515740494908025   T   T   T
  0.4138873859454791  0.5393199436837870  0.6124200269169512   T   T   T
  0.5986953783677191  0.4414083090999030  0.3039026905280248   T   T   T
  0.4541385587098244  0.5995274192232096  0.3639890499195035   T   T   T
  0.4181528591145611  0.4882243516723401  0.3394336380812908   T   T   T
  0.6607664204800263  0.4250331605693481  0.6041379205320213   T   T   T
  0.6742853714323231  0.5794519746223962  0.5645126010809701   T   T   T
  0.5255485706094188  0.5087057165678978  0.3284121250845323   T   T   T
  0.5648694869873332  0.3564616955252358  0.4689245968537973   T   T   T
  0.3154869051906392  0.5384284908901735  0.4938470133791172   T   T   T
  0.6602641462555461  0.4295039094700607  0.4150351626570297   T   T   T
  0.5660841929594156  0.6261437171197244  0.5094829013827464   F   F   F
  0.5947821309916792  0.5270080758497809  0.6903381409445053   T   T   T
  0.4699108578019500  0.6437229281245411  0.5856728191369628   T   T   T
  0.4624959695526864  0.6035928579871576  0.4637890602516792   T   T   T
  0.7154772807778921  0.5740253218892180  0.3823227392049804   T   T   T
  0.5499310510395361  0.5822218838566187  0.4076968008106903   F   F   F
  0.4794126430662260  0.5072205383607624  0.4190535757241776   F   F   F
  0.6946207675938890  0.4806671619060201  0.3234708305255813   T   T   T
  0.7517176972343914  0.4293589309223294  0.4859314543267845   T   T   T
  0.7479779621141736  0.5377572098061209  0.4834133555378813   T   T   T
  0.7486470741495803  0.4900551938988741  0.5708257456778412   T   T   T
  0.6433879504495889  0.4299648333043763  0.7083582760394361   T   T   T
  0.5783989423146565  0.7438079569709092  0.4907602375318290   T   T   T
  0.6192554540844384  0.5183157687966542  0.3801816896793397   F   F   F
  0.5084440825976038  0.5680116646015575  0.6493268887356258   T   T   T
  0.4922009500451665  0.4366758245867572  0.4933013002826740   F   F   F
  0.5608844484509063  0.4404139570509003  0.6454865549417619   F   F   F
  0.5816841209116526  0.6187505869320475  0.6124171900884107   T   T   T
  0.5423237634602172  0.6159816780196820  0.3109795325000065   T   T   T
  0.6261367538244977  0.6242045821919744  0.3572729373291392   T   T   T
  0.3756225987944203  0.5570029387206525  0.4141456611482700   T   T   T
  0.4723078164089713  0.4557257050327763  0.5877273803360978   F   F   F
  0.7273000773301878  0.6354620360521921  0.4827334173830481   T   T   T
  0.4916138912240964  0.3788893049023980  0.6775533494890397   T   T   T
  0.3883998261908534  0.4366147062972803  0.6412013317388465   T   T   T
  0.5544592502646992  0.4379899399457940  0.4037542370104745   F   F   F
  0.4311447755559144  0.3556515737018066  0.6014812289045192   T   T   T
  0.5253793605955732  0.3492799505416170  0.5747182268663985   T   T   T
  0.6002187559517576  0.6871053488503754  0.6678960469555603   T   T   T
  0.6211932437509421  0.7540141263240114  0.6339985274315237   T   T   T
  0.6250605478552627  0.7236236257915520  0.6641324367725674   T   T   T
  0.6527734067302118  0.7277037492362473  0.6907171769461118   T   T   T
 
  0.00000000E+00  0.00000000E+00  0.00000000E+00
  0.00000000E+00  0.00000000E+00  0.00000000E+00
  0.00000000E+00  0.00000000E+00  0.00000000E+00
  0.00000000E+00  0.00000000E+00  0.00000000E+00
  0.00000000E+00  0.00000000E+00  0.00000000E+00
  0.00000000E+00  0.00000000E+00  0.00000000E+00
  0.00000000E+00  0.00000000E+00  0.00000000E+00
  0.00000000E+00  0.00000000E+00  0.00000000E+00
  0.00000000E+00  0.00000000E+00  0.00000000E+00
  0.00000000E+00  0.00000000E+00  0.00000000E+00
  0.00000000E+00  0.00000000E+00  0.00000000E+00
  0.00000000E+00  0.00000000E+00  0.00000000E+00
  0.00000000E+00  0.00000000E+00  0.00000000E+00
  0.00000000E+00  0.00000000E+00  0.00000000E+00
  0.00000000E+00  0.00000000E+00  0.00000000E+00
  0.00000000E+00  0.00000000E+00  0.00000000E+00
  0.00000000E+00  0.00000000E+00  0.00000000E+00
  0.00000000E+00  0.00000000E+00  0.00000000E+00
  0.00000000E+00  0.00000000E+00  0.00000000E+00
  0.00000000E+00  0.00000000E+00  0.00000000E+00
  0.00000000E+00  0.00000000E+00  0.00000000E+00
  0.00000000E+00  0.00000000E+00  0.00000000E+00
  0.00000000E+00  0.00000000E+00  0.00000000E+00
  0.00000000E+00  0.00000000E+00  0.00000000E+00
  0.00000000E+00  0.00000000E+00  0.00000000E+00
  0.00000000E+00  0.00000000E+00  0.00000000E+00
  0.00000000E+00  0.00000000E+00  0.00000000E+00
  0.00000000E+00  0.00000000E+00  0.00000000E+00
  0.00000000E+00  0.00000000E+00  0.00000000E+00
  0.00000000E+00  0.00000000E+00  0.00000000E+00
  0.00000000E+00  0.00000000E+00  0.00000000E+00
  0.00000000E+00  0.00000000E+00  0.00000000E+00
  0.00000000E+00  0.00000000E+00  0.00000000E+00
  0.00000000E+00  0.00000000E+00  0.00000000E+00
  0.00000000E+00  0.00000000E+00  0.00000000E+00
  0.00000000E+00  0.00000000E+00  0.00000000E+00
  0.00000000E+00  0.00000000E+00  0.00000000E+00
  0.00000000E+00  0.00000000E+00  0.00000000E+00
  0.00000000E+00  0.00000000E+00  0.00000000E+00
  0.00000000E+00  0.00000000E+00  0.00000000E+00
  0.00000000E+00  0.00000000E+00  0.00000000E+00
  0.00000000E+00  0.00000000E+00  0.00000000E+00
  0.00000000E+00  0.00000000E+00  0.00000000E+00
  0.00000000E+00  0.00000000E+00  0.00000000E+00
  0.00000000E+00  0.00000000E+00  0.00000000E+00
  0.00000000E+00  0.00000000E+00  0.00000000E+00
  0.00000000E+00  0.00000000E+00  0.00000000E+00
  0.00000000E+00  0.00000000E+00  0.00000000E+00
  0.00000000E+00  0.00000000E+00  0.00000000E+00
  0.00000000E+00  0.00000000E+00  0.00000000E+00
  0.00000000E+00  0.00000000E+00  0.00000000E+00
  0.00000000E+00  0.00000000E+00  0.00000000E+00
  0.00000000E+00  0.00000000E+00  0.00000000E+00
  0.00000000E+00  0.00000000E+00  0.00000000E+00
  0.00000000E+00  0.00000000E+00  0.00000000E+00
  0.00000000E+00  0.00000000E+00  0.00000000E+00
  0.00000000E+00  0.00000000E+00  0.00000000E+00
  0.00000000E+00  0.00000000E+00  0.00000000E+00
  0.00000000E+00  0.00000000E+00  0.00000000E+00
  0.00000000E+00  0.00000000E+00  0.00000000E+00
  0.00000000E+00  0.00000000E+00  0.00000000E+00
  0.00000000E+00  0.00000000E+00  0.00000000E+00
  0.00000000E+00  0.00000000E+00  0.00000000E+00
  0.00000000E+00  0.00000000E+00  0.00000000E+00
  0.00000000E+00  0.00000000E+00  0.00000000E+00
  0.00000000E+00  0.00000000E+00  0.00000000E+00
  0.00000000E+00  0.00000000E+00  0.00000000E+00
  0.00000000E+00  0.00000000E+00  0.00000000E+00
  0.00000000E+00  0.00000000E+00  0.00000000E+00
  0.00000000E+00  0.00000000E+00  0.00000000E+00
  0.00000000E+00  0.00000000E+00  0.00000000E+00
  0.00000000E+00  0.00000000E+00  0.00000000E+00
