Bi La Sn O  C  H                        
   1.00000000000000     
    29.0000000000000000    0.0000000000000000    0.0000000000000000
     0.2488180851000000   28.9989325590000000    0.0000000000000000
    -0.0631677343000000   -0.4515975666000000   28.9964147692999994
   Bi   La   Sn   O    C    H 
    22    23    23     2     1     1
Selective dynamics
Direct
  0.7605498703186774  0.4764964576004428  0.3992672611962010   T   T   T
  0.6482851117991705  0.6841787958426536  0.5510464075843708   T   T   T
  0.3620427331385833  0.4578121875479852  0.4269952108788091   T   T   T
  0.5526062897154274  0.7136857728802014  0.5840716427724691   T   T   T
  0.5915029568994470  0.5209714444905416  0.5841479689498996   F   F   F
  0.6408174699491247  0.6804604067314363  0.4457168842397031   T   T   T
  0.6962081000186923  0.5205257887813610  0.6537423125963527   T   T   T
  0.4872617478191192  0.7016280708353955  0.4990677527484160   T   T   T
  0.5004839460855024  0.5502791173970252  0.5477141156400123   F   F   F
  0.3286982878151170  0.4865987492861676  0.5759769014206276   T   T   T
  0.3848755925760695  0.6084355575775314  0.5378470036226329   T   T   T
  0.6667129484492236  0.4827404655721850  0.5105018184570156   F   F   F
  0.5763997220267569  0.4263140504383500  0.5448328182496311   F   F   F
  0.6688904599055663  0.3736318039446480  0.5067765804287104   T   T   T
  0.4623786763293801  0.3379643718040855  0.4957733430134435   T   T   T
  0.6484934028780529  0.5775373212088155  0.4602701624361103   F   F   F
  0.5564319024864799  0.4344874439261651  0.7495623681750730   T   T   T
  0.5951362382184561  0.3492204289701918  0.6676519915821059   T   T   T
  0.4944574621423195  0.2994888345317905  0.4065594827178973   T   T   T
  0.6613517134300564  0.6163994745976613  0.6672739501805944   T   T   T
  0.4935595323307782  0.4100089741076463  0.3048085872284354   T   T   T
  0.6213636919283673  0.3162131723445188  0.5729250242939135   T   T   T
  0.5402493673967211  0.6838982267866373  0.4044122465170218   T   T   T
  0.3902678297582750  0.4150488636139330  0.5257407845226195   T   T   T
  0.6297935609950485  0.5518629544715132  0.2828355409314308   T   T   T
  0.4729554244579082  0.4785043519679879  0.6927592035368675   T   T   T
  0.5683115009887700  0.5094300495444983  0.4784716241115703   F   F   F
  0.4203210565129183  0.5084107200613417  0.5018573595042781   F   F   F
  0.4537404789646294  0.4009658270214521  0.4044517887068864   T   T   T
  0.5659638407875778  0.3492692448822518  0.3527562824101226   T   T   T
  0.4136559666310909  0.5397918333703517  0.6128146701257021   T   T   T
  0.5997347432371862  0.4422309126618744  0.3045967127546366   T   T   T
  0.4555648635530268  0.6000494047458399  0.3623402239462522   T   T   T
  0.4200022905684517  0.4868657009359530  0.3384265240351292   T   T   T
  0.6608165897214034  0.4267782131984427  0.6043889114130671   T   T   T
  0.6741903165882468  0.5781626192143728  0.5640403615983974   T   T   T
  0.5264326479478845  0.5094914698234085  0.3279475719849012   T   T   T
  0.5662953829943401  0.3568476517025865  0.4690184998438394   T   T   T
  0.3129776606166915  0.5428002910421447  0.4904719793702386   T   T   T
  0.6600884790995043  0.4292566438851517  0.4158092923146152   T   T   T
  0.5660841929594156  0.6261437171197244  0.5094829013827464   F   F   F
  0.5966184845679418  0.5269466566897998  0.6901639191406989   T   T   T
  0.4719347175718041  0.6428509829449195  0.5883048262963851   T   T   T
  0.4626847922319332  0.6039125313586375  0.4635878419149578   T   T   T
  0.7172905676555242  0.5722133014249516  0.3838700505217258   T   T   T
  0.5499310510395361  0.5822218838566187  0.4076968008106903   F   F   F
  0.4794126430662260  0.5072205383607624  0.4190535757241776   F   F   F
  0.6957010654933552  0.4796925809833930  0.3249788216415145   T   T   T
  0.7515827024776819  0.4280798405661734  0.4879812814249304   T   T   T
  0.7489529007353484  0.5370249185825582  0.4855643278072691   T   T   T
  0.7493911901096244  0.4888317959534403  0.5721856659008631   T   T   T
  0.6458920450297038  0.4320430657765116  0.7084019586121987   T   T   T
  0.5776817562712927  0.7436700529047406  0.4927823892248625   T   T   T
  0.6192554540844384  0.5183157687966542  0.3801816896793397   F   F   F
  0.5078156942543958  0.5639489649713955  0.6509579322766629   T   T   T
  0.4922009500451665  0.4366758245867572  0.4933013002826740   F   F   F
  0.5608844484509063  0.4404139570509003  0.6454865549417619   F   F   F
  0.5796161168240044  0.6171731926089515  0.6132756790573463   T   T   T
  0.5461736945019217  0.6175124157856924  0.3130150720238029   T   T   T
  0.6293137991678160  0.6245484553291045  0.3610905988776500   T   T   T
  0.3783791801122974  0.5555669999097850  0.4118577196175191   T   T   T
  0.4723078164089713  0.4557257050327763  0.5877273803360978   F   F   F
  0.7280338504362830  0.6340258515180247  0.4841586180197756   T   T   T
  0.4953532104239540  0.3753002586946723  0.6795448256677958   T   T   T
  0.3853581966988988  0.4384266481847434  0.6400636118437308   T   T   T
  0.5544592502646992  0.4379899399457940  0.4037542370104745   F   F   F
  0.4321147900717089  0.3585468717352439  0.6036524152759004   T   T   T
  0.5267476156211645  0.3489314676472290  0.5764972117756867   T   T   T
  0.2619984199139754  0.6111588266780585  0.4801125661365657   T   T   T
  0.2344873445727311  0.5420048487236057  0.4578824527731762   T   T   T
  0.2320956166996439  0.5862142209967313  0.4593739066965232   T   T   T
  0.2030331697892893  0.6034335469055238  0.4413125979689498   T   T   T
 
  0.00000000E+00  0.00000000E+00  0.00000000E+00
  0.00000000E+00  0.00000000E+00  0.00000000E+00
  0.00000000E+00  0.00000000E+00  0.00000000E+00
  0.00000000E+00  0.00000000E+00  0.00000000E+00
  0.00000000E+00  0.00000000E+00  0.00000000E+00
  0.00000000E+00  0.00000000E+00  0.00000000E+00
  0.00000000E+00  0.00000000E+00  0.00000000E+00
  0.00000000E+00  0.00000000E+00  0.00000000E+00
  0.00000000E+00  0.00000000E+00  0.00000000E+00
  0.00000000E+00  0.00000000E+00  0.00000000E+00
  0.00000000E+00  0.00000000E+00  0.00000000E+00
  0.00000000E+00  0.00000000E+00  0.00000000E+00
  0.00000000E+00  0.00000000E+00  0.00000000E+00
  0.00000000E+00  0.00000000E+00  0.00000000E+00
  0.00000000E+00  0.00000000E+00  0.00000000E+00
  0.00000000E+00  0.00000000E+00  0.00000000E+00
  0.00000000E+00  0.00000000E+00  0.00000000E+00
  0.00000000E+00  0.00000000E+00  0.00000000E+00
  0.00000000E+00  0.00000000E+00  0.00000000E+00
  0.00000000E+00  0.00000000E+00  0.00000000E+00
  0.00000000E+00  0.00000000E+00  0.00000000E+00
  0.00000000E+00  0.00000000E+00  0.00000000E+00
  0.00000000E+00  0.00000000E+00  0.00000000E+00
  0.00000000E+00  0.00000000E+00  0.00000000E+00
  0.00000000E+00  0.00000000E+00  0.00000000E+00
  0.00000000E+00  0.00000000E+00  0.00000000E+00
  0.00000000E+00  0.00000000E+00  0.00000000E+00
  0.00000000E+00  0.00000000E+00  0.00000000E+00
  0.00000000E+00  0.00000000E+00  0.00000000E+00
  0.00000000E+00  0.00000000E+00  0.00000000E+00
  0.00000000E+00  0.00000000E+00  0.00000000E+00
  0.00000000E+00  0.00000000E+00  0.00000000E+00
  0.00000000E+00  0.00000000E+00  0.00000000E+00
  0.00000000E+00  0.00000000E+00  0.00000000E+00
  0.00000000E+00  0.00000000E+00  0.00000000E+00
  0.00000000E+00  0.00000000E+00  0.00000000E+00
  0.00000000E+00  0.00000000E+00  0.00000000E+00
  0.00000000E+00  0.00000000E+00  0.00000000E+00
  0.00000000E+00  0.00000000E+00  0.00000000E+00
  0.00000000E+00  0.00000000E+00  0.00000000E+00
  0.00000000E+00  0.00000000E+00  0.00000000E+00
  0.00000000E+00  0.00000000E+00  0.00000000E+00
  0.00000000E+00  0.00000000E+00  0.00000000E+00
  0.00000000E+00  0.00000000E+00  0.00000000E+00
  0.00000000E+00  0.00000000E+00  0.00000000E+00
  0.00000000E+00  0.00000000E+00  0.00000000E+00
  0.00000000E+00  0.00000000E+00  0.00000000E+00
  0.00000000E+00  0.00000000E+00  0.00000000E+00
  0.00000000E+00  0.00000000E+00  0.00000000E+00
  0.00000000E+00  0.00000000E+00  0.00000000E+00
  0.00000000E+00  0.00000000E+00  0.00000000E+00
  0.00000000E+00  0.00000000E+00  0.00000000E+00
  0.00000000E+00  0.00000000E+00  0.00000000E+00
  0.00000000E+00  0.00000000E+00  0.00000000E+00
  0.00000000E+00  0.00000000E+00  0.00000000E+00
  0.00000000E+00  0.00000000E+00  0.00000000E+00
  0.00000000E+00  0.00000000E+00  0.00000000E+00
  0.00000000E+00  0.00000000E+00  0.00000000E+00
  0.00000000E+00  0.00000000E+00  0.00000000E+00
  0.00000000E+00  0.00000000E+00  0.00000000E+00
  0.00000000E+00  0.00000000E+00  0.00000000E+00
  0.00000000E+00  0.00000000E+00  0.00000000E+00
  0.00000000E+00  0.00000000E+00  0.00000000E+00
  0.00000000E+00  0.00000000E+00  0.00000000E+00
  0.00000000E+00  0.00000000E+00  0.00000000E+00
  0.00000000E+00  0.00000000E+00  0.00000000E+00
  0.00000000E+00  0.00000000E+00  0.00000000E+00
  0.00000000E+00  0.00000000E+00  0.00000000E+00
  0.00000000E+00  0.00000000E+00  0.00000000E+00
  0.00000000E+00  0.00000000E+00  0.00000000E+00
  0.00000000E+00  0.00000000E+00  0.00000000E+00
  0.00000000E+00  0.00000000E+00  0.00000000E+00
