Bi La Sn O  C  H                        
   1.00000000000000     
    29.0000000000000000    0.0000000000000000    0.0000000000000000
     0.2488180851000000   28.9989325590000000    0.0000000000000000
    -0.0631677343000000   -0.4515975666000000   28.9964147692999994
   Bi   La   Sn   O    C    H 
    22    23    23     2     1     1
Selective dynamics
Direct
  0.7596115956154885  0.4777034896043834  0.3986905227286829   T   T   T
  0.6463231044998121  0.6844995222251333  0.5526469888547297   T   T   T
  0.3568191105679078  0.4598985172558810  0.4301323808683950   T   T   T
  0.5503628919780565  0.7132012165328740  0.5850447948468820   T   T   T
  0.5915029568994470  0.5209714444905416  0.5841479689498996   F   F   F
  0.6399135698087538  0.6808643407249191  0.4459369649481896   T   T   T
  0.6957089203236115  0.5228080043243013  0.6540796177331006   T   T   T
  0.4864827598316864  0.7014936168655929  0.4998584434316293   T   T   T
  0.5004839460855024  0.5502791173970252  0.5477141156400123   F   F   F
  0.3245216953532779  0.4861440545589519  0.5740826383840616   T   T   T
  0.3823497742348110  0.6109281350328926  0.5347777642674598   T   T   T
  0.6667129484492236  0.4827404655721850  0.5105018184570156   F   F   F
  0.5763997220267569  0.4263140504383500  0.5448328182496311   F   F   F
  0.6690056909901446  0.3742564853219880  0.5061525090939570   T   T   T
  0.4635313061881803  0.3374860145608177  0.5013423134482727   T   T   T
  0.6484934028780529  0.5775373212088155  0.4602701624361103   F   F   F
  0.5589050309982924  0.4367900928465370  0.7495904135505915   T   T   T
  0.6053975726493380  0.3522520556415973  0.6691194586219658   T   T   T
  0.4925887379009876  0.3007489952736797  0.4099298211895400   T   T   T
  0.6597601893482539  0.6189719039528742  0.6660119389067720   T   T   T
  0.4959816690415914  0.4100559939168082  0.3164438218461180   T   T   T
  0.6222273296282951  0.3168026892170941  0.5727879605848281   T   T   T
  0.5389490114554768  0.6840521107948200  0.4050548776543275   T   T   T
  0.3906008261694132  0.4151628029409238  0.5279201253829122   T   T   T
  0.6295548468164366  0.5532963984160501  0.2828441251381211   T   T   T
  0.4712267240136352  0.4702569218448867  0.6915821372342452   T   T   T
  0.5683115009887700  0.5094300495444983  0.4784716241115703   F   F   F
  0.4203210565129183  0.5084107200613417  0.5018573595042781   F   F   F
  0.4489990308505986  0.4004610466907472  0.4108061333355411   T   T   T
  0.5688654655979858  0.3458870713653582  0.3572650317801087   T   T   T
  0.4103760731449080  0.5402776432055543  0.6090715085268839   T   T   T
  0.5991636056634175  0.4428479555717370  0.3052458491642417   T   T   T
  0.4551339854257151  0.6010186214245978  0.3635233582602653   T   T   T
  0.4155993416607378  0.4859184022027536  0.3399962749807613   T   T   T
  0.6612601924426269  0.4288748602069395  0.6042410583433258   T   T   T
  0.6730792846718522  0.5788514457551948  0.5638380573716490   T   T   T
  0.5263013061749545  0.5116642066192665  0.3277508356024143   T   T   T
  0.5658337434008154  0.3574352884966804  0.4700423791756893   T   T   T
  0.3144320259189055  0.5433725431855655  0.4917933502853141   T   T   T
  0.6602693707058083  0.4295199676807546  0.4153019669035730   T   T   T
  0.5660841929594156  0.6261437171197244  0.5094829013827464   F   F   F
  0.5954349127458671  0.5292065967633006  0.6896757326269412   T   T   T
  0.4700263412072494  0.6415342231128507  0.5883428701631034   T   T   T
  0.4636216585909588  0.6036819833498711  0.4638954862297699   T   T   T
  0.7167439274752596  0.5737365316270752  0.3832714852925638   T   T   T
  0.5499310510395361  0.5822218838566187  0.4076968008106903   F   F   F
  0.4794126430662260  0.5072205383607624  0.4190535757241776   F   F   F
  0.6953916129041603  0.4807247584801536  0.3242158879413710   T   T   T
  0.7522703194089783  0.4297623155756730  0.4885109584312488   T   T   T
  0.7483342053884259  0.5379042241578866  0.4848283684916275   T   T   T
  0.7490886859970582  0.4916803816424282  0.5724277546434221   T   T   T
  0.6489730618724945  0.4383295689975549  0.7090386045114950   T   T   T
  0.5769125270350912  0.7435789282573969  0.4938126545548759   T   T   T
  0.6192554540844384  0.5183157687966542  0.3801816896793397   F   F   F
  0.5042121395682013  0.5593099609087460  0.6501173883694734   T   T   T
  0.4922009500451665  0.4366758245867572  0.4933013002826740   F   F   F
  0.5608844484509063  0.4404139570509003  0.6454865549417619   F   F   F
  0.5766835848596376  0.6159725745711689  0.6137996328583772   T   T   T
  0.5452606596696862  0.6190019384286846  0.3127285783296417   T   T   T
  0.6279878169175379  0.6254807515354307  0.3612867936657125   T   T   T
  0.3768709978210182  0.5579049516703435  0.4134566996533141   T   T   T
  0.4723078164089713  0.4557257050327763  0.5877273803360978   F   F   F
  0.7268470418317990  0.6352272545793538  0.4841582818393789   T   T   T
  0.5053658525263233  0.3679861172810103  0.6862563574388685   T   T   T
  0.3802672166408270  0.4418469899547549  0.6402184642217980   T   T   T
  0.5544592502646992  0.4379899399457940  0.4037542370104745   F   F   F
  0.4353032244761814  0.3651389775588098  0.6126256808096399   T   T   T
  0.5285654870861306  0.3496069288132988  0.5810619039689834   T   T   T
  0.4267300093531631  0.3923146751607540  0.2481064275408870   T   T   T
  0.3960070247887036  0.4631396381364866  0.2654876098943647   T   T   T
  0.3999695160132465  0.4251791425037799  0.2408571934278018   T   T   T
  0.3762071326665200  0.4234278802240386  0.2106165826765637   T   T   T
 
  0.00000000E+00  0.00000000E+00  0.00000000E+00
  0.00000000E+00  0.00000000E+00  0.00000000E+00
  0.00000000E+00  0.00000000E+00  0.00000000E+00
  0.00000000E+00  0.00000000E+00  0.00000000E+00
  0.00000000E+00  0.00000000E+00  0.00000000E+00
  0.00000000E+00  0.00000000E+00  0.00000000E+00
  0.00000000E+00  0.00000000E+00  0.00000000E+00
  0.00000000E+00  0.00000000E+00  0.00000000E+00
  0.00000000E+00  0.00000000E+00  0.00000000E+00
  0.00000000E+00  0.00000000E+00  0.00000000E+00
  0.00000000E+00  0.00000000E+00  0.00000000E+00
  0.00000000E+00  0.00000000E+00  0.00000000E+00
  0.00000000E+00  0.00000000E+00  0.00000000E+00
  0.00000000E+00  0.00000000E+00  0.00000000E+00
  0.00000000E+00  0.00000000E+00  0.00000000E+00
  0.00000000E+00  0.00000000E+00  0.00000000E+00
  0.00000000E+00  0.00000000E+00  0.00000000E+00
  0.00000000E+00  0.00000000E+00  0.00000000E+00
  0.00000000E+00  0.00000000E+00  0.00000000E+00
  0.00000000E+00  0.00000000E+00  0.00000000E+00
  0.00000000E+00  0.00000000E+00  0.00000000E+00
  0.00000000E+00  0.00000000E+00  0.00000000E+00
  0.00000000E+00  0.00000000E+00  0.00000000E+00
  0.00000000E+00  0.00000000E+00  0.00000000E+00
  0.00000000E+00  0.00000000E+00  0.00000000E+00
  0.00000000E+00  0.00000000E+00  0.00000000E+00
  0.00000000E+00  0.00000000E+00  0.00000000E+00
  0.00000000E+00  0.00000000E+00  0.00000000E+00
  0.00000000E+00  0.00000000E+00  0.00000000E+00
  0.00000000E+00  0.00000000E+00  0.00000000E+00
  0.00000000E+00  0.00000000E+00  0.00000000E+00
  0.00000000E+00  0.00000000E+00  0.00000000E+00
  0.00000000E+00  0.00000000E+00  0.00000000E+00
  0.00000000E+00  0.00000000E+00  0.00000000E+00
  0.00000000E+00  0.00000000E+00  0.00000000E+00
  0.00000000E+00  0.00000000E+00  0.00000000E+00
  0.00000000E+00  0.00000000E+00  0.00000000E+00
  0.00000000E+00  0.00000000E+00  0.00000000E+00
  0.00000000E+00  0.00000000E+00  0.00000000E+00
  0.00000000E+00  0.00000000E+00  0.00000000E+00
  0.00000000E+00  0.00000000E+00  0.00000000E+00
  0.00000000E+00  0.00000000E+00  0.00000000E+00
  0.00000000E+00  0.00000000E+00  0.00000000E+00
  0.00000000E+00  0.00000000E+00  0.00000000E+00
  0.00000000E+00  0.00000000E+00  0.00000000E+00
  0.00000000E+00  0.00000000E+00  0.00000000E+00
  0.00000000E+00  0.00000000E+00  0.00000000E+00
  0.00000000E+00  0.00000000E+00  0.00000000E+00
  0.00000000E+00  0.00000000E+00  0.00000000E+00
  0.00000000E+00  0.00000000E+00  0.00000000E+00
  0.00000000E+00  0.00000000E+00  0.00000000E+00
  0.00000000E+00  0.00000000E+00  0.00000000E+00
  0.00000000E+00  0.00000000E+00  0.00000000E+00
  0.00000000E+00  0.00000000E+00  0.00000000E+00
  0.00000000E+00  0.00000000E+00  0.00000000E+00
  0.00000000E+00  0.00000000E+00  0.00000000E+00
  0.00000000E+00  0.00000000E+00  0.00000000E+00
  0.00000000E+00  0.00000000E+00  0.00000000E+00
  0.00000000E+00  0.00000000E+00  0.00000000E+00
  0.00000000E+00  0.00000000E+00  0.00000000E+00
  0.00000000E+00  0.00000000E+00  0.00000000E+00
  0.00000000E+00  0.00000000E+00  0.00000000E+00
  0.00000000E+00  0.00000000E+00  0.00000000E+00
  0.00000000E+00  0.00000000E+00  0.00000000E+00
  0.00000000E+00  0.00000000E+00  0.00000000E+00
  0.00000000E+00  0.00000000E+00  0.00000000E+00
  0.00000000E+00  0.00000000E+00  0.00000000E+00
  0.00000000E+00  0.00000000E+00  0.00000000E+00
  0.00000000E+00  0.00000000E+00  0.00000000E+00
  0.00000000E+00  0.00000000E+00  0.00000000E+00
  0.00000000E+00  0.00000000E+00  0.00000000E+00
  0.00000000E+00  0.00000000E+00  0.00000000E+00
