Bi La Sn O  C  H                        
   1.00000000000000     
    29.0000000000000000    0.0000000000000000    0.0000000000000000
     0.2488180851000000   28.9989325590000000    0.0000000000000000
    -0.0631677343000000   -0.4515975666000000   28.9964147692999994
   Bi   La   Sn   O    C    H 
    22    23    23     2     1     1
Selective dynamics
Direct
  0.7595155429273719  0.4791768249776336  0.3985028499546981   T   T   T
  0.6482722017257526  0.6856418004412416  0.5467540265418582   T   T   T
  0.3601037616660556  0.4583538871236574  0.4286953808105514   T   T   T
  0.5505734958822991  0.7133473080862804  0.5828614615673804   T   T   T
  0.5915029568994470  0.5209714444905416  0.5841479689498996   F   F   F
  0.6375146710942675  0.6782097359227972  0.4411015026905133   T   T   T
  0.6939083377541972  0.5199097302551409  0.6532110641910683   T   T   T
  0.4859862783563769  0.7015959297064535  0.4992530345806604   T   T   T
  0.5004839460855024  0.5502791173970252  0.5477141156400123   F   F   F
  0.3259031378776458  0.4858086631976573  0.5770179894275871   T   T   T
  0.3824193515935956  0.6097477735670380  0.5360456615475946   T   T   T
  0.6667129484492236  0.4827404655721850  0.5105018184570156   F   F   F
  0.5763997220267569  0.4263140504383500  0.5448328182496311   F   F   F
  0.6688077581977943  0.3738520851671342  0.5055011396118408   T   T   T
  0.4620547839544317  0.3387961855432778  0.4988179472236537   T   T   T
  0.6484934028780529  0.5775373212088155  0.4602701624361103   F   F   F
  0.5578980950602777  0.4335732282154930  0.7499636875174908   T   T   T
  0.5989592083728053  0.3493115373435025  0.6674981203485121   T   T   T
  0.4918078494377197  0.2989117190599604  0.4095541264556194   T   T   T
  0.6590388176607958  0.6150744310510933  0.6694974645232434   T   T   T
  0.4916264449494126  0.4106395798663182  0.3064556802971333   T   T   T
  0.6215125298209104  0.3161188439078967  0.5717723068207602   T   T   T
  0.5364130007261958  0.6835846050973736  0.4028441004654998   T   T   T
  0.3897029000875992  0.4154229961607824  0.5274744707371455   T   T   T
  0.6276552519511234  0.5503429096293030  0.2807204946170935   T   T   T
  0.4726409045235819  0.4745697709047814  0.6924432997176152   T   T   T
  0.5683115009887700  0.5094300495444983  0.4784716241115703   F   F   F
  0.4203210565129183  0.5084107200613417  0.5018573595042781   F   F   F
  0.4521265274113263  0.4010573437142338  0.4065610758192549   T   T   T
  0.5622983651314424  0.3487357400105114  0.3536729681903897   T   T   T
  0.4118691094449823  0.5399606486890712  0.6107155849146486   T   T   T
  0.5991502008680506  0.4417105841892940  0.3048664270317308   T   T   T
  0.4541639328878545  0.5992356344090224  0.3626598130935053   T   T   T
  0.4180872636165303  0.4875695480278527  0.3400045294007599   T   T   T
  0.6611849817618075  0.4260426340577791  0.6035913747112178   T   T   T
  0.6768518922583446  0.5810796037896839  0.5645669554159466   T   T   T
  0.5265947283144564  0.5092424351439667  0.3281779519479232   T   T   T
  0.5652558027190857  0.3572707340128986  0.4690355307146569   T   T   T
  0.3156961977661492  0.5407437045398216  0.4928177751965095   T   T   T
  0.6604223501034941  0.4298433893559383  0.4149573833980418   T   T   T
  0.5660841929594156  0.6261437171197244  0.5094829013827464   F   F   F
  0.5946988370242084  0.5267633360871901  0.6910544185404740   T   T   T
  0.4706911897765285  0.6420919935818629  0.5879915770581997   T   T   T
  0.4629404166111944  0.6036789163577674  0.4640260546987280   T   T   T
  0.7158491748026178  0.5740119068409079  0.3824402043875954   T   T   T
  0.5499310510395361  0.5822218838566187  0.4076968008106903   F   F   F
  0.4794126430662260  0.5072205383607624  0.4190535757241776   F   F   F
  0.6951520394406716  0.4806624504912779  0.3231330594609697   T   T   T
  0.7515713877886521  0.4296225050867420  0.4867079752327002   T   T   T
  0.7469574157557585  0.5393357128704701  0.4840229765223806   T   T   T
  0.7490357381724513  0.4901744675338467  0.5710341068922847   T   T   T
  0.6470353261929641  0.4337459621394704  0.7074923165072226   T   T   T
  0.5771586914468858  0.7423029562750016  0.4910761828493702   T   T   T
  0.6192554540844384  0.5183157687966542  0.3801816896793397   F   F   F
  0.5063252770261422  0.5618700292905757  0.6499707651190766   T   T   T
  0.4922009500451665  0.4366758245867572  0.4933013002826740   F   F   F
  0.5608844484509063  0.4404139570509003  0.6454865549417619   F   F   F
  0.5790442816248520  0.6167727791093972  0.6135533317391180   T   T   T
  0.5434712864572818  0.6170589980076714  0.3115529607606987   T   T   T
  0.6273006818470950  0.6239120592800332  0.3567642816333594   T   T   T
  0.3759291470348123  0.5569776718632916  0.4133831250882561   T   T   T
  0.4723078164089713  0.4557257050327763  0.5877273803360978   F   F   F
  0.7275021764190179  0.6382872023716319  0.4839717462604313   T   T   T
  0.5001010934909170  0.3714583643063306  0.6834958251483538   T   T   T
  0.3830020193031202  0.4402115094617794  0.6414741965075709   T   T   T
  0.5544592502646992  0.4379899399457940  0.4037542370104745   F   F   F
  0.4338674148764477  0.3622544160803189  0.6083012405281266   T   T   T
  0.5275940939644769  0.3491037455355085  0.5783153226752451   T   T   T
  0.7487166009274232  0.6187785337348959  0.5872378965397577   T   T   T
  0.7901487400873501  0.6567844654799504  0.5332698508116347   T   T   T
  0.7827480792014661  0.6424344931103728  0.5738888384311288   T   T   T
  0.8089711030471594  0.6517272772721113  0.6003893763854914   T   T   T
 
  0.00000000E+00  0.00000000E+00  0.00000000E+00
  0.00000000E+00  0.00000000E+00  0.00000000E+00
  0.00000000E+00  0.00000000E+00  0.00000000E+00
  0.00000000E+00  0.00000000E+00  0.00000000E+00
  0.00000000E+00  0.00000000E+00  0.00000000E+00
  0.00000000E+00  0.00000000E+00  0.00000000E+00
  0.00000000E+00  0.00000000E+00  0.00000000E+00
  0.00000000E+00  0.00000000E+00  0.00000000E+00
  0.00000000E+00  0.00000000E+00  0.00000000E+00
  0.00000000E+00  0.00000000E+00  0.00000000E+00
  0.00000000E+00  0.00000000E+00  0.00000000E+00
  0.00000000E+00  0.00000000E+00  0.00000000E+00
  0.00000000E+00  0.00000000E+00  0.00000000E+00
  0.00000000E+00  0.00000000E+00  0.00000000E+00
  0.00000000E+00  0.00000000E+00  0.00000000E+00
  0.00000000E+00  0.00000000E+00  0.00000000E+00
  0.00000000E+00  0.00000000E+00  0.00000000E+00
  0.00000000E+00  0.00000000E+00  0.00000000E+00
  0.00000000E+00  0.00000000E+00  0.00000000E+00
  0.00000000E+00  0.00000000E+00  0.00000000E+00
  0.00000000E+00  0.00000000E+00  0.00000000E+00
  0.00000000E+00  0.00000000E+00  0.00000000E+00
  0.00000000E+00  0.00000000E+00  0.00000000E+00
  0.00000000E+00  0.00000000E+00  0.00000000E+00
  0.00000000E+00  0.00000000E+00  0.00000000E+00
  0.00000000E+00  0.00000000E+00  0.00000000E+00
  0.00000000E+00  0.00000000E+00  0.00000000E+00
  0.00000000E+00  0.00000000E+00  0.00000000E+00
  0.00000000E+00  0.00000000E+00  0.00000000E+00
  0.00000000E+00  0.00000000E+00  0.00000000E+00
  0.00000000E+00  0.00000000E+00  0.00000000E+00
  0.00000000E+00  0.00000000E+00  0.00000000E+00
  0.00000000E+00  0.00000000E+00  0.00000000E+00
  0.00000000E+00  0.00000000E+00  0.00000000E+00
  0.00000000E+00  0.00000000E+00  0.00000000E+00
  0.00000000E+00  0.00000000E+00  0.00000000E+00
  0.00000000E+00  0.00000000E+00  0.00000000E+00
  0.00000000E+00  0.00000000E+00  0.00000000E+00
  0.00000000E+00  0.00000000E+00  0.00000000E+00
  0.00000000E+00  0.00000000E+00  0.00000000E+00
  0.00000000E+00  0.00000000E+00  0.00000000E+00
  0.00000000E+00  0.00000000E+00  0.00000000E+00
  0.00000000E+00  0.00000000E+00  0.00000000E+00
  0.00000000E+00  0.00000000E+00  0.00000000E+00
  0.00000000E+00  0.00000000E+00  0.00000000E+00
  0.00000000E+00  0.00000000E+00  0.00000000E+00
  0.00000000E+00  0.00000000E+00  0.00000000E+00
  0.00000000E+00  0.00000000E+00  0.00000000E+00
  0.00000000E+00  0.00000000E+00  0.00000000E+00
  0.00000000E+00  0.00000000E+00  0.00000000E+00
  0.00000000E+00  0.00000000E+00  0.00000000E+00
  0.00000000E+00  0.00000000E+00  0.00000000E+00
  0.00000000E+00  0.00000000E+00  0.00000000E+00
  0.00000000E+00  0.00000000E+00  0.00000000E+00
  0.00000000E+00  0.00000000E+00  0.00000000E+00
  0.00000000E+00  0.00000000E+00  0.00000000E+00
  0.00000000E+00  0.00000000E+00  0.00000000E+00
  0.00000000E+00  0.00000000E+00  0.00000000E+00
  0.00000000E+00  0.00000000E+00  0.00000000E+00
  0.00000000E+00  0.00000000E+00  0.00000000E+00
  0.00000000E+00  0.00000000E+00  0.00000000E+00
  0.00000000E+00  0.00000000E+00  0.00000000E+00
  0.00000000E+00  0.00000000E+00  0.00000000E+00
  0.00000000E+00  0.00000000E+00  0.00000000E+00
  0.00000000E+00  0.00000000E+00  0.00000000E+00
  0.00000000E+00  0.00000000E+00  0.00000000E+00
  0.00000000E+00  0.00000000E+00  0.00000000E+00
  0.00000000E+00  0.00000000E+00  0.00000000E+00
  0.00000000E+00  0.00000000E+00  0.00000000E+00
  0.00000000E+00  0.00000000E+00  0.00000000E+00
  0.00000000E+00  0.00000000E+00  0.00000000E+00
  0.00000000E+00  0.00000000E+00  0.00000000E+00
