Bi La Sn O  C  H                        
   1.00000000000000     
    29.0000000000000000    0.0000000000000000    0.0000000000000000
     0.2488180851000000   28.9989325590000000    0.0000000000000000
    -0.0631677343000000   -0.4515975666000000   28.9964147692999994
   Bi   La   Sn   O    C    H 
    22    23    23     2     1     1
Selective dynamics
Direct
  0.7593025213389651  0.4751697219711166  0.3992632098343645   T   T   T
  0.6466469579928323  0.6840021057056463  0.5530517348600318   T   T   T
  0.3594361282041219  0.4566754267114734  0.4303911262965602   T   T   T
  0.5503443536392155  0.7132203565700110  0.5837549565882886   T   T   T
  0.5915029568994470  0.5209714444905416  0.5841479689498996   F   F   F
  0.6407637134789157  0.6811628540428536  0.4468044833324596   T   T   T
  0.6957852351680608  0.5225705291115549  0.6542669525430157   T   T   T
  0.4859000067904304  0.7003172241526398  0.4983483250413527   T   T   T
  0.5004839460855024  0.5502791173970252  0.5477141156400123   F   F   F
  0.3245781772435689  0.4871899899768074  0.5738459981535884   T   T   T
  0.3824380368914121  0.6115258112199978  0.5342916693725961   T   T   T
  0.6667129484492236  0.4827404655721850  0.5105018184570156   F   F   F
  0.5763997220267569  0.4263140504383500  0.5448328182496311   F   F   F
  0.6683993390915643  0.3735747987465920  0.5066063494381660   T   T   T
  0.4634285602184707  0.3391463372881839  0.5021714077628302   T   T   T
  0.6484934028780529  0.5775373212088155  0.4602701624361103   F   F   F
  0.5589462250905368  0.4384037031927129  0.7498118860271047   T   T   T
  0.6056262696575575  0.3524890390870321  0.6696385983074040   T   T   T
  0.4919692038345802  0.2984768071107750  0.4122201838554478   T   T   T
  0.6599015585910821  0.6190347275029160  0.6656929162120300   T   T   T
  0.4928202025006361  0.4094842906142259  0.3099860829186031   T   T   T
  0.6215907004831857  0.3163553027172463  0.5732330454667101   T   T   T
  0.5406345943584731  0.6838590138921381  0.4045374322340729   T   T   T
  0.3905779505343902  0.4152897896889833  0.5295955107797786   T   T   T
  0.6313984853959713  0.5519168402218584  0.2828143652770341   T   T   T
  0.4712852729601522  0.4697221947912956  0.6916523442251881   T   T   T
  0.5683115009887700  0.5094300495444983  0.4784716241115703   F   F   F
  0.4203210565129183  0.5084107200613417  0.5018573595042781   F   F   F
  0.4523289422906529  0.4000548994217442  0.4089678793021778   T   T   T
  0.5643846955574646  0.3472578574632773  0.3566745503059581   T   T   T
  0.4106562948462401  0.5408767045535654  0.6090367804939275   T   T   T
  0.5985710813730668  0.4421427024806748  0.3043772787902350   T   T   T
  0.4547418438944342  0.5996539470437746  0.3603114994582710   T   T   T
  0.4163407742832722  0.4831534143439683  0.3401947280777139   T   T   T
  0.6615289593965931  0.4282703850060851  0.6043087903211248   T   T   T
  0.6732461317536935  0.5783496504393838  0.5639497318781561   T   T   T
  0.5278022606947649  0.5103180289607031  0.3282900348384082   T   T   T
  0.5654549566457977  0.3579415032352377  0.4692076655352041   T   T   T
  0.3164478291237522  0.5426101473619473  0.4902773149522420   T   T   T
  0.6596708474188618  0.4292673722370027  0.4158433589763534   T   T   T
  0.5660841929594156  0.6261437171197244  0.5094829013827464   F   F   F
  0.5955281572385336  0.5293993445660444  0.6893974629499793   T   T   T
  0.4701587874287951  0.6415426167472817  0.5881380816936023   T   T   T
  0.4621128465709332  0.6022161798735810  0.4625399469175882   T   T   T
  0.7172073246770854  0.5709400845915261  0.3837397777631253   T   T   T
  0.5499310510395361  0.5822218838566187  0.4076968008106903   F   F   F
  0.4794126430662260  0.5072205383607624  0.4190535757241776   F   F   F
  0.6951350728103518  0.4781466452394517  0.3243540693172912   T   T   T
  0.7514962908575704  0.4284233987451648  0.4895200632863376   T   T   T
  0.7489100007039539  0.5367072926431196  0.4852157311279794   T   T   T
  0.7486953091877010  0.4905995124388846  0.5729804912954636   T   T   T
  0.6490487871044254  0.4385311537235085  0.7090048259800457   T   T   T
  0.5762684501105165  0.7434693504014745  0.4929002010017175   T   T   T
  0.6192554540844384  0.5183157687966542  0.3801816896793397   F   F   F
  0.5042930379107413  0.5590565319075671  0.6500762377269897   T   T   T
  0.4922009500451665  0.4366758245867572  0.4933013002826740   F   F   F
  0.5608844484509063  0.4404139570509003  0.6454865549417619   F   F   F
  0.5767451429945109  0.6160809799018706  0.6137641069828383   T   T   T
  0.5474423240122056  0.6176671349311241  0.3133169686591820   T   T   T
  0.6297353685650970  0.6244010873611269  0.3618812106485739   T   T   T
  0.3778840237745146  0.5552630033400633  0.4111764575219746   T   T   T
  0.4723078164089713  0.4557257050327763  0.5877273803360978   F   F   F
  0.7275307376529081  0.6336232329880247  0.4845445648775399   T   T   T
  0.5060794897834671  0.3673541504854489  0.6880739822741345   T   T   T
  0.3798939570016421  0.4431674085591734  0.6409052201314255   T   T   T
  0.5544592502646992  0.4379899399457940  0.4037542370104745   F   F   F
  0.4353095783468062  0.3658677370979655  0.6147418665347243   T   T   T
  0.5282623987581112  0.3500877161135877  0.5817448864596695   T   T   T
  0.4496711222157722  0.5380252775144183  0.2887292101806604   T   T   T
  0.4346488443795292  0.6134157813371922  0.2769632574488864   T   T   T
  0.4521455478491784  0.5755141951632914  0.2637064994466102   T   T   T
  0.4694927838483514  0.5715825995064046  0.2300756667718064   T   T   T
 
  0.00000000E+00  0.00000000E+00  0.00000000E+00
  0.00000000E+00  0.00000000E+00  0.00000000E+00
  0.00000000E+00  0.00000000E+00  0.00000000E+00
  0.00000000E+00  0.00000000E+00  0.00000000E+00
  0.00000000E+00  0.00000000E+00  0.00000000E+00
  0.00000000E+00  0.00000000E+00  0.00000000E+00
  0.00000000E+00  0.00000000E+00  0.00000000E+00
  0.00000000E+00  0.00000000E+00  0.00000000E+00
  0.00000000E+00  0.00000000E+00  0.00000000E+00
  0.00000000E+00  0.00000000E+00  0.00000000E+00
  0.00000000E+00  0.00000000E+00  0.00000000E+00
  0.00000000E+00  0.00000000E+00  0.00000000E+00
  0.00000000E+00  0.00000000E+00  0.00000000E+00
  0.00000000E+00  0.00000000E+00  0.00000000E+00
  0.00000000E+00  0.00000000E+00  0.00000000E+00
  0.00000000E+00  0.00000000E+00  0.00000000E+00
  0.00000000E+00  0.00000000E+00  0.00000000E+00
  0.00000000E+00  0.00000000E+00  0.00000000E+00
  0.00000000E+00  0.00000000E+00  0.00000000E+00
  0.00000000E+00  0.00000000E+00  0.00000000E+00
  0.00000000E+00  0.00000000E+00  0.00000000E+00
  0.00000000E+00  0.00000000E+00  0.00000000E+00
  0.00000000E+00  0.00000000E+00  0.00000000E+00
  0.00000000E+00  0.00000000E+00  0.00000000E+00
  0.00000000E+00  0.00000000E+00  0.00000000E+00
  0.00000000E+00  0.00000000E+00  0.00000000E+00
  0.00000000E+00  0.00000000E+00  0.00000000E+00
  0.00000000E+00  0.00000000E+00  0.00000000E+00
  0.00000000E+00  0.00000000E+00  0.00000000E+00
  0.00000000E+00  0.00000000E+00  0.00000000E+00
  0.00000000E+00  0.00000000E+00  0.00000000E+00
  0.00000000E+00  0.00000000E+00  0.00000000E+00
  0.00000000E+00  0.00000000E+00  0.00000000E+00
  0.00000000E+00  0.00000000E+00  0.00000000E+00
  0.00000000E+00  0.00000000E+00  0.00000000E+00
  0.00000000E+00  0.00000000E+00  0.00000000E+00
  0.00000000E+00  0.00000000E+00  0.00000000E+00
  0.00000000E+00  0.00000000E+00  0.00000000E+00
  0.00000000E+00  0.00000000E+00  0.00000000E+00
  0.00000000E+00  0.00000000E+00  0.00000000E+00
  0.00000000E+00  0.00000000E+00  0.00000000E+00
  0.00000000E+00  0.00000000E+00  0.00000000E+00
  0.00000000E+00  0.00000000E+00  0.00000000E+00
  0.00000000E+00  0.00000000E+00  0.00000000E+00
  0.00000000E+00  0.00000000E+00  0.00000000E+00
  0.00000000E+00  0.00000000E+00  0.00000000E+00
  0.00000000E+00  0.00000000E+00  0.00000000E+00
  0.00000000E+00  0.00000000E+00  0.00000000E+00
  0.00000000E+00  0.00000000E+00  0.00000000E+00
  0.00000000E+00  0.00000000E+00  0.00000000E+00
  0.00000000E+00  0.00000000E+00  0.00000000E+00
  0.00000000E+00  0.00000000E+00  0.00000000E+00
  0.00000000E+00  0.00000000E+00  0.00000000E+00
  0.00000000E+00  0.00000000E+00  0.00000000E+00
  0.00000000E+00  0.00000000E+00  0.00000000E+00
  0.00000000E+00  0.00000000E+00  0.00000000E+00
  0.00000000E+00  0.00000000E+00  0.00000000E+00
  0.00000000E+00  0.00000000E+00  0.00000000E+00
  0.00000000E+00  0.00000000E+00  0.00000000E+00
  0.00000000E+00  0.00000000E+00  0.00000000E+00
  0.00000000E+00  0.00000000E+00  0.00000000E+00
  0.00000000E+00  0.00000000E+00  0.00000000E+00
  0.00000000E+00  0.00000000E+00  0.00000000E+00
  0.00000000E+00  0.00000000E+00  0.00000000E+00
  0.00000000E+00  0.00000000E+00  0.00000000E+00
  0.00000000E+00  0.00000000E+00  0.00000000E+00
  0.00000000E+00  0.00000000E+00  0.00000000E+00
  0.00000000E+00  0.00000000E+00  0.00000000E+00
  0.00000000E+00  0.00000000E+00  0.00000000E+00
  0.00000000E+00  0.00000000E+00  0.00000000E+00
  0.00000000E+00  0.00000000E+00  0.00000000E+00
  0.00000000E+00  0.00000000E+00  0.00000000E+00
