Bi La Sn O  C  H                        
   1.00000000000000     
    29.0000000000000000    0.0000000000000000    0.0000000000000000
     0.2488180851000000   28.9989325590000000    0.0000000000000000
    -0.0631677343000000   -0.4515975666000000   28.9964147692999994
   Bi   La   Sn   O    C    H 
    22    23    23     2     1     1
Selective dynamics
Direct
  0.7591898684189792  0.4781594243079617  0.3988624680807290   T   T   T
  0.6468241560552512  0.6845030592519040  0.5520603940336297   T   T   T
  0.3593202655543509  0.4591274152968626  0.4282264567100356   T   T   T
  0.5506018271084012  0.7133151557713802  0.5840979606253273   T   T   T
  0.5915029568994470  0.5209714444905416  0.5841479689498996   F   F   F
  0.6400574553300242  0.6802075560695823  0.4458120057300988   T   T   T
  0.6970154477303289  0.5229648909875869  0.6544406277105630   T   T   T
  0.4864960027269643  0.7010528262507644  0.4994769308659804   T   T   T
  0.5004839460855024  0.5502791173970252  0.5477141156400123   F   F   F
  0.3249249241458665  0.4855653714382387  0.5740256771612919   T   T   T
  0.3824085424282884  0.6112673789548413  0.5346344934566496   T   T   T
  0.6667129484492236  0.4827404655721850  0.5105018184570156   F   F   F
  0.5763997220267569  0.4263140504383500  0.5448328182496311   F   F   F
  0.6687627096419765  0.3745398311877339  0.5084523619182505   T   T   T
  0.4641151771662854  0.3387715058373219  0.4999286042495867   T   T   T
  0.6484934028780529  0.5775373212088155  0.4602701624361103   F   F   F
  0.5596900082534073  0.4360448102782048  0.7493553428307688   T   T   T
  0.6040726549945818  0.3518627891799738  0.6691452385428817   T   T   T
  0.4920461987859960  0.2994059145717743  0.4096128990779850   T   T   T
  0.6603213471618515  0.6187855154803888  0.6660401921232055   T   T   T
  0.4919109329798140  0.4102284682409603  0.3069394264911109   T   T   T
  0.6213553867785427  0.3158528892324253  0.5730965595430690   T   T   T
  0.5387754220625347  0.6834383464946030  0.4043781927747514   T   T   T
  0.3906003220728255  0.4149992946479003  0.5260477332366861   T   T   T
  0.6286987752233127  0.5520950678582254  0.2827605621065087   T   T   T
  0.4701992614146471  0.4710441411517916  0.6949455267909723   T   T   T
  0.5683115009887700  0.5094300495444983  0.4784716241115703   F   F   F
  0.4203210565129183  0.5084107200613417  0.5018573595042781   F   F   F
  0.4517102485067475  0.4009766148302857  0.4064413521959905   T   T   T
  0.5635439692002837  0.3483521095605078  0.3542046954383497   T   T   T
  0.4104813085293413  0.5406699522899872  0.6089469878717897   T   T   T
  0.5985044815900878  0.4419042381292686  0.3047571395858192   T   T   T
  0.4549859912180140  0.6001448907336570  0.3631885901082754   T   T   T
  0.4183531346301249  0.4876748423641774  0.3401367007138928   T   T   T
  0.6615174473308678  0.4291258526421535  0.6049670106476958   T   T   T
  0.6732979714402837  0.5784900494684759  0.5639851323545438   T   T   T
  0.5259798388130973  0.5096777745396485  0.3279790882304589   T   T   T
  0.5664158759578966  0.3572677235038110  0.4687099012703903   T   T   T
  0.3151651022612519  0.5427554926389840  0.4914986396041730   T   T   T
  0.6599415074441599  0.4294373111035468  0.4162150582846413   T   T   T
  0.5660841929594156  0.6261437171197244  0.5094829013827464   F   F   F
  0.5966418755892124  0.5285281202955006  0.6893448715152282   T   T   T
  0.4703003413824307  0.6416373303892488  0.5884042545420748   T   T   T
  0.4629912714905355  0.6032992502749082  0.4636269911051734   T   T   T
  0.7162035708662885  0.5737789786300269  0.3829051447697949   T   T   T
  0.5499310510395361  0.5822218838566187  0.4076968008106903   F   F   F
  0.4794126430662260  0.5072205383607624  0.4190535757241776   F   F   F
  0.6946982691306735  0.4798886408884431  0.3245631148369458   T   T   T
  0.7516739295471653  0.4297239545970357  0.4880864942172227   T   T   T
  0.7484660772783824  0.5380013489893128  0.4849970519159989   T   T   T
  0.7492531518404457  0.4910220249059219  0.5724219159111946   T   T   T
  0.6490214407299140  0.4369493312746071  0.7090050884570831   T   T   T
  0.5769432590212422  0.7434752271689267  0.4927768236500814   T   T   T
  0.6192554540844384  0.5183157687966542  0.3801816896793397   F   F   F
  0.5052750126969907  0.5583693942644022  0.6494696510118950   T   T   T
  0.4922009500451665  0.4366758245867572  0.4933013002826740   F   F   F
  0.5608844484509063  0.4404139570509003  0.6454865549417619   F   F   F
  0.5770631501857602  0.6161643107252509  0.6138053830663264   T   T   T
  0.5442288059529727  0.6172698577491896  0.3119979281530967   T   T   T
  0.6269049258010430  0.6250586624592448  0.3607614559991202   T   T   T
  0.3767719181770073  0.5575230557134551  0.4128131840167076   T   T   T
  0.4723078164089713  0.4557257050327763  0.5877273803360978   F   F   F
  0.7273191684655728  0.6347190919857442  0.4846263374287716   T   T   T
  0.5038816740050072  0.3681720298737705  0.6844471585754415   T   T   T
  0.3824615297296488  0.4419839728093460  0.6394297616737969   T   T   T
  0.5544592502646992  0.4379899399457940  0.4037542370104745   F   F   F
  0.4337767052687254  0.3637587029259288  0.6105924175345459   T   T   T
  0.5281275227388574  0.3493403165213884  0.5803539769013872   T   T   T
  0.4082838914278887  0.4685307911845975  0.7473002699631428   T   T   T
  0.3432828787158055  0.4328200377987376  0.7207358065168400   T   T   T
  0.3684930411934632  0.4491703459927323  0.7519921784529735   T   T   T
  0.3561205040260852  0.4472728538215420  0.7883045420109075   T   T   T
 
  0.00000000E+00  0.00000000E+00  0.00000000E+00
  0.00000000E+00  0.00000000E+00  0.00000000E+00
  0.00000000E+00  0.00000000E+00  0.00000000E+00
  0.00000000E+00  0.00000000E+00  0.00000000E+00
  0.00000000E+00  0.00000000E+00  0.00000000E+00
  0.00000000E+00  0.00000000E+00  0.00000000E+00
  0.00000000E+00  0.00000000E+00  0.00000000E+00
  0.00000000E+00  0.00000000E+00  0.00000000E+00
  0.00000000E+00  0.00000000E+00  0.00000000E+00
  0.00000000E+00  0.00000000E+00  0.00000000E+00
  0.00000000E+00  0.00000000E+00  0.00000000E+00
  0.00000000E+00  0.00000000E+00  0.00000000E+00
  0.00000000E+00  0.00000000E+00  0.00000000E+00
  0.00000000E+00  0.00000000E+00  0.00000000E+00
  0.00000000E+00  0.00000000E+00  0.00000000E+00
  0.00000000E+00  0.00000000E+00  0.00000000E+00
  0.00000000E+00  0.00000000E+00  0.00000000E+00
  0.00000000E+00  0.00000000E+00  0.00000000E+00
  0.00000000E+00  0.00000000E+00  0.00000000E+00
  0.00000000E+00  0.00000000E+00  0.00000000E+00
  0.00000000E+00  0.00000000E+00  0.00000000E+00
  0.00000000E+00  0.00000000E+00  0.00000000E+00
  0.00000000E+00  0.00000000E+00  0.00000000E+00
  0.00000000E+00  0.00000000E+00  0.00000000E+00
  0.00000000E+00  0.00000000E+00  0.00000000E+00
  0.00000000E+00  0.00000000E+00  0.00000000E+00
  0.00000000E+00  0.00000000E+00  0.00000000E+00
  0.00000000E+00  0.00000000E+00  0.00000000E+00
  0.00000000E+00  0.00000000E+00  0.00000000E+00
  0.00000000E+00  0.00000000E+00  0.00000000E+00
  0.00000000E+00  0.00000000E+00  0.00000000E+00
  0.00000000E+00  0.00000000E+00  0.00000000E+00
  0.00000000E+00  0.00000000E+00  0.00000000E+00
  0.00000000E+00  0.00000000E+00  0.00000000E+00
  0.00000000E+00  0.00000000E+00  0.00000000E+00
  0.00000000E+00  0.00000000E+00  0.00000000E+00
  0.00000000E+00  0.00000000E+00  0.00000000E+00
  0.00000000E+00  0.00000000E+00  0.00000000E+00
  0.00000000E+00  0.00000000E+00  0.00000000E+00
  0.00000000E+00  0.00000000E+00  0.00000000E+00
  0.00000000E+00  0.00000000E+00  0.00000000E+00
  0.00000000E+00  0.00000000E+00  0.00000000E+00
  0.00000000E+00  0.00000000E+00  0.00000000E+00
  0.00000000E+00  0.00000000E+00  0.00000000E+00
  0.00000000E+00  0.00000000E+00  0.00000000E+00
  0.00000000E+00  0.00000000E+00  0.00000000E+00
  0.00000000E+00  0.00000000E+00  0.00000000E+00
  0.00000000E+00  0.00000000E+00  0.00000000E+00
  0.00000000E+00  0.00000000E+00  0.00000000E+00
  0.00000000E+00  0.00000000E+00  0.00000000E+00
  0.00000000E+00  0.00000000E+00  0.00000000E+00
  0.00000000E+00  0.00000000E+00  0.00000000E+00
  0.00000000E+00  0.00000000E+00  0.00000000E+00
  0.00000000E+00  0.00000000E+00  0.00000000E+00
  0.00000000E+00  0.00000000E+00  0.00000000E+00
  0.00000000E+00  0.00000000E+00  0.00000000E+00
  0.00000000E+00  0.00000000E+00  0.00000000E+00
  0.00000000E+00  0.00000000E+00  0.00000000E+00
  0.00000000E+00  0.00000000E+00  0.00000000E+00
  0.00000000E+00  0.00000000E+00  0.00000000E+00
  0.00000000E+00  0.00000000E+00  0.00000000E+00
  0.00000000E+00  0.00000000E+00  0.00000000E+00
  0.00000000E+00  0.00000000E+00  0.00000000E+00
  0.00000000E+00  0.00000000E+00  0.00000000E+00
  0.00000000E+00  0.00000000E+00  0.00000000E+00
  0.00000000E+00  0.00000000E+00  0.00000000E+00
  0.00000000E+00  0.00000000E+00  0.00000000E+00
  0.00000000E+00  0.00000000E+00  0.00000000E+00
  0.00000000E+00  0.00000000E+00  0.00000000E+00
  0.00000000E+00  0.00000000E+00  0.00000000E+00
  0.00000000E+00  0.00000000E+00  0.00000000E+00
  0.00000000E+00  0.00000000E+00  0.00000000E+00
