Bi La Sn O  C  H                        
   1.00000000000000     
    29.0000000000000000    0.0000000000000000    0.0000000000000000
     0.2488180851000000   28.9989325590000000    0.0000000000000000
    -0.0631677343000000   -0.4515975666000000   28.9964147692999994
   Bi   La   Sn   O    C    H 
    22    23    23     2     1     1
Selective dynamics
Direct
  0.7581105860209335  0.4769436966410309  0.3985892939641694   T   T   T
  0.6465264356114474  0.6846165078959399  0.5525627360254793   T   T   T
  0.3596995542273574  0.4596654410321210  0.4281054449876799   T   T   T
  0.5502894054199978  0.7130192381357232  0.5849246629073598   T   T   T
  0.5915029568994470  0.5209714444905416  0.5841479689498996   F   F   F
  0.6403143481004656  0.6803920118403817  0.4461805433551317   T   T   T
  0.6981153618746411  0.5242664922940375  0.6557707661724573   T   T   T
  0.4867460303572694  0.7013653179589709  0.4998464344688000   T   T   T
  0.5004839460855024  0.5502791173970252  0.5477141156400123   F   F   F
  0.3253759527949285  0.4858679849627255  0.5752518416802194   T   T   T
  0.3819213596766619  0.6100660709699351  0.5354665143742259   T   T   T
  0.6667129484492236  0.4827404655721850  0.5105018184570156   F   F   F
  0.5763997220267569  0.4263140504383500  0.5448328182496311   F   F   F
  0.6694730459614947  0.3772237518427444  0.5127454285187278   T   T   T
  0.4646581376687083  0.3394836947231595  0.4986014861431556   T   T   T
  0.6484934028780529  0.5775373212088155  0.4602701624361103   F   F   F
  0.5584240215404619  0.4391104242696270  0.7497081892240895   T   T   T
  0.6035819223085324  0.3525556366958892  0.6695742307031266   T   T   T
  0.4924309594903504  0.3013691612590542  0.4074523975796705   T   T   T
  0.6604173602586361  0.6193820109584850  0.6659522877190559   T   T   T
  0.4894848940039176  0.4133740796311319  0.3053028507658332   T   T   T
  0.6214386594708186  0.3159094777797617  0.5743752472860828   T   T   T
  0.5393897338921446  0.6838593091213647  0.4049473135133212   T   T   T
  0.3906881215579684  0.4157097310003636  0.5266566484499839   T   T   T
  0.6287503570963963  0.5532577762772102  0.2826366756672006   T   T   T
  0.4718463562971705  0.4718882921251179  0.6925281999202146   T   T   T
  0.5683115009887700  0.5094300495444983  0.4784716241115703   F   F   F
  0.4203210565129183  0.5084107200613417  0.5018573595042781   F   F   F
  0.4518411610236494  0.4020728497764914  0.4055236962069938   T   T   T
  0.5622311971802879  0.3499504658663303  0.3500209607955427   T   T   T
  0.4110572477924201  0.5398345797801081  0.6099455081619749   T   T   T
  0.5962717193756173  0.4450594183996983  0.3034185125920922   T   T   T
  0.4550079378813449  0.6017705044598028  0.3639517989671005   T   T   T
  0.4171823351292271  0.4899814356448586  0.3400545093096397   T   T   T
  0.6611211600737241  0.4314220495099073  0.6071903135369852   T   T   T
  0.6734651180872794  0.5782442501199168  0.5642108710458511   T   T   T
  0.5256154214204168  0.5112154754562359  0.3281629679356636   T   T   T
  0.5684709509655749  0.3556297600975893  0.4685407387142029   T   T   T
  0.3150297482439036  0.5415518049333664  0.4917819217200443   T   T   T
  0.6596423705929266  0.4265653697480183  0.4158538641492788   T   T   T
  0.5660841929594156  0.6261437171197244  0.5094829013827464   F   F   F
  0.5968005518545092  0.5289451929739605  0.6892130772064845   T   T   T
  0.4699402971536474  0.6413516690617087  0.5882260261159984   T   T   T
  0.4633020403081727  0.6035663247287978  0.4641164312722303   T   T   T
  0.7164298380906760  0.5731203482684941  0.3832571567868832   T   T   T
  0.5499310510395361  0.5822218838566187  0.4076968008106903   F   F   F
  0.4794126430662260  0.5072205383607624  0.4190535757241776   F   F   F
  0.6935331766374629  0.4795453232302787  0.3244600175762779   T   T   T
  0.7526643964264319  0.4302981093764791  0.4885317535091119   T   T   T
  0.7484609138786842  0.5380483886414990  0.4851056038058105   T   T   T
  0.7489576285232155  0.4916226909885163  0.5730082018283382   T   T   T
  0.6485103977363751  0.4374660027567991  0.7112007967162679   T   T   T
  0.5772816906385868  0.7434645956531070  0.4936284331424401   T   T   T
  0.6192554540844384  0.5183157687966542  0.3801816896793397   F   F   F
  0.5055631319105569  0.5596083865148347  0.6500534562075395   T   T   T
  0.4922009500451665  0.4366758245867572  0.4933013002826740   F   F   F
  0.5608844484509063  0.4404139570509003  0.6454865549417619   F   F   F
  0.5773373982595184  0.6161966918692108  0.6135921209506267   T   T   T
  0.5449578970237999  0.6186394493348963  0.3127499154931827   T   T   T
  0.6278674587202860  0.6253846130886579  0.3612586618609612   T   T   T
  0.3768958870031062  0.5592054970359294  0.4139647978017104   T   T   T
  0.4723078164089713  0.4557257050327763  0.5877273803360978   F   F   F
  0.7271525893435797  0.6351242570886833  0.4849206555970393   T   T   T
  0.5022992323794728  0.3692274566031614  0.6834591247583000   T   T   T
  0.3826179198915582  0.4399964866201992  0.6397876040404962   T   T   T
  0.5544592502646992  0.4379899399457940  0.4037542370104745   F   F   F
  0.4333632192958694  0.3617610255418215  0.6085552470525714   T   T   T
  0.5281516714822182  0.3493767472729033  0.5799833007893138   T   T   T
  0.6232448282744933  0.2857363208876766  0.4494343781004373   T   T   T
  0.6341762917852984  0.3422847588256818  0.3981910263372079   T   T   T
  0.6439444162226525  0.3015598338696909  0.4157270886481716   T   T   T
  0.6721966031042367  0.2817745833442920  0.3987351205601174   T   T   T
 
  0.00000000E+00  0.00000000E+00  0.00000000E+00
  0.00000000E+00  0.00000000E+00  0.00000000E+00
  0.00000000E+00  0.00000000E+00  0.00000000E+00
  0.00000000E+00  0.00000000E+00  0.00000000E+00
  0.00000000E+00  0.00000000E+00  0.00000000E+00
  0.00000000E+00  0.00000000E+00  0.00000000E+00
  0.00000000E+00  0.00000000E+00  0.00000000E+00
  0.00000000E+00  0.00000000E+00  0.00000000E+00
  0.00000000E+00  0.00000000E+00  0.00000000E+00
  0.00000000E+00  0.00000000E+00  0.00000000E+00
  0.00000000E+00  0.00000000E+00  0.00000000E+00
  0.00000000E+00  0.00000000E+00  0.00000000E+00
  0.00000000E+00  0.00000000E+00  0.00000000E+00
  0.00000000E+00  0.00000000E+00  0.00000000E+00
  0.00000000E+00  0.00000000E+00  0.00000000E+00
  0.00000000E+00  0.00000000E+00  0.00000000E+00
  0.00000000E+00  0.00000000E+00  0.00000000E+00
  0.00000000E+00  0.00000000E+00  0.00000000E+00
  0.00000000E+00  0.00000000E+00  0.00000000E+00
  0.00000000E+00  0.00000000E+00  0.00000000E+00
  0.00000000E+00  0.00000000E+00  0.00000000E+00
  0.00000000E+00  0.00000000E+00  0.00000000E+00
  0.00000000E+00  0.00000000E+00  0.00000000E+00
  0.00000000E+00  0.00000000E+00  0.00000000E+00
  0.00000000E+00  0.00000000E+00  0.00000000E+00
  0.00000000E+00  0.00000000E+00  0.00000000E+00
  0.00000000E+00  0.00000000E+00  0.00000000E+00
  0.00000000E+00  0.00000000E+00  0.00000000E+00
  0.00000000E+00  0.00000000E+00  0.00000000E+00
  0.00000000E+00  0.00000000E+00  0.00000000E+00
  0.00000000E+00  0.00000000E+00  0.00000000E+00
  0.00000000E+00  0.00000000E+00  0.00000000E+00
  0.00000000E+00  0.00000000E+00  0.00000000E+00
  0.00000000E+00  0.00000000E+00  0.00000000E+00
  0.00000000E+00  0.00000000E+00  0.00000000E+00
  0.00000000E+00  0.00000000E+00  0.00000000E+00
  0.00000000E+00  0.00000000E+00  0.00000000E+00
  0.00000000E+00  0.00000000E+00  0.00000000E+00
  0.00000000E+00  0.00000000E+00  0.00000000E+00
  0.00000000E+00  0.00000000E+00  0.00000000E+00
  0.00000000E+00  0.00000000E+00  0.00000000E+00
  0.00000000E+00  0.00000000E+00  0.00000000E+00
  0.00000000E+00  0.00000000E+00  0.00000000E+00
  0.00000000E+00  0.00000000E+00  0.00000000E+00
  0.00000000E+00  0.00000000E+00  0.00000000E+00
  0.00000000E+00  0.00000000E+00  0.00000000E+00
  0.00000000E+00  0.00000000E+00  0.00000000E+00
  0.00000000E+00  0.00000000E+00  0.00000000E+00
  0.00000000E+00  0.00000000E+00  0.00000000E+00
  0.00000000E+00  0.00000000E+00  0.00000000E+00
  0.00000000E+00  0.00000000E+00  0.00000000E+00
  0.00000000E+00  0.00000000E+00  0.00000000E+00
  0.00000000E+00  0.00000000E+00  0.00000000E+00
  0.00000000E+00  0.00000000E+00  0.00000000E+00
  0.00000000E+00  0.00000000E+00  0.00000000E+00
  0.00000000E+00  0.00000000E+00  0.00000000E+00
  0.00000000E+00  0.00000000E+00  0.00000000E+00
  0.00000000E+00  0.00000000E+00  0.00000000E+00
  0.00000000E+00  0.00000000E+00  0.00000000E+00
  0.00000000E+00  0.00000000E+00  0.00000000E+00
  0.00000000E+00  0.00000000E+00  0.00000000E+00
  0.00000000E+00  0.00000000E+00  0.00000000E+00
  0.00000000E+00  0.00000000E+00  0.00000000E+00
  0.00000000E+00  0.00000000E+00  0.00000000E+00
  0.00000000E+00  0.00000000E+00  0.00000000E+00
  0.00000000E+00  0.00000000E+00  0.00000000E+00
  0.00000000E+00  0.00000000E+00  0.00000000E+00
  0.00000000E+00  0.00000000E+00  0.00000000E+00
  0.00000000E+00  0.00000000E+00  0.00000000E+00
  0.00000000E+00  0.00000000E+00  0.00000000E+00
  0.00000000E+00  0.00000000E+00  0.00000000E+00
  0.00000000E+00  0.00000000E+00  0.00000000E+00
