Bi La Sn O  C  H                        
   1.00000000000000     
    29.0000000000000000    0.0000000000000000    0.0000000000000000
     0.2488180851000000   28.9989325590000000    0.0000000000000000
    -0.0631677343000000   -0.4515975666000000   28.9964147692999994
   Bi   La   Sn   O    C    H 
    22    23    23     2     1     1
Selective dynamics
Direct
  0.7611354047097094  0.4802863535715792  0.4008474117993767   T   T   T
  0.6469246514934004  0.6849821276867156  0.5510993693087242   T   T   T
  0.3609610011906860  0.4576827854157463  0.4281072418675264   T   T   T
  0.5498252847110329  0.7134075689206489  0.5840284167181483   T   T   T
  0.5915029568994470  0.5209714444905416  0.5841479689498996   F   F   F
  0.6396966958939003  0.6795981041983468  0.4449175014905793   T   T   T
  0.6952905132447657  0.5216792663550679  0.6532621221685996   T   T   T
  0.4866624521642743  0.7016025250552469  0.4991327040620405   T   T   T
  0.5004839460855024  0.5502791173970252  0.5477141156400123   F   F   F
  0.3252680130969615  0.4859456160648699  0.5752367362970108   T   T   T
  0.3817769560613256  0.6098708489793093  0.5348648222254992   T   T   T
  0.6667129484492236  0.4827404655721850  0.5105018184570156   F   F   F
  0.5763997220267569  0.4263140504383500  0.5448328182496311   F   F   F
  0.6686244213183096  0.3742526999241370  0.5062161429068041   T   T   T
  0.4631901880784462  0.3387040444600904  0.4995335584412369   T   T   T
  0.6484934028780529  0.5775373212088155  0.4602701624361103   F   F   F
  0.5573503822016928  0.4371184553473619  0.7499509185212944   T   T   T
  0.6024662871695496  0.3504879469401255  0.6686830222352222   T   T   T
  0.4929228448324196  0.2980574646758005  0.4102108761741802   T   T   T
  0.6595619597219320  0.6178230837576975  0.6664251718749974   T   T   T
  0.4924635643152238  0.4093094595763130  0.3058749620305701   T   T   T
  0.6228935163374157  0.3157801667207403  0.5731929968271021   T   T   T
  0.5387581891898710  0.6836017347384279  0.4039835998181971   T   T   T
  0.3903248426210150  0.4151758219930950  0.5272526327391857   T   T   T
  0.6273582791193735  0.5515577980997974  0.2818672796288396   T   T   T
  0.4715310037653497  0.4720963420098378  0.6917971742866144   T   T   T
  0.5683115009887700  0.5094300495444983  0.4784716241115703   F   F   F
  0.4203210565129183  0.5084107200613417  0.5018573595042781   F   F   F
  0.4531837979410344  0.4002991466197163  0.4061375832854112   T   T   T
  0.5633404326646232  0.3489947997573311  0.3545290471330459   T   T   T
  0.4110161771857874  0.5400440944249815  0.6098884616702019   T   T   T
  0.6017247722180636  0.4398943421949242  0.3058442495837949   T   T   T
  0.4549690431335469  0.5996488982854727  0.3631714660716314   T   T   T
  0.4187805684248166  0.4866845659787412  0.3393033463168236   T   T   T
  0.6613546645667200  0.4270993495818912  0.6038715827853753   T   T   T
  0.6733347577935633  0.5788902846864360  0.5638546933715308   T   T   T
  0.5255312642722985  0.5087856304863714  0.3277717608899163   T   T   T
  0.5658980469103163  0.3571930630543800  0.4691534417931687   T   T   T
  0.3156332489726488  0.5404930973043275  0.4910728183393474   T   T   T
  0.6615120220315716  0.4302010040721267  0.4144885047973100   T   T   T
  0.5660841929594156  0.6261437171197244  0.5094829013827464   F   F   F
  0.5954472966683162  0.5284863107013946  0.6898077957375613   T   T   T
  0.4694885178292209  0.6417742067840564  0.5879249342868910   T   T   T
  0.4637153271312430  0.6031869961331163  0.4643035378460841   T   T   T
  0.7160833944335315  0.5749105844796877  0.3829874781650837   T   T   T
  0.5499310510395361  0.5822218838566187  0.4076968008106903   F   F   F
  0.4794126430662260  0.5072205383607624  0.4190535757241776   F   F   F
  0.6979787517236909  0.4827317854159309  0.3231348549163514   T   T   T
  0.7514556362202219  0.4291719763460032  0.4871345290944444   T   T   T
  0.7472000064740774  0.5396608152287277  0.4848806929563514   T   T   T
  0.7490388971875943  0.4900292934798587  0.5717112900231491   T   T   T
  0.6471584715517195  0.4359333192737934  0.7085577116453833   T   T   T
  0.5772321101154477  0.7435061742152183  0.4928758876987833   T   T   T
  0.6192554540844384  0.5183157687966542  0.3801816896793397   F   F   F
  0.5048518909194322  0.5606136375062102  0.6503033872156680   T   T   T
  0.4922009500451665  0.4366758245867572  0.4933013002826740   F   F   F
  0.5608844484509063  0.4404139570509003  0.6454865549417619   F   F   F
  0.5768509483173296  0.6164703432706510  0.6134512021438783   T   T   T
  0.5435935310741058  0.6164459282075757  0.3117403961992755   T   T   T
  0.6266045714648961  0.6252203506496454  0.3594459525694737   T   T   T
  0.3771381692667561  0.5562685091714765  0.4124156317130755   T   T   T
  0.4723078164089713  0.4557257050327763  0.5877273803360978   F   F   F
  0.7267650025756301  0.6365124556218545  0.4849273035907583   T   T   T
  0.5034683921954195  0.3695623911884372  0.6842763575663927   T   T   T
  0.3816692617620087  0.4405953452119381  0.6403120085685094   T   T   T
  0.5544592502646992  0.4379899399457940  0.4037542370104745   F   F   F
  0.4352526795604681  0.3633084099060533  0.6096808549832743   T   T   T
  0.5290996386005725  0.3481941975453121  0.5789022960699746   T   T   T
  0.7913159359021091  0.4214179631603581  0.3299317823228969   T   T   T
  0.7532652985065142  0.4585529028072517  0.2719014293553433   T   T   T
  0.7862267379589921  0.4335994329500122  0.2889625071351786   T   T   T
  0.8126200713406366  0.4223890794131980  0.2629910112873712   T   T   T
 
  0.00000000E+00  0.00000000E+00  0.00000000E+00
  0.00000000E+00  0.00000000E+00  0.00000000E+00
  0.00000000E+00  0.00000000E+00  0.00000000E+00
  0.00000000E+00  0.00000000E+00  0.00000000E+00
  0.00000000E+00  0.00000000E+00  0.00000000E+00
  0.00000000E+00  0.00000000E+00  0.00000000E+00
  0.00000000E+00  0.00000000E+00  0.00000000E+00
  0.00000000E+00  0.00000000E+00  0.00000000E+00
  0.00000000E+00  0.00000000E+00  0.00000000E+00
  0.00000000E+00  0.00000000E+00  0.00000000E+00
  0.00000000E+00  0.00000000E+00  0.00000000E+00
  0.00000000E+00  0.00000000E+00  0.00000000E+00
  0.00000000E+00  0.00000000E+00  0.00000000E+00
  0.00000000E+00  0.00000000E+00  0.00000000E+00
  0.00000000E+00  0.00000000E+00  0.00000000E+00
  0.00000000E+00  0.00000000E+00  0.00000000E+00
  0.00000000E+00  0.00000000E+00  0.00000000E+00
  0.00000000E+00  0.00000000E+00  0.00000000E+00
  0.00000000E+00  0.00000000E+00  0.00000000E+00
  0.00000000E+00  0.00000000E+00  0.00000000E+00
  0.00000000E+00  0.00000000E+00  0.00000000E+00
  0.00000000E+00  0.00000000E+00  0.00000000E+00
  0.00000000E+00  0.00000000E+00  0.00000000E+00
  0.00000000E+00  0.00000000E+00  0.00000000E+00
  0.00000000E+00  0.00000000E+00  0.00000000E+00
  0.00000000E+00  0.00000000E+00  0.00000000E+00
  0.00000000E+00  0.00000000E+00  0.00000000E+00
  0.00000000E+00  0.00000000E+00  0.00000000E+00
  0.00000000E+00  0.00000000E+00  0.00000000E+00
  0.00000000E+00  0.00000000E+00  0.00000000E+00
  0.00000000E+00  0.00000000E+00  0.00000000E+00
  0.00000000E+00  0.00000000E+00  0.00000000E+00
  0.00000000E+00  0.00000000E+00  0.00000000E+00
  0.00000000E+00  0.00000000E+00  0.00000000E+00
  0.00000000E+00  0.00000000E+00  0.00000000E+00
  0.00000000E+00  0.00000000E+00  0.00000000E+00
  0.00000000E+00  0.00000000E+00  0.00000000E+00
  0.00000000E+00  0.00000000E+00  0.00000000E+00
  0.00000000E+00  0.00000000E+00  0.00000000E+00
  0.00000000E+00  0.00000000E+00  0.00000000E+00
  0.00000000E+00  0.00000000E+00  0.00000000E+00
  0.00000000E+00  0.00000000E+00  0.00000000E+00
  0.00000000E+00  0.00000000E+00  0.00000000E+00
  0.00000000E+00  0.00000000E+00  0.00000000E+00
  0.00000000E+00  0.00000000E+00  0.00000000E+00
  0.00000000E+00  0.00000000E+00  0.00000000E+00
  0.00000000E+00  0.00000000E+00  0.00000000E+00
  0.00000000E+00  0.00000000E+00  0.00000000E+00
  0.00000000E+00  0.00000000E+00  0.00000000E+00
  0.00000000E+00  0.00000000E+00  0.00000000E+00
  0.00000000E+00  0.00000000E+00  0.00000000E+00
  0.00000000E+00  0.00000000E+00  0.00000000E+00
  0.00000000E+00  0.00000000E+00  0.00000000E+00
  0.00000000E+00  0.00000000E+00  0.00000000E+00
  0.00000000E+00  0.00000000E+00  0.00000000E+00
  0.00000000E+00  0.00000000E+00  0.00000000E+00
  0.00000000E+00  0.00000000E+00  0.00000000E+00
  0.00000000E+00  0.00000000E+00  0.00000000E+00
  0.00000000E+00  0.00000000E+00  0.00000000E+00
  0.00000000E+00  0.00000000E+00  0.00000000E+00
  0.00000000E+00  0.00000000E+00  0.00000000E+00
  0.00000000E+00  0.00000000E+00  0.00000000E+00
  0.00000000E+00  0.00000000E+00  0.00000000E+00
  0.00000000E+00  0.00000000E+00  0.00000000E+00
  0.00000000E+00  0.00000000E+00  0.00000000E+00
  0.00000000E+00  0.00000000E+00  0.00000000E+00
  0.00000000E+00  0.00000000E+00  0.00000000E+00
  0.00000000E+00  0.00000000E+00  0.00000000E+00
  0.00000000E+00  0.00000000E+00  0.00000000E+00
  0.00000000E+00  0.00000000E+00  0.00000000E+00
  0.00000000E+00  0.00000000E+00  0.00000000E+00
  0.00000000E+00  0.00000000E+00  0.00000000E+00
