Bi La Sn O  C  H                        
   1.00000000000000     
    29.0000000000000000    0.0000000000000000    0.0000000000000000
     0.2488180851000000   28.9989325590000000    0.0000000000000000
    -0.0631677343000000   -0.4515975666000000   28.9964147692999994
   Bi   La   Sn   O    C    H 
    22    23    23     2     1     1
Selective dynamics
Direct
  0.7603796582871968  0.4759775139630842  0.3992534713480829   T   T   T
  0.6463357559911000  0.6839103588920761  0.5534833795923305   T   T   T
  0.3602037584702687  0.4594208366137915  0.4273393194764047   T   T   T
  0.5507543834345109  0.7129726026714494  0.5854750004388383   T   T   T
  0.5915029568994470  0.5209714444905416  0.5841479689498996   F   F   F
  0.6410552416351091  0.6818278804956430  0.4471860877643988   T   T   T
  0.6959514605399151  0.5222094038056738  0.6539043204580399   T   T   T
  0.4861118991481678  0.7004236714021339  0.5007331499388300   T   T   T
  0.5004839460855024  0.5502791173970252  0.5477141156400123   F   F   F
  0.3248455623824803  0.4867000749111226  0.5738224527373829   T   T   T
  0.3831299765774169  0.6112189308607048  0.5352791493460379   T   T   T
  0.6667129484492236  0.4827404655721850  0.5105018184570156   F   F   F
  0.5763997220267569  0.4263140504383500  0.5448328182496311   F   F   F
  0.6681563834160036  0.3733805066767468  0.5060159162663359   T   T   T
  0.4628605365468345  0.3382771994595016  0.4997891676160601   T   T   T
  0.6484934028780529  0.5775373212088155  0.4602701624361103   F   F   F
  0.5589139227306729  0.4364823037939526  0.7491467708633244   T   T   T
  0.6042178847621559  0.3519015774642300  0.6694642514775435   T   T   T
  0.4920177143120337  0.2990809080459108  0.4095967802664955   T   T   T
  0.6603740532361931  0.6186246391309342  0.6654366220912302   T   T   T
  0.4929179549559418  0.4109211343112404  0.3085326402485815   T   T   T
  0.6216256289275337  0.3162551200229158  0.5732599633097891   T   T   T
  0.5396414078109704  0.6837966177711089  0.4056420212727473   T   T   T
  0.3904764622343878  0.4158164540605506  0.5270452879933306   T   T   T
  0.6301098517318418  0.5534897106979741  0.2837931779304126   T   T   T
  0.4712300787091860  0.4704994033191601  0.6918412084674698   T   T   T
  0.5683115009887700  0.5094300495444983  0.4784716241115703   F   F   F
  0.4203210565129183  0.5084107200613417  0.5018573595042781   F   F   F
  0.4520732866128732  0.4006494620178578  0.4074198129733601   T   T   T
  0.5642023582232732  0.3482541937463889  0.3548077346825048   T   T   T
  0.4107217263506340  0.5402262514493934  0.6096422277713137   T   T   T
  0.5991195112876418  0.4427425888901802  0.3044531773802688   T   T   T
  0.4541217778633664  0.6037117029571416  0.3607934039680180   T   T   T
  0.4193207351856371  0.4886288216186001  0.3385394069704394   T   T   T
  0.6613029894345992  0.4281160096164242  0.6037799405164594   T   T   T
  0.6736386826173121  0.5780808713982716  0.5636148165322321   T   T   T
  0.5265445218567253  0.5107373658018858  0.3280071009917310   T   T   T
  0.5652696836464819  0.3573520573429791  0.4690677616173277   T   T   T
  0.3168265108466823  0.5432178842236504  0.4907305806712114   T   T   T
  0.6600637177112573  0.4294427158727860  0.4156843630155765   T   T   T
  0.5660841929594156  0.6261437171197244  0.5094829013827464   F   F   F
  0.5957858604904351  0.5291033152337709  0.6897764514576976   T   T   T
  0.4702036739986964  0.6415689802453642  0.5897732800842290   T   T   T
  0.4631400916914635  0.6029678654205856  0.4635661854605471   T   T   T
  0.7176294071940837  0.5722988068716034  0.3839516357938918   T   T   T
  0.5499310510395361  0.5822218838566187  0.4076968008106903   F   F   F
  0.4794126430662260  0.5072205383607624  0.4190535757241776   F   F   F
  0.6954912491792813  0.4800681676230832  0.3248861335747443   T   T   T
  0.7513317773688750  0.4281778316496591  0.4889672976903527   T   T   T
  0.7488367879934060  0.5367026190555926  0.4849686023689099   T   T   T
  0.7493780846791900  0.4903138044646867  0.5724486757125421   T   T   T
  0.6487313057798326  0.4379379870970702  0.7080841501946885   T   T   T
  0.5762604434308313  0.7432951476535913  0.4940286195534986   T   T   T
  0.6192554540844384  0.5183157687966542  0.3801816896793397   F   F   F
  0.5044991591769022  0.5592266209468226  0.6505267010093709   T   T   T
  0.4922009500451665  0.4366758245867572  0.4933013002826740   F   F   F
  0.5608844484509063  0.4404139570509003  0.6454865549417619   F   F   F
  0.5769272972890840  0.6157513484326819  0.6137664283608297   T   T   T
  0.5462193471194736  0.6192404511096494  0.3134174673044021   T   T   T
  0.6292921638809640  0.6254187932582127  0.3636617080234902   T   T   T
  0.3784318388133343  0.5565776588098592  0.4117125119495864   T   T   T
  0.4723078164089713  0.4557257050327763  0.5877273803360978   F   F   F
  0.7278539217028730  0.6340318151103913  0.4845129541038450   T   T   T
  0.5040021455254980  0.3682686386752482  0.6846540633770559   T   T   T
  0.3805645163160071  0.4415008975094518  0.6395813870764481   T   T   T
  0.5544592502646992  0.4379899399457940  0.4037542370104745   F   F   F
  0.4344911625895571  0.3640615899400018  0.6107906177061062   T   T   T
  0.5280381973377815  0.3492570627551495  0.5796817133292808   T   T   T
  0.4342994310261343  0.6269218524503909  0.2865897118824177   T   T   T
  0.4953758144388188  0.6433761696197181  0.2402141023323140   T   T   T
  0.4533811498022840  0.6427434250386787  0.2495581468964385   T   T   T
  0.4283482476333754  0.6570571839763349  0.2242120268053172   T   T   T
 
  0.00000000E+00  0.00000000E+00  0.00000000E+00
  0.00000000E+00  0.00000000E+00  0.00000000E+00
  0.00000000E+00  0.00000000E+00  0.00000000E+00
  0.00000000E+00  0.00000000E+00  0.00000000E+00
  0.00000000E+00  0.00000000E+00  0.00000000E+00
  0.00000000E+00  0.00000000E+00  0.00000000E+00
  0.00000000E+00  0.00000000E+00  0.00000000E+00
  0.00000000E+00  0.00000000E+00  0.00000000E+00
  0.00000000E+00  0.00000000E+00  0.00000000E+00
  0.00000000E+00  0.00000000E+00  0.00000000E+00
  0.00000000E+00  0.00000000E+00  0.00000000E+00
  0.00000000E+00  0.00000000E+00  0.00000000E+00
  0.00000000E+00  0.00000000E+00  0.00000000E+00
  0.00000000E+00  0.00000000E+00  0.00000000E+00
  0.00000000E+00  0.00000000E+00  0.00000000E+00
  0.00000000E+00  0.00000000E+00  0.00000000E+00
  0.00000000E+00  0.00000000E+00  0.00000000E+00
  0.00000000E+00  0.00000000E+00  0.00000000E+00
  0.00000000E+00  0.00000000E+00  0.00000000E+00
  0.00000000E+00  0.00000000E+00  0.00000000E+00
  0.00000000E+00  0.00000000E+00  0.00000000E+00
  0.00000000E+00  0.00000000E+00  0.00000000E+00
  0.00000000E+00  0.00000000E+00  0.00000000E+00
  0.00000000E+00  0.00000000E+00  0.00000000E+00
  0.00000000E+00  0.00000000E+00  0.00000000E+00
  0.00000000E+00  0.00000000E+00  0.00000000E+00
  0.00000000E+00  0.00000000E+00  0.00000000E+00
  0.00000000E+00  0.00000000E+00  0.00000000E+00
  0.00000000E+00  0.00000000E+00  0.00000000E+00
  0.00000000E+00  0.00000000E+00  0.00000000E+00
  0.00000000E+00  0.00000000E+00  0.00000000E+00
  0.00000000E+00  0.00000000E+00  0.00000000E+00
  0.00000000E+00  0.00000000E+00  0.00000000E+00
  0.00000000E+00  0.00000000E+00  0.00000000E+00
  0.00000000E+00  0.00000000E+00  0.00000000E+00
  0.00000000E+00  0.00000000E+00  0.00000000E+00
  0.00000000E+00  0.00000000E+00  0.00000000E+00
  0.00000000E+00  0.00000000E+00  0.00000000E+00
  0.00000000E+00  0.00000000E+00  0.00000000E+00
  0.00000000E+00  0.00000000E+00  0.00000000E+00
  0.00000000E+00  0.00000000E+00  0.00000000E+00
  0.00000000E+00  0.00000000E+00  0.00000000E+00
  0.00000000E+00  0.00000000E+00  0.00000000E+00
  0.00000000E+00  0.00000000E+00  0.00000000E+00
  0.00000000E+00  0.00000000E+00  0.00000000E+00
  0.00000000E+00  0.00000000E+00  0.00000000E+00
  0.00000000E+00  0.00000000E+00  0.00000000E+00
  0.00000000E+00  0.00000000E+00  0.00000000E+00
  0.00000000E+00  0.00000000E+00  0.00000000E+00
  0.00000000E+00  0.00000000E+00  0.00000000E+00
  0.00000000E+00  0.00000000E+00  0.00000000E+00
  0.00000000E+00  0.00000000E+00  0.00000000E+00
  0.00000000E+00  0.00000000E+00  0.00000000E+00
  0.00000000E+00  0.00000000E+00  0.00000000E+00
  0.00000000E+00  0.00000000E+00  0.00000000E+00
  0.00000000E+00  0.00000000E+00  0.00000000E+00
  0.00000000E+00  0.00000000E+00  0.00000000E+00
  0.00000000E+00  0.00000000E+00  0.00000000E+00
  0.00000000E+00  0.00000000E+00  0.00000000E+00
  0.00000000E+00  0.00000000E+00  0.00000000E+00
  0.00000000E+00  0.00000000E+00  0.00000000E+00
  0.00000000E+00  0.00000000E+00  0.00000000E+00
  0.00000000E+00  0.00000000E+00  0.00000000E+00
  0.00000000E+00  0.00000000E+00  0.00000000E+00
  0.00000000E+00  0.00000000E+00  0.00000000E+00
  0.00000000E+00  0.00000000E+00  0.00000000E+00
  0.00000000E+00  0.00000000E+00  0.00000000E+00
  0.00000000E+00  0.00000000E+00  0.00000000E+00
  0.00000000E+00  0.00000000E+00  0.00000000E+00
  0.00000000E+00  0.00000000E+00  0.00000000E+00
  0.00000000E+00  0.00000000E+00  0.00000000E+00
  0.00000000E+00  0.00000000E+00  0.00000000E+00
