Bi La Sn O  C  H                        
   1.00000000000000     
    29.0000000000000000    0.0000000000000000    0.0000000000000000
     0.2488180851000000   28.9989325590000000    0.0000000000000000
    -0.0631677343000000   -0.4515975666000000   28.9964147692999994
   Bi   La   Sn   O    C    H 
    22    23    23     2     1     1
Selective dynamics
Direct
  0.7596552289696084  0.4789880431524325  0.3993324113359301   T   T   T
  0.6465000294760472  0.6853935607794475  0.5505420148691688   T   T   T
  0.3602771856380633  0.4591281848003673  0.4280713136735233   T   T   T
  0.5498799835216921  0.7138883199164723  0.5839418864844035   T   T   T
  0.5915029568994470  0.5209714444905416  0.5841479689498996   F   F   F
  0.6396619814518205  0.6792928589826428  0.4428801079603942   T   T   T
  0.6958211900239266  0.5225269767010580  0.6523165302912224   T   T   T
  0.4867872878099936  0.7018264487118905  0.4996043441876632   T   T   T
  0.5004839460855024  0.5502791173970252  0.5477141156400123   F   F   F
  0.3256047204478484  0.4867223079530628  0.5752368991455102   T   T   T
  0.3824058285827290  0.6101741282852103  0.5354309246228381   T   T   T
  0.6667129484492236  0.4827404655721850  0.5105018184570156   F   F   F
  0.5763997220267569  0.4263140504383500  0.5448328182496311   F   F   F
  0.6687343985098949  0.3741882650769276  0.5063996857778278   T   T   T
  0.4628455826593494  0.3388954792159766  0.4996008863916055   T   T   T
  0.6484934028780529  0.5775373212088155  0.4602701624361103   F   F   F
  0.5589946912873912  0.4363533961782173  0.7496617550862475   T   T   T
  0.6026428610549749  0.3510496270582910  0.6687748451665383   T   T   T
  0.4916137124657807  0.2990910598311121  0.4098447976852343   T   T   T
  0.6604807169775726  0.6184794038054341  0.6660267944609974   T   T   T
  0.4919832144378082  0.4106904483735606  0.3065879893171716   T   T   T
  0.6216683812648494  0.3162882511637848  0.5728841723422491   T   T   T
  0.5384976359208882  0.6838885210198725  0.4038648519653534   T   T   T
  0.3902735084348265  0.4155595856635752  0.5276253912336527   T   T   T
  0.6289869787155798  0.5517985552287076  0.2818289948541656   T   T   T
  0.4719615085641645  0.4719827291132569  0.6920736239341327   T   T   T
  0.5683115009887700  0.5094300495444983  0.4784716241115703   F   F   F
  0.4203210565129183  0.5084107200613417  0.5018573595042781   F   F   F
  0.4522583182369331  0.4010612228713812  0.4066543495107485   T   T   T
  0.5625819569792113  0.3487509983399710  0.3540597570755453   T   T   T
  0.4114053879181089  0.5403488401745136  0.6102353511355437   T   T   T
  0.5991077905577731  0.4423262703210281  0.3045869322843032   T   T   T
  0.4549744310679092  0.6002523701253301  0.3623515959895823   T   T   T
  0.4184829567821441  0.4878186525157911  0.3394700091725872   T   T   T
  0.6614344427949785  0.4275796717976799  0.6040625303351908   T   T   T
  0.6737000004913924  0.5800173367188999  0.5629543853287251   T   T   T
  0.5267158630447965  0.5095547257535207  0.3280745480348820   T   T   T
  0.5654741274053420  0.3573868188542341  0.4689815498402495   T   T   T
  0.3158778128513040  0.5418546065826166  0.4914365095016755   T   T   T
  0.6603243118585486  0.4297619927045875  0.4153472589724468   T   T   T
  0.5660841929594156  0.6261437171197244  0.5094829013827464   F   F   F
  0.5963896335077318  0.5284439500210697  0.6896986296088560   T   T   T
  0.4704082902778980  0.6417475730924085  0.5882050715661734   T   T   T
  0.4636199002908060  0.6039734792662776  0.4640957745626555   T   T   T
  0.7168631408733770  0.5745171495770892  0.3835792949846079   T   T   T
  0.5499310510395361  0.5822218838566187  0.4076968008106903   F   F   F
  0.4794126430662260  0.5072205383607624  0.4190535757241776   F   F   F
  0.6954070418272427  0.4810099115888798  0.3244278622121008   T   T   T
  0.7515818462338060  0.4297883721953276  0.4870002038468048   T   T   T
  0.7471081891655508  0.5412596949180392  0.4848442669841460   T   T   T
  0.7491917980138041  0.4903539752605772  0.5709795384466152   T   T   T
  0.6482566007041405  0.4363276787021796  0.7080646049491529   T   T   T
  0.5780036710718855  0.7428430451369233  0.4925480929804470   T   T   T
  0.6192554540844384  0.5183157687966542  0.3801816896793397   F   F   F
  0.5057828585227676  0.5602850817545236  0.6502031718713533   T   T   T
  0.4922009500451665  0.4366758245867572  0.4933013002826740   F   F   F
  0.5608844484509063  0.4404139570509003  0.6454865549417619   F   F   F
  0.5777717361926552  0.6167894717274589  0.6134539930990843   T   T   T
  0.5449220369501200  0.6174189745285374  0.3119271908691359   T   T   T
  0.6280502683502666  0.6243734602188936  0.3589945276505965   T   T   T
  0.3771883942288801  0.5574819079102978  0.4126136403407565   T   T   T
  0.4723078164089713  0.4557257050327763  0.5877273803360978   F   F   F
  0.7260554773454623  0.6427250009303003  0.4829375988708012   T   T   T
  0.5030682303194327  0.3692127962742947  0.6854258804065045   T   T   T
  0.3813391041895752  0.4414152781070180  0.6408187368138257   T   T   T
  0.5544592502646992  0.4379899399457940  0.4037542370104745   F   F   F
  0.4346048250924586  0.3641185763400494  0.6110332833289236   T   T   T
  0.5279068807729499  0.3493533810491692  0.5797306946086551   T   T   T
  0.7563886391107453  0.7139498670035570  0.4961574155239976   T   T   T
  0.6991866583707503  0.7551015577178236  0.4598015528362270   T   T   T
  0.7361839693658488  0.7511808911810685  0.4817375163311481   T   T   T
  0.7554616504199339  0.7832545139813168  0.4908401472205023   T   T   T
 
  0.00000000E+00  0.00000000E+00  0.00000000E+00
  0.00000000E+00  0.00000000E+00  0.00000000E+00
  0.00000000E+00  0.00000000E+00  0.00000000E+00
  0.00000000E+00  0.00000000E+00  0.00000000E+00
  0.00000000E+00  0.00000000E+00  0.00000000E+00
  0.00000000E+00  0.00000000E+00  0.00000000E+00
  0.00000000E+00  0.00000000E+00  0.00000000E+00
  0.00000000E+00  0.00000000E+00  0.00000000E+00
  0.00000000E+00  0.00000000E+00  0.00000000E+00
  0.00000000E+00  0.00000000E+00  0.00000000E+00
  0.00000000E+00  0.00000000E+00  0.00000000E+00
  0.00000000E+00  0.00000000E+00  0.00000000E+00
  0.00000000E+00  0.00000000E+00  0.00000000E+00
  0.00000000E+00  0.00000000E+00  0.00000000E+00
  0.00000000E+00  0.00000000E+00  0.00000000E+00
  0.00000000E+00  0.00000000E+00  0.00000000E+00
  0.00000000E+00  0.00000000E+00  0.00000000E+00
  0.00000000E+00  0.00000000E+00  0.00000000E+00
  0.00000000E+00  0.00000000E+00  0.00000000E+00
  0.00000000E+00  0.00000000E+00  0.00000000E+00
  0.00000000E+00  0.00000000E+00  0.00000000E+00
  0.00000000E+00  0.00000000E+00  0.00000000E+00
  0.00000000E+00  0.00000000E+00  0.00000000E+00
  0.00000000E+00  0.00000000E+00  0.00000000E+00
  0.00000000E+00  0.00000000E+00  0.00000000E+00
  0.00000000E+00  0.00000000E+00  0.00000000E+00
  0.00000000E+00  0.00000000E+00  0.00000000E+00
  0.00000000E+00  0.00000000E+00  0.00000000E+00
  0.00000000E+00  0.00000000E+00  0.00000000E+00
  0.00000000E+00  0.00000000E+00  0.00000000E+00
  0.00000000E+00  0.00000000E+00  0.00000000E+00
  0.00000000E+00  0.00000000E+00  0.00000000E+00
  0.00000000E+00  0.00000000E+00  0.00000000E+00
  0.00000000E+00  0.00000000E+00  0.00000000E+00
  0.00000000E+00  0.00000000E+00  0.00000000E+00
  0.00000000E+00  0.00000000E+00  0.00000000E+00
  0.00000000E+00  0.00000000E+00  0.00000000E+00
  0.00000000E+00  0.00000000E+00  0.00000000E+00
  0.00000000E+00  0.00000000E+00  0.00000000E+00
  0.00000000E+00  0.00000000E+00  0.00000000E+00
  0.00000000E+00  0.00000000E+00  0.00000000E+00
  0.00000000E+00  0.00000000E+00  0.00000000E+00
  0.00000000E+00  0.00000000E+00  0.00000000E+00
  0.00000000E+00  0.00000000E+00  0.00000000E+00
  0.00000000E+00  0.00000000E+00  0.00000000E+00
  0.00000000E+00  0.00000000E+00  0.00000000E+00
  0.00000000E+00  0.00000000E+00  0.00000000E+00
  0.00000000E+00  0.00000000E+00  0.00000000E+00
  0.00000000E+00  0.00000000E+00  0.00000000E+00
  0.00000000E+00  0.00000000E+00  0.00000000E+00
  0.00000000E+00  0.00000000E+00  0.00000000E+00
  0.00000000E+00  0.00000000E+00  0.00000000E+00
  0.00000000E+00  0.00000000E+00  0.00000000E+00
  0.00000000E+00  0.00000000E+00  0.00000000E+00
  0.00000000E+00  0.00000000E+00  0.00000000E+00
  0.00000000E+00  0.00000000E+00  0.00000000E+00
  0.00000000E+00  0.00000000E+00  0.00000000E+00
  0.00000000E+00  0.00000000E+00  0.00000000E+00
  0.00000000E+00  0.00000000E+00  0.00000000E+00
  0.00000000E+00  0.00000000E+00  0.00000000E+00
  0.00000000E+00  0.00000000E+00  0.00000000E+00
  0.00000000E+00  0.00000000E+00  0.00000000E+00
  0.00000000E+00  0.00000000E+00  0.00000000E+00
  0.00000000E+00  0.00000000E+00  0.00000000E+00
  0.00000000E+00  0.00000000E+00  0.00000000E+00
  0.00000000E+00  0.00000000E+00  0.00000000E+00
  0.00000000E+00  0.00000000E+00  0.00000000E+00
  0.00000000E+00  0.00000000E+00  0.00000000E+00
  0.00000000E+00  0.00000000E+00  0.00000000E+00
  0.00000000E+00  0.00000000E+00  0.00000000E+00
  0.00000000E+00  0.00000000E+00  0.00000000E+00
  0.00000000E+00  0.00000000E+00  0.00000000E+00
