Bi La Sn O  C  H                        
   1.00000000000000     
    29.0000000000000000    0.0000000000000000    0.0000000000000000
     0.2488180851000000   28.9989325590000000    0.0000000000000000
    -0.0631677343000000   -0.4515975666000000   28.9964147692999994
   Bi   La   Sn   O    C    H 
    22    23    23     2     1     1
Selective dynamics
Direct
  0.7600206594581784  0.4769263399237157  0.3993509592742199   T   T   T
  0.6490057938506614  0.6843471524699091  0.5497082659312396   T   T   T
  0.3605430341403120  0.4587013233556976  0.4274787560449684   T   T   T
  0.5536943157648285  0.7141344226299742  0.5836362972665876   T   T   T
  0.5915029568994470  0.5209714444905416  0.5841479689498996   F   F   F
  0.6406807097344160  0.6799353577317997  0.4447645327007140   T   T   T
  0.6964755068426595  0.5191065665553578  0.6533860844909526   T   T   T
  0.4874877686188533  0.7016534523555598  0.4986547691758114   T   T   T
  0.5004839460855024  0.5502791173970252  0.5477141156400123   F   F   F
  0.3301325182416127  0.4858842351836356  0.5785237190597481   T   T   T
  0.3855154815107781  0.6086450857106376  0.5391223129687972   T   T   T
  0.6667129484492236  0.4827404655721850  0.5105018184570156   F   F   F
  0.5763997220267569  0.4263140504383500  0.5448328182496311   F   F   F
  0.6681002369788873  0.3733605577120147  0.5067446844637336   T   T   T
  0.4606251447856585  0.3376759708593722  0.4941672701806053   T   T   T
  0.6484934028780529  0.5775373212088155  0.4602701624361103   F   F   F
  0.5546005907327348  0.4335439535180064  0.7492782464370865   T   T   T
  0.5901970321627655  0.3485616109965154  0.6668396031709001   T   T   T
  0.4928842559028790  0.3004661965871962  0.4047088261415083   T   T   T
  0.6623366214792242  0.6149261035475845  0.6680190911378022   T   T   T
  0.4924851397666076  0.4106762003647806  0.3046674352841371   T   T   T
  0.6182712053705323  0.3168433110164388  0.5721505201346262   T   T   T
  0.5400848282126609  0.6837931505036906  0.4040073374597576   T   T   T
  0.3897756369531789  0.4154505123292901  0.5253097145680129   T   T   T
  0.6287058211084304  0.5515869316708258  0.2824031887440963   T   T   T
  0.4738155712037849  0.4817568669705844  0.6930373680676111   T   T   T
  0.5683115009887700  0.5094300495444983  0.4784716241115703   F   F   F
  0.4203210565129183  0.5084107200613417  0.5018573595042781   F   F   F
  0.4527170671115654  0.4019995422960105  0.4042195717968363   T   T   T
  0.5649695402447448  0.3497434561744093  0.3518607911738705   T   T   T
  0.4147650892593422  0.5395941714424857  0.6138065523855347   T   T   T
  0.5990520107344043  0.4424449300940284  0.3045795025854890   T   T   T
  0.4547604630411066  0.6001793154817451  0.3634064965378824   T   T   T
  0.4188764128975144  0.4880476455192541  0.3393140966958612   T   T   T
  0.6603234025952398  0.4258024981736520  0.6046109070314655   T   T   T
  0.6748070497841986  0.5780083101708864  0.5640939560213400   T   T   T
  0.5259557599554825  0.5096393430992013  0.3280345056099153   T   T   T
  0.5650296836234340  0.3565172208180119  0.4690113768986870   T   T   T
  0.3126422141291513  0.5431522522248565  0.4943532773897470   T   T   T
  0.6596830014189137  0.4290287742919667  0.4158111802340478   T   T   T
  0.5660841929594156  0.6261437171197244  0.5094829013827464   F   F   F
  0.5970787287087768  0.5260220279181045  0.6902389234849838   T   T   T
  0.4728699771179887  0.6435947574982329  0.5881542014621138   T   T   T
  0.4624963531228241  0.6037703568625459  0.4638181409116492   T   T   T
  0.7169048776980550  0.5727922068302032  0.3836075368681819   T   T   T
  0.5499310510395361  0.5822218838566187  0.4076968008106903   F   F   F
  0.4794126430662260  0.5072205383607624  0.4190535757241776   F   F   F
  0.6951818001694448  0.4799613137203588  0.3249563986921478   T   T   T
  0.7511380125062349  0.4274428009972146  0.4874738381465606   T   T   T
  0.7490737928016931  0.5370430553984009  0.4855269598265501   T   T   T
  0.7494452745598165  0.4878818527334458  0.5716220203941743   T   T   T
  0.6441643369611898  0.4293592570134018  0.7086067485906629   T   T   T
  0.5779976163982400  0.7435384099328172  0.4921540894094739   T   T   T
  0.6192554540844384  0.5183157687966542  0.3801816896793397   F   F   F
  0.5096329259273007  0.5655193248987599  0.6501561649658170   T   T   T
  0.4922009500451665  0.4366758245867572  0.4933013002826740   F   F   F
  0.5608844484509063  0.4404139570509003  0.6454865549417619   F   F   F
  0.5814208312297596  0.6180023724481269  0.6128712829780431   T   T   T
  0.5448079106076233  0.6171585928571653  0.3125792182771288   T   T   T
  0.6282833222783996  0.6242483654570515  0.3602468420707103   T   T   T
  0.3768850888669003  0.5565871939737813  0.4135589985040828   T   T   T
  0.4723078164089713  0.4557257050327763  0.5877273803360978   F   F   F
  0.7283053531643465  0.6339124955022615  0.4836274466888552   T   T   T
  0.4901079920201966  0.3787776216855465  0.6762300970230057   T   T   T
  0.3885019579030350  0.4366845339156419  0.6410753084678504   T   T   T
  0.5544592502646992  0.4379899399457940  0.4037542370104745   F   F   F
  0.4280449287244721  0.3543955680901036  0.6013784297776692   T   T   T
  0.5232263761799670  0.3506622176587956  0.5752262861963010   T   T   T
  0.2549742809851804  0.5985565912888635  0.5285175387335983   T   T   T
  0.2352725284120897  0.5596037765085623  0.4638382879209044   T   T   T
  0.2268001599135936  0.5896970753082486  0.4958458221833095   T   T   T
  0.1935300097229097  0.6090124539340392  0.4945708035345612   T   T   T
 
  0.00000000E+00  0.00000000E+00  0.00000000E+00
  0.00000000E+00  0.00000000E+00  0.00000000E+00
  0.00000000E+00  0.00000000E+00  0.00000000E+00
  0.00000000E+00  0.00000000E+00  0.00000000E+00
  0.00000000E+00  0.00000000E+00  0.00000000E+00
  0.00000000E+00  0.00000000E+00  0.00000000E+00
  0.00000000E+00  0.00000000E+00  0.00000000E+00
  0.00000000E+00  0.00000000E+00  0.00000000E+00
  0.00000000E+00  0.00000000E+00  0.00000000E+00
  0.00000000E+00  0.00000000E+00  0.00000000E+00
  0.00000000E+00  0.00000000E+00  0.00000000E+00
  0.00000000E+00  0.00000000E+00  0.00000000E+00
  0.00000000E+00  0.00000000E+00  0.00000000E+00
  0.00000000E+00  0.00000000E+00  0.00000000E+00
  0.00000000E+00  0.00000000E+00  0.00000000E+00
  0.00000000E+00  0.00000000E+00  0.00000000E+00
  0.00000000E+00  0.00000000E+00  0.00000000E+00
  0.00000000E+00  0.00000000E+00  0.00000000E+00
  0.00000000E+00  0.00000000E+00  0.00000000E+00
  0.00000000E+00  0.00000000E+00  0.00000000E+00
  0.00000000E+00  0.00000000E+00  0.00000000E+00
  0.00000000E+00  0.00000000E+00  0.00000000E+00
  0.00000000E+00  0.00000000E+00  0.00000000E+00
  0.00000000E+00  0.00000000E+00  0.00000000E+00
  0.00000000E+00  0.00000000E+00  0.00000000E+00
  0.00000000E+00  0.00000000E+00  0.00000000E+00
  0.00000000E+00  0.00000000E+00  0.00000000E+00
  0.00000000E+00  0.00000000E+00  0.00000000E+00
  0.00000000E+00  0.00000000E+00  0.00000000E+00
  0.00000000E+00  0.00000000E+00  0.00000000E+00
  0.00000000E+00  0.00000000E+00  0.00000000E+00
  0.00000000E+00  0.00000000E+00  0.00000000E+00
  0.00000000E+00  0.00000000E+00  0.00000000E+00
  0.00000000E+00  0.00000000E+00  0.00000000E+00
  0.00000000E+00  0.00000000E+00  0.00000000E+00
  0.00000000E+00  0.00000000E+00  0.00000000E+00
  0.00000000E+00  0.00000000E+00  0.00000000E+00
  0.00000000E+00  0.00000000E+00  0.00000000E+00
  0.00000000E+00  0.00000000E+00  0.00000000E+00
  0.00000000E+00  0.00000000E+00  0.00000000E+00
  0.00000000E+00  0.00000000E+00  0.00000000E+00
  0.00000000E+00  0.00000000E+00  0.00000000E+00
  0.00000000E+00  0.00000000E+00  0.00000000E+00
  0.00000000E+00  0.00000000E+00  0.00000000E+00
  0.00000000E+00  0.00000000E+00  0.00000000E+00
  0.00000000E+00  0.00000000E+00  0.00000000E+00
  0.00000000E+00  0.00000000E+00  0.00000000E+00
  0.00000000E+00  0.00000000E+00  0.00000000E+00
  0.00000000E+00  0.00000000E+00  0.00000000E+00
  0.00000000E+00  0.00000000E+00  0.00000000E+00
  0.00000000E+00  0.00000000E+00  0.00000000E+00
  0.00000000E+00  0.00000000E+00  0.00000000E+00
  0.00000000E+00  0.00000000E+00  0.00000000E+00
  0.00000000E+00  0.00000000E+00  0.00000000E+00
  0.00000000E+00  0.00000000E+00  0.00000000E+00
  0.00000000E+00  0.00000000E+00  0.00000000E+00
  0.00000000E+00  0.00000000E+00  0.00000000E+00
  0.00000000E+00  0.00000000E+00  0.00000000E+00
  0.00000000E+00  0.00000000E+00  0.00000000E+00
  0.00000000E+00  0.00000000E+00  0.00000000E+00
  0.00000000E+00  0.00000000E+00  0.00000000E+00
  0.00000000E+00  0.00000000E+00  0.00000000E+00
  0.00000000E+00  0.00000000E+00  0.00000000E+00
  0.00000000E+00  0.00000000E+00  0.00000000E+00
  0.00000000E+00  0.00000000E+00  0.00000000E+00
  0.00000000E+00  0.00000000E+00  0.00000000E+00
  0.00000000E+00  0.00000000E+00  0.00000000E+00
  0.00000000E+00  0.00000000E+00  0.00000000E+00
  0.00000000E+00  0.00000000E+00  0.00000000E+00
  0.00000000E+00  0.00000000E+00  0.00000000E+00
  0.00000000E+00  0.00000000E+00  0.00000000E+00
  0.00000000E+00  0.00000000E+00  0.00000000E+00
