Bi La Sn O  C  H                        
   1.00000000000000     
    29.0000000000000000    0.0000000000000000    0.0000000000000000
     0.2488180851000000   28.9989325590000000    0.0000000000000000
    -0.0631677343000000   -0.4515975666000000   28.9964147692999994
   Bi   La   Sn   O    C    H 
    22    23    23     2     1     1
Selective dynamics
Direct
  0.7622414489467249  0.4750821038833799  0.4002026812233062   T   T   T
  0.6492178025960654  0.6834160683612431  0.5500209732513384   T   T   T
  0.3606574138334826  0.4588199824193251  0.4262361400859218   T   T   T
  0.5543966832319086  0.7137424764814938  0.5852924031236476   T   T   T
  0.5915029568994470  0.5209714444905416  0.5841479689498996   F   F   F
  0.6412714304891245  0.6794932457607249  0.4438464767304469   T   T   T
  0.6952155574378450  0.5197281526841376  0.6543690344331207   T   T   T
  0.4893090766280099  0.7044639217189711  0.5007002775981100   T   T   T
  0.5004839460855024  0.5502791173970252  0.5477141156400123   F   F   F
  0.3278013632294300  0.4864793553575988  0.5755350202445246   T   T   T
  0.3838632631902174  0.6094468255198571  0.5382823087015636   T   T   T
  0.6667129484492236  0.4827404655721850  0.5105018184570156   F   F   F
  0.5763997220267569  0.4263140504383500  0.5448328182496311   F   F   F
  0.6682067413012945  0.3739417472916745  0.5063014947111173   T   T   T
  0.4614539365305519  0.3368747539894377  0.4957788639745781   T   T   T
  0.6484934028780529  0.5775373212088155  0.4602701624361103   F   F   F
  0.5545858993945733  0.4347695198367430  0.7500487544502913   T   T   T
  0.5935542703545902  0.3484347730516734  0.6675256450449353   T   T   T
  0.4944365391421676  0.3009294512413952  0.4053694208581612   T   T   T
  0.6613728539166582  0.6153781327646486  0.6680232908437068   T   T   T
  0.4982351390728003  0.4077554490115358  0.3099562951877239   T   T   T
  0.6211685444133124  0.3161839667633191  0.5729679099424198   T   T   T
  0.5374163943387150  0.6849930331236928  0.4031832818331897   T   T   T
  0.3899167459665115  0.4147124820813490  0.5250652389800586   T   T   T
  0.6315282619744002  0.5498710816483255  0.2821973767551186   T   T   T
  0.4721064721053516  0.4786411000085156  0.6922685203811136   T   T   T
  0.5683115009887700  0.5094300495444983  0.4784716241115703   F   F   F
  0.4203210565129183  0.5084107200613417  0.5018573595042781   F   F   F
  0.4526216470302171  0.4010412511445244  0.4064657102288987   T   T   T
  0.5719063810960963  0.3470497023491840  0.3568850378153447   T   T   T
  0.4133427099433105  0.5395164749891423  0.6124490606729451   T   T   T
  0.6022722271786944  0.4398363103592492  0.3065123725141394   T   T   T
  0.4547227998575830  0.6049364968495441  0.3528663498041019   T   T   T
  0.4227617184779432  0.4846550358433729  0.3373938955001020   T   T   T
  0.6601422040923572  0.4262138336043113  0.6045503241327022   T   T   T
  0.6746615146996235  0.5786853304736865  0.5643300601196433   T   T   T
  0.5265530740671703  0.5099386813067645  0.3274687514147772   T   T   T
  0.5654394341099386  0.3566198688467896  0.4698731368328262   T   T   T
  0.3188547287427694  0.5418037153166171  0.4907411150422830   T   T   T
  0.6601584276302590  0.4293776957286858  0.4152887106170313   T   T   T
  0.5660841929594156  0.6261437171197244  0.5094829013827464   F   F   F
  0.5957657300575837  0.5266155418202844  0.6905442928771049   T   T   T
  0.4724032596765674  0.6433617044659952  0.5880927468149503   T   T   T
  0.4642014952115727  0.6065079462170914  0.4652594121534641   T   T   T
  0.7185354049436545  0.5710085819913022  0.3846418687167940   T   T   T
  0.5499310510395361  0.5822218838566187  0.4076968008106903   F   F   F
  0.4794126430662260  0.5072205383607624  0.4190535757241776   F   F   F
  0.6979175519443745  0.4794031326893706  0.3257856326504432   T   T   T
  0.7519503371795402  0.4271735444787481  0.4887764894803194   T   T   T
  0.7491157518631183  0.5361763105478515  0.4859962900705735   T   T   T
  0.7479669202666618  0.4886578854472540  0.5730108958420277   T   T   T
  0.6440648709731704  0.4307872941294618  0.7087672652460787   T   T   T
  0.5810129555723852  0.7430234522087388  0.4932355581838195   T   T   T
  0.6192554540844384  0.5183157687966542  0.3801816896793397   F   F   F
  0.5075486297174370  0.5641304419942574  0.6503084913890324   T   T   T
  0.4922009500451665  0.4366758245867572  0.4933013002826740   F   F   F
  0.5608844484509063  0.4404139570509003  0.6454865549417619   F   F   F
  0.5800065127314206  0.6169797872066939  0.6133602876696659   T   T   T
  0.5505689392350557  0.6169530163616084  0.3122431901956441   T   T   T
  0.6320532660765794  0.6234252487997477  0.3599728200704532   T   T   T
  0.3809804009398300  0.5546593390553900  0.4104501775230857   T   T   T
  0.4723078164089713  0.4557257050327763  0.5877273803360978   F   F   F
  0.7281411228863338  0.6338220626128365  0.4825759234854475   T   T   T
  0.4943293268484418  0.3756870394363125  0.6796106026294405   T   T   T
  0.3847940546048047  0.4381239322240435  0.6393944200782348   T   T   T
  0.5544592502646992  0.4379899399457940  0.4037542370104745   F   F   F
  0.4315065613947163  0.3576912706704358  0.6035541786822356   T   T   T
  0.5261002167774321  0.3488562074579465  0.5759409655985726   T   T   T
  0.4147685813528108  0.6467196603908888  0.4136226846728582   T   T   T
  0.4646052929961609  0.6894230481528663  0.3698856777653888   T   T   T
  0.4427781519129727  0.6847214802683014  0.4121796115633942   T   T   T
  0.4254269860766917  0.7165674305680986  0.4242394880872022   T   T   T
 
  0.00000000E+00  0.00000000E+00  0.00000000E+00
  0.00000000E+00  0.00000000E+00  0.00000000E+00
  0.00000000E+00  0.00000000E+00  0.00000000E+00
  0.00000000E+00  0.00000000E+00  0.00000000E+00
  0.00000000E+00  0.00000000E+00  0.00000000E+00
  0.00000000E+00  0.00000000E+00  0.00000000E+00
  0.00000000E+00  0.00000000E+00  0.00000000E+00
  0.00000000E+00  0.00000000E+00  0.00000000E+00
  0.00000000E+00  0.00000000E+00  0.00000000E+00
  0.00000000E+00  0.00000000E+00  0.00000000E+00
  0.00000000E+00  0.00000000E+00  0.00000000E+00
  0.00000000E+00  0.00000000E+00  0.00000000E+00
  0.00000000E+00  0.00000000E+00  0.00000000E+00
  0.00000000E+00  0.00000000E+00  0.00000000E+00
  0.00000000E+00  0.00000000E+00  0.00000000E+00
  0.00000000E+00  0.00000000E+00  0.00000000E+00
  0.00000000E+00  0.00000000E+00  0.00000000E+00
  0.00000000E+00  0.00000000E+00  0.00000000E+00
  0.00000000E+00  0.00000000E+00  0.00000000E+00
  0.00000000E+00  0.00000000E+00  0.00000000E+00
  0.00000000E+00  0.00000000E+00  0.00000000E+00
  0.00000000E+00  0.00000000E+00  0.00000000E+00
  0.00000000E+00  0.00000000E+00  0.00000000E+00
  0.00000000E+00  0.00000000E+00  0.00000000E+00
  0.00000000E+00  0.00000000E+00  0.00000000E+00
  0.00000000E+00  0.00000000E+00  0.00000000E+00
  0.00000000E+00  0.00000000E+00  0.00000000E+00
  0.00000000E+00  0.00000000E+00  0.00000000E+00
  0.00000000E+00  0.00000000E+00  0.00000000E+00
  0.00000000E+00  0.00000000E+00  0.00000000E+00
  0.00000000E+00  0.00000000E+00  0.00000000E+00
  0.00000000E+00  0.00000000E+00  0.00000000E+00
  0.00000000E+00  0.00000000E+00  0.00000000E+00
  0.00000000E+00  0.00000000E+00  0.00000000E+00
  0.00000000E+00  0.00000000E+00  0.00000000E+00
  0.00000000E+00  0.00000000E+00  0.00000000E+00
  0.00000000E+00  0.00000000E+00  0.00000000E+00
  0.00000000E+00  0.00000000E+00  0.00000000E+00
  0.00000000E+00  0.00000000E+00  0.00000000E+00
  0.00000000E+00  0.00000000E+00  0.00000000E+00
  0.00000000E+00  0.00000000E+00  0.00000000E+00
  0.00000000E+00  0.00000000E+00  0.00000000E+00
  0.00000000E+00  0.00000000E+00  0.00000000E+00
  0.00000000E+00  0.00000000E+00  0.00000000E+00
  0.00000000E+00  0.00000000E+00  0.00000000E+00
  0.00000000E+00  0.00000000E+00  0.00000000E+00
  0.00000000E+00  0.00000000E+00  0.00000000E+00
  0.00000000E+00  0.00000000E+00  0.00000000E+00
  0.00000000E+00  0.00000000E+00  0.00000000E+00
  0.00000000E+00  0.00000000E+00  0.00000000E+00
  0.00000000E+00  0.00000000E+00  0.00000000E+00
  0.00000000E+00  0.00000000E+00  0.00000000E+00
  0.00000000E+00  0.00000000E+00  0.00000000E+00
  0.00000000E+00  0.00000000E+00  0.00000000E+00
  0.00000000E+00  0.00000000E+00  0.00000000E+00
  0.00000000E+00  0.00000000E+00  0.00000000E+00
  0.00000000E+00  0.00000000E+00  0.00000000E+00
  0.00000000E+00  0.00000000E+00  0.00000000E+00
  0.00000000E+00  0.00000000E+00  0.00000000E+00
  0.00000000E+00  0.00000000E+00  0.00000000E+00
  0.00000000E+00  0.00000000E+00  0.00000000E+00
  0.00000000E+00  0.00000000E+00  0.00000000E+00
  0.00000000E+00  0.00000000E+00  0.00000000E+00
  0.00000000E+00  0.00000000E+00  0.00000000E+00
  0.00000000E+00  0.00000000E+00  0.00000000E+00
  0.00000000E+00  0.00000000E+00  0.00000000E+00
  0.00000000E+00  0.00000000E+00  0.00000000E+00
  0.00000000E+00  0.00000000E+00  0.00000000E+00
  0.00000000E+00  0.00000000E+00  0.00000000E+00
  0.00000000E+00  0.00000000E+00  0.00000000E+00
  0.00000000E+00  0.00000000E+00  0.00000000E+00
  0.00000000E+00  0.00000000E+00  0.00000000E+00
