Bi La Sn O  C  H                        
   1.00000000000000     
    29.0000000000000000    0.0000000000000000    0.0000000000000000
     0.2488180851000000   28.9989325590000000    0.0000000000000000
    -0.0631677343000000   -0.4515975666000000   28.9964147692999994
   Bi   La   Sn   O    C    H 
    22    23    23     2     1     1
Selective dynamics
Direct
  0.7607324740755030  0.4755754992692048  0.3978375920786327   T   T   T
  0.6466838451907168  0.6844494978323322  0.5523551134461963   T   T   T
  0.3595125721265955  0.4584837001099620  0.4288982287544894   T   T   T
  0.5501670668041544  0.7131004251144786  0.5840941870966153   T   T   T
  0.5915029568994470  0.5209714444905416  0.5841479689498996   F   F   F
  0.6399805231472862  0.6800987452872507  0.4457577292112406   T   T   T
  0.6960882361185533  0.5223805636286543  0.6538854613281961   T   T   T
  0.4860652135960458  0.7011006664812072  0.4991360844011090   T   T   T
  0.5004839460855024  0.5502791173970252  0.5477141156400123   F   F   F
  0.3249050894767336  0.4862656905074132  0.5736254958757608   T   T   T
  0.3817933643508905  0.6108496238393544  0.5342100330048725   T   T   T
  0.6667129484492236  0.4827404655721850  0.5105018184570156   F   F   F
  0.5763997220267569  0.4263140504383500  0.5448328182496311   F   F   F
  0.6690307710994176  0.3762245593989177  0.5087548998277245   T   T   T
  0.4639074256586731  0.3388182425914837  0.5000648833832371   T   T   T
  0.6484934028780529  0.5775373212088155  0.4602701624361103   F   F   F
  0.5582631829025270  0.4378149910905849  0.7497618463168590   T   T   T
  0.6048716419795108  0.3515448319916381  0.6686240928162509   T   T   T
  0.4923240742602433  0.2992792029633453  0.4102090718859780   T   T   T
  0.6600897379899240  0.6184694759229433  0.6660196165079010   T   T   T
  0.4917848531148523  0.4099968579379739  0.3072555698987635   T   T   T
  0.6217239054839112  0.3161160063315683  0.5726766316393421   T   T   T
  0.5390842263118756  0.6835191451045055  0.4040381343356082   T   T   T
  0.3908828358899366  0.4150266690500614  0.5279059329041833   T   T   T
  0.6293171513748242  0.5517264148720475  0.2823997663056916   T   T   T
  0.4712532634979329  0.4705225490380033  0.6913044937373195   T   T   T
  0.5683115009887700  0.5094300495444983  0.4784716241115703   F   F   F
  0.4203210565129183  0.5084107200613417  0.5018573595042781   F   F   F
  0.4519096328062293  0.4008219697196577  0.4069504823995954   T   T   T
  0.5637214101809767  0.3484438681423095  0.3539606127576241   T   T   T
  0.4105183308664759  0.5406746759820968  0.6089308963971772   T   T   T
  0.5980984155075358  0.4424196646429449  0.3041674667249626   T   T   T
  0.4552560874555319  0.6001372730121635  0.3629129005466335   T   T   T
  0.4180231509320412  0.4866999233678354  0.3404064319109530   T   T   T
  0.6612913964186085  0.4290515320405986  0.6054046336159385   T   T   T
  0.6734439906049818  0.5780540056102482  0.5638789959122049   T   T   T
  0.5264931288113467  0.5095014193548884  0.3279651276478534   T   T   T
  0.5665062826038634  0.3574154224690511  0.4687008545288309   T   T   T
  0.3149192311406756  0.5422060045857380  0.4906078311718237   T   T   T
  0.6606313168535747  0.4293887241081219  0.4158500640472136   T   T   T
  0.5660841929594156  0.6261437171197244  0.5094829013827464   F   F   F
  0.5956319006644479  0.5291500116079905  0.6893806424332171   T   T   T
  0.4697954662414414  0.6413902590507322  0.5877969222423446   T   T   T
  0.4633662597648651  0.6030908843493110  0.4637546277670044   T   T   T
  0.7164255311077817  0.5711831074364295  0.3833203790953744   T   T   T
  0.5499310510395361  0.5822218838566187  0.4076968008106903   F   F   F
  0.4794126430662260  0.5072205383607624  0.4190535757241776   F   F   F
  0.6948515982462379  0.4789991465459777  0.3241673762108080   T   T   T
  0.7520939813898171  0.4269663562798978  0.4875525075002418   T   T   T
  0.7475227143472020  0.5380230925653804  0.4840506432571016   T   T   T
  0.7498111988521258  0.4888866355019815  0.5710248656938123   T   T   T
  0.6481768229777216  0.4378721739362977  0.7098769696968118   T   T   T
  0.5765163197291182  0.7430308615498524  0.4928127935212457   T   T   T
  0.6192554540844384  0.5183157687966542  0.3801816896793397   F   F   F
  0.5043260593875412  0.5597238995435547  0.6502886510374160   T   T   T
  0.4922009500451665  0.4366758245867572  0.4933013002826740   F   F   F
  0.5608844484509063  0.4404139570509003  0.6454865549417619   F   F   F
  0.5769046339584550  0.6161096715314751  0.6138323276503292   T   T   T
  0.5450239447424189  0.6170570212125221  0.3119644999908956   T   T   T
  0.6280233545919152  0.6243351283232650  0.3605175985896454   T   T   T
  0.3772022685060401  0.5572667499294005  0.4126273282101435   T   T   T
  0.4723078164089713  0.4557257050327763  0.5877273803360978   F   F   F
  0.7270883972526025  0.6350813122868783  0.4851668480451273   T   T   T
  0.5053707605750003  0.3681953633447492  0.6863841970711693   T   T   T
  0.3805098765813706  0.4421560919491687  0.6400418175063938   T   T   T
  0.5544592502646992  0.4379899399457940  0.4037542370104745   F   F   F
  0.4353066148067758  0.3649504149715291  0.6129097530409208   T   T   T
  0.5283305802417796  0.3492974496184500  0.5803218576194497   T   T   T
  0.7289613358986693  0.3088904666849949  0.5012677764677986   T   T   T
  0.7919691965454786  0.3555315251601565  0.4922275624246201   T   T   T
  0.7716840725217480  0.3171265779102493  0.4991502553584585   T   T   T
  0.7954203455970201  0.2870361572233032  0.5038857400651420   T   T   T
 
  0.00000000E+00  0.00000000E+00  0.00000000E+00
  0.00000000E+00  0.00000000E+00  0.00000000E+00
  0.00000000E+00  0.00000000E+00  0.00000000E+00
  0.00000000E+00  0.00000000E+00  0.00000000E+00
  0.00000000E+00  0.00000000E+00  0.00000000E+00
  0.00000000E+00  0.00000000E+00  0.00000000E+00
  0.00000000E+00  0.00000000E+00  0.00000000E+00
  0.00000000E+00  0.00000000E+00  0.00000000E+00
  0.00000000E+00  0.00000000E+00  0.00000000E+00
  0.00000000E+00  0.00000000E+00  0.00000000E+00
  0.00000000E+00  0.00000000E+00  0.00000000E+00
  0.00000000E+00  0.00000000E+00  0.00000000E+00
  0.00000000E+00  0.00000000E+00  0.00000000E+00
  0.00000000E+00  0.00000000E+00  0.00000000E+00
  0.00000000E+00  0.00000000E+00  0.00000000E+00
  0.00000000E+00  0.00000000E+00  0.00000000E+00
  0.00000000E+00  0.00000000E+00  0.00000000E+00
  0.00000000E+00  0.00000000E+00  0.00000000E+00
  0.00000000E+00  0.00000000E+00  0.00000000E+00
  0.00000000E+00  0.00000000E+00  0.00000000E+00
  0.00000000E+00  0.00000000E+00  0.00000000E+00
  0.00000000E+00  0.00000000E+00  0.00000000E+00
  0.00000000E+00  0.00000000E+00  0.00000000E+00
  0.00000000E+00  0.00000000E+00  0.00000000E+00
  0.00000000E+00  0.00000000E+00  0.00000000E+00
  0.00000000E+00  0.00000000E+00  0.00000000E+00
  0.00000000E+00  0.00000000E+00  0.00000000E+00
  0.00000000E+00  0.00000000E+00  0.00000000E+00
  0.00000000E+00  0.00000000E+00  0.00000000E+00
  0.00000000E+00  0.00000000E+00  0.00000000E+00
  0.00000000E+00  0.00000000E+00  0.00000000E+00
  0.00000000E+00  0.00000000E+00  0.00000000E+00
  0.00000000E+00  0.00000000E+00  0.00000000E+00
  0.00000000E+00  0.00000000E+00  0.00000000E+00
  0.00000000E+00  0.00000000E+00  0.00000000E+00
  0.00000000E+00  0.00000000E+00  0.00000000E+00
  0.00000000E+00  0.00000000E+00  0.00000000E+00
  0.00000000E+00  0.00000000E+00  0.00000000E+00
  0.00000000E+00  0.00000000E+00  0.00000000E+00
  0.00000000E+00  0.00000000E+00  0.00000000E+00
  0.00000000E+00  0.00000000E+00  0.00000000E+00
  0.00000000E+00  0.00000000E+00  0.00000000E+00
  0.00000000E+00  0.00000000E+00  0.00000000E+00
  0.00000000E+00  0.00000000E+00  0.00000000E+00
  0.00000000E+00  0.00000000E+00  0.00000000E+00
  0.00000000E+00  0.00000000E+00  0.00000000E+00
  0.00000000E+00  0.00000000E+00  0.00000000E+00
  0.00000000E+00  0.00000000E+00  0.00000000E+00
  0.00000000E+00  0.00000000E+00  0.00000000E+00
  0.00000000E+00  0.00000000E+00  0.00000000E+00
  0.00000000E+00  0.00000000E+00  0.00000000E+00
  0.00000000E+00  0.00000000E+00  0.00000000E+00
  0.00000000E+00  0.00000000E+00  0.00000000E+00
  0.00000000E+00  0.00000000E+00  0.00000000E+00
  0.00000000E+00  0.00000000E+00  0.00000000E+00
  0.00000000E+00  0.00000000E+00  0.00000000E+00
  0.00000000E+00  0.00000000E+00  0.00000000E+00
  0.00000000E+00  0.00000000E+00  0.00000000E+00
  0.00000000E+00  0.00000000E+00  0.00000000E+00
  0.00000000E+00  0.00000000E+00  0.00000000E+00
  0.00000000E+00  0.00000000E+00  0.00000000E+00
  0.00000000E+00  0.00000000E+00  0.00000000E+00
  0.00000000E+00  0.00000000E+00  0.00000000E+00
  0.00000000E+00  0.00000000E+00  0.00000000E+00
  0.00000000E+00  0.00000000E+00  0.00000000E+00
  0.00000000E+00  0.00000000E+00  0.00000000E+00
  0.00000000E+00  0.00000000E+00  0.00000000E+00
  0.00000000E+00  0.00000000E+00  0.00000000E+00
  0.00000000E+00  0.00000000E+00  0.00000000E+00
  0.00000000E+00  0.00000000E+00  0.00000000E+00
  0.00000000E+00  0.00000000E+00  0.00000000E+00
  0.00000000E+00  0.00000000E+00  0.00000000E+00
