Bi La Sn O  C  H                        
   1.00000000000000     
    29.0000000000000000    0.0000000000000000    0.0000000000000000
     0.2488180851000000   28.9989325590000000    0.0000000000000000
    -0.0631677343000000   -0.4515975666000000   28.9964147692999994
   Bi   La   Sn   O    C    H 
    22    23    23     2     1     1
Selective dynamics
Direct
  0.7594217889806972  0.4790450507488511  0.4006522029807302   T   T   T
  0.6462303980462035  0.6847938012598341  0.5518762964337336   T   T   T
  0.3600353549796734  0.4588885054325961  0.4285730916421424   T   T   T
  0.5498379160160436  0.7135468363554816  0.5845168307539550   T   T   T
  0.5915029568994470  0.5209714444905416  0.5841479689498996   F   F   F
  0.6393066671653392  0.6800812527425115  0.4445544601266102   T   T   T
  0.6968167353037729  0.5234666938284014  0.6536006952471343   T   T   T
  0.4855198260770104  0.7013712862519942  0.5005553387957629   T   T   T
  0.5004839460855024  0.5502791173970252  0.5477141156400123   F   F   F
  0.3249617893950141  0.4865370060842391  0.5746226508394695   T   T   T
  0.3824158009244039  0.6104925116392832  0.5350187082565644   T   T   T
  0.6667129484492236  0.4827404655721850  0.5105018184570156   F   F   F
  0.5763997220267569  0.4263140504383500  0.5448328182496311   F   F   F
  0.6683641586304536  0.3742974775990826  0.5070687793548779   T   T   T
  0.4638486160712633  0.3390890749723167  0.5005077800095102   T   T   T
  0.6484934028780529  0.5775373212088155  0.4602701624361103   F   F   F
  0.5597077184055164  0.4374018857205679  0.7495999593198946   T   T   T
  0.6047376060701415  0.3522605662452262  0.6692790467200772   T   T   T
  0.4917491116125574  0.2990299072601515  0.4105683614921070   T   T   T
  0.6599189451086624  0.6191024650834974  0.6657918551613020   T   T   T
  0.4926493081852750  0.4106069153782727  0.3074612524493647   T   T   T
  0.6216489914655039  0.3163073155218050  0.5731782494764216   T   T   T
  0.5375565334817922  0.6838809197698991  0.4046627912974166   T   T   T
  0.3903834005422667  0.4152669948600369  0.5281447530186387   T   T   T
  0.6288075797671858  0.5524332023620486  0.2822995799715547   T   T   T
  0.4715142348723004  0.4700321993434834  0.6920750337713103   T   T   T
  0.5683115009887700  0.5094300495444983  0.4784716241115703   F   F   F
  0.4203210565129183  0.5084107200613417  0.5018573595042781   F   F   F
  0.4519731727083471  0.4008093330597208  0.4070554534760389   T   T   T
  0.5632633687060457  0.3479547060901765  0.3548044964367306   T   T   T
  0.4108111513263593  0.5403366134876272  0.6098260257629136   T   T   T
  0.5989925744616296  0.4425836254458990  0.3046777218953952   T   T   T
  0.4549177496667607  0.6005250641432583  0.3626585792633997   T   T   T
  0.4184982156360502  0.4876570201009747  0.3396809305926816   T   T   T
  0.6612877876265157  0.4290586086098899  0.6047493085714670   T   T   T
  0.6728258261951015  0.5787791907808106  0.5637316648623338   T   T   T
  0.5264802313367350  0.5099650804109104  0.3279544401886140   T   T   T
  0.5659156453530345  0.3576298677540667  0.4687390712596314   T   T   T
  0.3156582933265051  0.5422072721333063  0.4911765694047409   T   T   T
  0.6600061150558559  0.4291601781165064  0.4157409704700750   T   T   T
  0.5660841929594156  0.6261437171197244  0.5094829013827464   F   F   F
  0.5964807133262159  0.5288848317703251  0.6894674076526031   T   T   T
  0.4703325739640896  0.6412448579900000  0.5887061259421654   T   T   T
  0.4638089187198131  0.6035439832523187  0.4640820176960330   T   T   T
  0.7202109492348836  0.5773592656652924  0.3836491259859424   T   T   T
  0.5499310510395361  0.5822218838566187  0.4076968008106903   F   F   F
  0.4794126430662260  0.5072205383607624  0.4190535757241776   F   F   F
  0.6953504053523795  0.4817274422747020  0.3258180443993516   T   T   T
  0.7515561630849613  0.4289564959088293  0.4885100827004691   T   T   T
  0.7477816989302473  0.5391195486146457  0.4856038797589873   T   T   T
  0.7493571496724933  0.4907391826431091  0.5721248315062171   T   T   T
  0.6494821445208881  0.4377279521041558  0.7091253364722166   T   T   T
  0.5763431416651691  0.7424848925630086  0.4928893665878199   T   T   T
  0.6192554540844384  0.5183157687966542  0.3801816896793397   F   F   F
  0.5053281812008535  0.5584913078389567  0.6498918559759678   T   T   T
  0.4922009500451665  0.4366758245867572  0.4933013002826740   F   F   F
  0.5608844484509063  0.4404139570509003  0.6454865549417619   F   F   F
  0.5768844910732638  0.6162814621095971  0.6136503027632041   T   T   T
  0.5449448712188032  0.6181663647794922  0.3127982371166517   T   T   T
  0.6283681534309086  0.6244075671345256  0.3602822066862374   T   T   T
  0.3772174103135180  0.5572536245529529  0.4125743274207427   T   T   T
  0.4723078164089713  0.4557257050327763  0.5877273803360978   F   F   F
  0.7270887699936636  0.6367791087536191  0.4833195611957349   T   T   T
  0.5049316359213133  0.3679541957291232  0.6870119094455518   T   T   T
  0.3804053265616513  0.4419946430798942  0.6408213833708406   T   T   T
  0.5544592502646992  0.4379899399457940  0.4037542370104745   F   F   F
  0.4351113484617202  0.3652855847413323  0.6127469725077733   T   T   T
  0.5282465050034700  0.3495900229355325  0.5809246855948259   T   T   T
  0.7833350651886103  0.6263732955876024  0.3788602777938089   T   T   T
  0.8082011804434143  0.6581231223378053  0.4469954263054833   T   T   T
  0.8116537849336105  0.6496633877924110  0.4047157324850941   T   T   T
  0.8421974622769098  0.6632339452378450  0.3862169702750599   T   T   T
 
  0.00000000E+00  0.00000000E+00  0.00000000E+00
  0.00000000E+00  0.00000000E+00  0.00000000E+00
  0.00000000E+00  0.00000000E+00  0.00000000E+00
  0.00000000E+00  0.00000000E+00  0.00000000E+00
  0.00000000E+00  0.00000000E+00  0.00000000E+00
  0.00000000E+00  0.00000000E+00  0.00000000E+00
  0.00000000E+00  0.00000000E+00  0.00000000E+00
  0.00000000E+00  0.00000000E+00  0.00000000E+00
  0.00000000E+00  0.00000000E+00  0.00000000E+00
  0.00000000E+00  0.00000000E+00  0.00000000E+00
  0.00000000E+00  0.00000000E+00  0.00000000E+00
  0.00000000E+00  0.00000000E+00  0.00000000E+00
  0.00000000E+00  0.00000000E+00  0.00000000E+00
  0.00000000E+00  0.00000000E+00  0.00000000E+00
  0.00000000E+00  0.00000000E+00  0.00000000E+00
  0.00000000E+00  0.00000000E+00  0.00000000E+00
  0.00000000E+00  0.00000000E+00  0.00000000E+00
  0.00000000E+00  0.00000000E+00  0.00000000E+00
  0.00000000E+00  0.00000000E+00  0.00000000E+00
  0.00000000E+00  0.00000000E+00  0.00000000E+00
  0.00000000E+00  0.00000000E+00  0.00000000E+00
  0.00000000E+00  0.00000000E+00  0.00000000E+00
  0.00000000E+00  0.00000000E+00  0.00000000E+00
  0.00000000E+00  0.00000000E+00  0.00000000E+00
  0.00000000E+00  0.00000000E+00  0.00000000E+00
  0.00000000E+00  0.00000000E+00  0.00000000E+00
  0.00000000E+00  0.00000000E+00  0.00000000E+00
  0.00000000E+00  0.00000000E+00  0.00000000E+00
  0.00000000E+00  0.00000000E+00  0.00000000E+00
  0.00000000E+00  0.00000000E+00  0.00000000E+00
  0.00000000E+00  0.00000000E+00  0.00000000E+00
  0.00000000E+00  0.00000000E+00  0.00000000E+00
  0.00000000E+00  0.00000000E+00  0.00000000E+00
  0.00000000E+00  0.00000000E+00  0.00000000E+00
  0.00000000E+00  0.00000000E+00  0.00000000E+00
  0.00000000E+00  0.00000000E+00  0.00000000E+00
  0.00000000E+00  0.00000000E+00  0.00000000E+00
  0.00000000E+00  0.00000000E+00  0.00000000E+00
  0.00000000E+00  0.00000000E+00  0.00000000E+00
  0.00000000E+00  0.00000000E+00  0.00000000E+00
  0.00000000E+00  0.00000000E+00  0.00000000E+00
  0.00000000E+00  0.00000000E+00  0.00000000E+00
  0.00000000E+00  0.00000000E+00  0.00000000E+00
  0.00000000E+00  0.00000000E+00  0.00000000E+00
  0.00000000E+00  0.00000000E+00  0.00000000E+00
  0.00000000E+00  0.00000000E+00  0.00000000E+00
  0.00000000E+00  0.00000000E+00  0.00000000E+00
  0.00000000E+00  0.00000000E+00  0.00000000E+00
  0.00000000E+00  0.00000000E+00  0.00000000E+00
  0.00000000E+00  0.00000000E+00  0.00000000E+00
  0.00000000E+00  0.00000000E+00  0.00000000E+00
  0.00000000E+00  0.00000000E+00  0.00000000E+00
  0.00000000E+00  0.00000000E+00  0.00000000E+00
  0.00000000E+00  0.00000000E+00  0.00000000E+00
  0.00000000E+00  0.00000000E+00  0.00000000E+00
  0.00000000E+00  0.00000000E+00  0.00000000E+00
  0.00000000E+00  0.00000000E+00  0.00000000E+00
  0.00000000E+00  0.00000000E+00  0.00000000E+00
  0.00000000E+00  0.00000000E+00  0.00000000E+00
  0.00000000E+00  0.00000000E+00  0.00000000E+00
  0.00000000E+00  0.00000000E+00  0.00000000E+00
  0.00000000E+00  0.00000000E+00  0.00000000E+00
  0.00000000E+00  0.00000000E+00  0.00000000E+00
  0.00000000E+00  0.00000000E+00  0.00000000E+00
  0.00000000E+00  0.00000000E+00  0.00000000E+00
  0.00000000E+00  0.00000000E+00  0.00000000E+00
  0.00000000E+00  0.00000000E+00  0.00000000E+00
  0.00000000E+00  0.00000000E+00  0.00000000E+00
  0.00000000E+00  0.00000000E+00  0.00000000E+00
  0.00000000E+00  0.00000000E+00  0.00000000E+00
  0.00000000E+00  0.00000000E+00  0.00000000E+00
  0.00000000E+00  0.00000000E+00  0.00000000E+00
