Bi La Sn O  C  H                        
   1.00000000000000     
    29.0000000000000000    0.0000000000000000    0.0000000000000000
     0.2488180851000000   28.9989325590000000    0.0000000000000000
    -0.0631677343000000   -0.4515975666000000   28.9964147692999994
   Bi   La   Sn   O    C    H 
    22    23    23     2     1     1
Selective dynamics
Direct
  0.7592376408702404  0.4832843091998843  0.4015899516539479   T   T   T
  0.6448039652710874  0.6853288681143960  0.5536341166808122   T   T   T
  0.3599046839260489  0.4587405022980076  0.4288916594699931   T   T   T
  0.5479740100260638  0.7125939063158525  0.5859574245231705   T   T   T
  0.5915029568994470  0.5209714444905416  0.5841479689498996   F   F   F
  0.6399324060438517  0.6810321951661549  0.4462596763220101   T   T   T
  0.6963940722934834  0.5260826068950807  0.6574547288389347   T   T   T
  0.4854143101322335  0.7004196627932927  0.5007986745512454   T   T   T
  0.5004839460855024  0.5502791173970252  0.5477141156400123   F   F   F
  0.3233890064584412  0.4859869188072090  0.5724115768060339   T   T   T
  0.3812019960221740  0.6117081475251092  0.5332700064685315   T   T   T
  0.6667129484492236  0.4827404655721850  0.5105018184570156   F   F   F
  0.5763997220267569  0.4263140504383500  0.5448328182496311   F   F   F
  0.6738697687843932  0.3774769690743604  0.5120624286757696   T   T   T
  0.4681911979275137  0.3409841219322695  0.5063998000050052   T   T   T
  0.6484934028780529  0.5775373212088155  0.4602701624361103   F   F   F
  0.5582716714519864  0.4387651315703295  0.7499753998508942   T   T   T
  0.6099702823688207  0.3541075315427764  0.6710876756764497   T   T   T
  0.4907178462447432  0.2956828072173893  0.4203345482291442   T   T   T
  0.6574357289240153  0.6213228294872321  0.6664321974548327   T   T   T
  0.4909522486560381  0.4131471696945828  0.3079279311845658   T   T   T
  0.6248086892098903  0.3179513339776237  0.5743747086705674   T   T   T
  0.5388057967948148  0.6843773622424193  0.4056745520022249   T   T   T
  0.3909098190655358  0.4144854718683400  0.5285397169207148   T   T   T
  0.6286449603006314  0.5547951210805535  0.2832531330037112   T   T   T
  0.4708296231882336  0.4674752865609758  0.6912577595252717   T   T   T
  0.5683115009887700  0.5094300495444983  0.4784716241115703   F   F   F
  0.4203210565129183  0.5084107200613417  0.5018573595042781   F   F   F
  0.4517066860910642  0.3992059974241234  0.4078016595545313   T   T   T
  0.5544336720700054  0.3416306706407768  0.3528254223110947   T   T   T
  0.4092072049282060  0.5409915022363282  0.6073341797651586   T   T   T
  0.6034677847762274  0.4339021795068283  0.3093901963397570   T   T   T
  0.4555294325405710  0.6021761820830384  0.3641059128582357   T   T   T
  0.4183936508994564  0.4893441200968859  0.3399497927235360   T   T   T
  0.6613198899205778  0.4320515307320266  0.6069291682133248   T   T   T
  0.6718566236156520  0.5792389834832813  0.5651501151782230   T   T   T
  0.5264882272950226  0.5111168513274497  0.3275786881068773   T   T   T
  0.5719927996330417  0.3570945062138382  0.4670575060546751   T   T   T
  0.3144762086829703  0.5425816514090176  0.4898369448679652   T   T   T
  0.6609016585445665  0.4279020550811963  0.4161086248208906   T   T   T
  0.5660841929594156  0.6261437171197244  0.5094829013827464   F   F   F
  0.5948469855806320  0.5300983223011676  0.6891929266538910   T   T   T
  0.4683495286128719  0.6404127171139473  0.5891748519589773   T   T   T
  0.4632140182549306  0.6028330438656276  0.4637316456998491   T   T   T
  0.7175635050332096  0.5796472437600669  0.3849180193650501   T   T   T
  0.5499310510395361  0.5822218838566187  0.4076968008106903   F   F   F
  0.4794126430662260  0.5072205383607624  0.4190535757241776   F   F   F
  0.6959313219013381  0.4866949331818019  0.3274095882051121   T   T   T
  0.7548180162410942  0.4345081646469816  0.4901938740684724   T   T   T
  0.7478109942646706  0.5420286518549319  0.4876532975720074   T   T   T
  0.7477446732360448  0.4948004356307416  0.5753957785573330   T   T   T
  0.6492593144499852  0.4410660649157084  0.7118045821085914   T   T   T
  0.5757415944652226  0.7427335397007141  0.4945269951367918   T   T   T
  0.6192554540844384  0.5183157687966542  0.3801816896793397   F   F   F
  0.5028559475368525  0.5570741814605370  0.6502154035228379   T   T   T
  0.4922009500451665  0.4366758245867572  0.4933013002826740   F   F   F
  0.5608844484509063  0.4404139570509003  0.6454865549417619   F   F   F
  0.5748119146932985  0.6155976605633864  0.6140329770737120   T   T   T
  0.5444370810457376  0.6196634568957562  0.3124448516770744   T   T   T
  0.6265675003516493  0.6267728727744760  0.3613175343140674   T   T   T
  0.3774846559145940  0.5579296618490347  0.4127480621096096   T   T   T
  0.4723078164089713  0.4557257050327763  0.5877273803360978   F   F   F
  0.7257757625813666  0.6383622546344631  0.4877639768387331   T   T   T
  0.5092504543787493  0.3648075252186070  0.6891279709571373   T   T   T
  0.3804972132151140  0.4432418233709421  0.6386849866761949   T   T   T
  0.5544592502646992  0.4379899399457940  0.4037542370104745   F   F   F
  0.4374564995958112  0.3666068219276540  0.6161626127681706   T   T   T
  0.5321323611343387  0.3492116219185548  0.5861355590014812   T   T   T
  0.6248760933149817  0.3537299160387904  0.3143034575193604   T   T   T
  0.6242158211504709  0.3495636947427987  0.3975501936025228   T   T   T
  0.6458659830735290  0.3683697819369760  0.3553937875509056   T   T   T
  0.6825340528574327  0.3566717122267556  0.3562354381537469   T   T   T
 
  0.00000000E+00  0.00000000E+00  0.00000000E+00
  0.00000000E+00  0.00000000E+00  0.00000000E+00
  0.00000000E+00  0.00000000E+00  0.00000000E+00
  0.00000000E+00  0.00000000E+00  0.00000000E+00
  0.00000000E+00  0.00000000E+00  0.00000000E+00
  0.00000000E+00  0.00000000E+00  0.00000000E+00
  0.00000000E+00  0.00000000E+00  0.00000000E+00
  0.00000000E+00  0.00000000E+00  0.00000000E+00
  0.00000000E+00  0.00000000E+00  0.00000000E+00
  0.00000000E+00  0.00000000E+00  0.00000000E+00
  0.00000000E+00  0.00000000E+00  0.00000000E+00
  0.00000000E+00  0.00000000E+00  0.00000000E+00
  0.00000000E+00  0.00000000E+00  0.00000000E+00
  0.00000000E+00  0.00000000E+00  0.00000000E+00
  0.00000000E+00  0.00000000E+00  0.00000000E+00
  0.00000000E+00  0.00000000E+00  0.00000000E+00
  0.00000000E+00  0.00000000E+00  0.00000000E+00
  0.00000000E+00  0.00000000E+00  0.00000000E+00
  0.00000000E+00  0.00000000E+00  0.00000000E+00
  0.00000000E+00  0.00000000E+00  0.00000000E+00
  0.00000000E+00  0.00000000E+00  0.00000000E+00
  0.00000000E+00  0.00000000E+00  0.00000000E+00
  0.00000000E+00  0.00000000E+00  0.00000000E+00
  0.00000000E+00  0.00000000E+00  0.00000000E+00
  0.00000000E+00  0.00000000E+00  0.00000000E+00
  0.00000000E+00  0.00000000E+00  0.00000000E+00
  0.00000000E+00  0.00000000E+00  0.00000000E+00
  0.00000000E+00  0.00000000E+00  0.00000000E+00
  0.00000000E+00  0.00000000E+00  0.00000000E+00
  0.00000000E+00  0.00000000E+00  0.00000000E+00
  0.00000000E+00  0.00000000E+00  0.00000000E+00
  0.00000000E+00  0.00000000E+00  0.00000000E+00
  0.00000000E+00  0.00000000E+00  0.00000000E+00
  0.00000000E+00  0.00000000E+00  0.00000000E+00
  0.00000000E+00  0.00000000E+00  0.00000000E+00
  0.00000000E+00  0.00000000E+00  0.00000000E+00
  0.00000000E+00  0.00000000E+00  0.00000000E+00
  0.00000000E+00  0.00000000E+00  0.00000000E+00
  0.00000000E+00  0.00000000E+00  0.00000000E+00
  0.00000000E+00  0.00000000E+00  0.00000000E+00
  0.00000000E+00  0.00000000E+00  0.00000000E+00
  0.00000000E+00  0.00000000E+00  0.00000000E+00
  0.00000000E+00  0.00000000E+00  0.00000000E+00
  0.00000000E+00  0.00000000E+00  0.00000000E+00
  0.00000000E+00  0.00000000E+00  0.00000000E+00
  0.00000000E+00  0.00000000E+00  0.00000000E+00
  0.00000000E+00  0.00000000E+00  0.00000000E+00
  0.00000000E+00  0.00000000E+00  0.00000000E+00
  0.00000000E+00  0.00000000E+00  0.00000000E+00
  0.00000000E+00  0.00000000E+00  0.00000000E+00
  0.00000000E+00  0.00000000E+00  0.00000000E+00
  0.00000000E+00  0.00000000E+00  0.00000000E+00
  0.00000000E+00  0.00000000E+00  0.00000000E+00
  0.00000000E+00  0.00000000E+00  0.00000000E+00
  0.00000000E+00  0.00000000E+00  0.00000000E+00
  0.00000000E+00  0.00000000E+00  0.00000000E+00
  0.00000000E+00  0.00000000E+00  0.00000000E+00
  0.00000000E+00  0.00000000E+00  0.00000000E+00
  0.00000000E+00  0.00000000E+00  0.00000000E+00
  0.00000000E+00  0.00000000E+00  0.00000000E+00
  0.00000000E+00  0.00000000E+00  0.00000000E+00
  0.00000000E+00  0.00000000E+00  0.00000000E+00
  0.00000000E+00  0.00000000E+00  0.00000000E+00
  0.00000000E+00  0.00000000E+00  0.00000000E+00
  0.00000000E+00  0.00000000E+00  0.00000000E+00
  0.00000000E+00  0.00000000E+00  0.00000000E+00
  0.00000000E+00  0.00000000E+00  0.00000000E+00
  0.00000000E+00  0.00000000E+00  0.00000000E+00
  0.00000000E+00  0.00000000E+00  0.00000000E+00
  0.00000000E+00  0.00000000E+00  0.00000000E+00
  0.00000000E+00  0.00000000E+00  0.00000000E+00
  0.00000000E+00  0.00000000E+00  0.00000000E+00
