Bi La Sn O  C  H                        
   1.00000000000000     
    29.0000000000000000    0.0000000000000000    0.0000000000000000
     0.2488180851000000   28.9989325590000000    0.0000000000000000
    -0.0631677343000000   -0.4515975666000000   28.9964147692999994
   Bi   La   Sn   O    C    H 
    22    23    23     2     1     1
Selective dynamics
Direct
  0.7592256917071804  0.4780154329523759  0.3985612959078497   T   T   T
  0.6469941165141642  0.6853988838240433  0.5504341204395093   T   T   T
  0.3608619460242343  0.4585335141193300  0.4274952125246622   T   T   T
  0.5503671674158068  0.7134198206278076  0.5835853937587034   T   T   T
  0.5915029568994470  0.5209714444905416  0.5841479689498996   F   F   F
  0.6394869792625214  0.6798827483431665  0.4447727842186328   T   T   T
  0.6949372684386550  0.5216712350121634  0.6529012052585482   T   T   T
  0.4866040250313081  0.7018023304489390  0.4990335528777929   T   T   T
  0.5004839460855024  0.5502791173970252  0.5477141156400123   F   F   F
  0.3256583168628553  0.4862730375644393  0.5758662386890364   T   T   T
  0.3822172615712898  0.6096051692905394  0.5355990045611655   T   T   T
  0.6667129484492236  0.4827404655721850  0.5105018184570156   F   F   F
  0.5763997220267569  0.4263140504383500  0.5448328182496311   F   F   F
  0.6675828502660467  0.3743392437267299  0.5066594869014011   T   T   T
  0.4615204366343169  0.3384369393728584  0.4981359480106942   T   T   T
  0.6484934028780529  0.5775373212088155  0.4602701624361103   F   F   F
  0.5546695843928854  0.4364571516761621  0.7503472842794061   T   T   T
  0.6023459368079243  0.3478616749168084  0.6660941530183121   T   T   T
  0.4920548233743826  0.2986368086556297  0.4086988627248714   T   T   T
  0.6595777135144507  0.6168893394272681  0.6675092199342746   T   T   T
  0.4915770188383803  0.4101650184800990  0.3054298637780760   T   T   T
  0.6204770203779897  0.3139943853659717  0.5702553354858325   T   T   T
  0.5386938909349120  0.6835995034523469  0.4041254522050842   T   T   T
  0.3897920122918548  0.4159466656159546  0.5263272378625795   T   T   T
  0.6274021941341001  0.5513100445173086  0.2819676430270986   T   T   T
  0.4714843604114592  0.4748429504655267  0.6916595851915628   T   T   T
  0.5683115009887700  0.5094300495444983  0.4784716241115703   F   F   F
  0.4203210565129183  0.5084107200613417  0.5018573595042781   F   F   F
  0.4526974215788788  0.4008896599363634  0.4057686636954611   T   T   T
  0.5628845063973460  0.3489371204185860  0.3536557037655473   T   T   T
  0.4117132089890142  0.5398935709349031  0.6106042598866791   T   T   T
  0.5991236497399984  0.4403632529964534  0.3055675744063250   T   T   T
  0.4549389115104846  0.6002893573695263  0.3633489731396310   T   T   T
  0.4188635917970702  0.4878743929535875  0.3390381517166217   T   T   T
  0.6634867773787456  0.4251435178423346  0.6054002316824858   T   T   T
  0.6731079977835883  0.5796884559442006  0.5639214615264986   T   T   T
  0.5256133147401468  0.5093660438157577  0.3280404834931435   T   T   T
  0.5648634700422424  0.3569642507037793  0.4689644640198413   T   T   T
  0.3157298598977705  0.5408662261942744  0.4916078238959092   T   T   T
  0.6603629675065057  0.4294143155678088  0.4150727361125246   T   T   T
  0.5660841929594156  0.6261437171197244  0.5094829013827464   F   F   F
  0.5953728544460780  0.5271376120542839  0.6900414563202173   T   T   T
  0.4699943152900756  0.6421856153064134  0.5877667549928096   T   T   T
  0.4634614211455267  0.6035521413042449  0.4640844394503845   T   T   T
  0.7164404845095029  0.5736584924222086  0.3832382615402145   T   T   T
  0.5499310510395361  0.5822218838566187  0.4076968008106903   F   F   F
  0.4794126430662260  0.5072205383607624  0.4190535757241776   F   F   F
  0.6949344327494077  0.4810756060998447  0.3238287947589882   T   T   T
  0.7513938510952490  0.4292580869910854  0.4874793340457388   T   T   T
  0.7479747442486930  0.5387042478601939  0.4848320452838247   T   T   T
  0.7493615501306233  0.4911370025718893  0.5711601908315206   T   T   T
  0.6437175069266678  0.4323092869049264  0.7095481132658692   T   T   T
  0.5770912705001262  0.7438959036242819  0.4924211462607909   T   T   T
  0.6192554540844384  0.5183157687966542  0.3801816896793397   F   F   F
  0.5058075306837699  0.5621461092065494  0.6504665501635377   T   T   T
  0.4922009500451665  0.4366758245867572  0.4933013002826740   F   F   F
  0.5608844484509063  0.4404139570509003  0.6454865549417619   F   F   F
  0.5775590097651898  0.6167022384087367  0.6135501253987028   T   T   T
  0.5440590701690158  0.6171344105752155  0.3119420408655934   T   T   T
  0.6274106540438676  0.6247133239412114  0.3595994058735972   T   T   T
  0.3768798034101610  0.5570173237291132  0.4127140434238429   T   T   T
  0.4723078164089713  0.4557257050327763  0.5877273803360978   F   F   F
  0.7269032913028738  0.6357892426708051  0.4837967654484540   T   T   T
  0.5018480339143156  0.3712887247613247  0.6801566722909788   T   T   T
  0.3825874074984166  0.4397815769864549  0.6398151374582545   T   T   T
  0.5544592502646992  0.4379899399457940  0.4037542370104745   F   F   F
  0.4337530659557349  0.3616018879968648  0.6066473061754878   T   T   T
  0.5275580884288673  0.3487519506593618  0.5769702199534730   T   T   T
  0.6905366734073802  0.3168768588263167  0.6804796061682807   T   T   T
  0.7172252141254815  0.3723294441299635  0.6329068440690312   T   T   T
  0.7220123628816241  0.3394551163855542  0.6622775842300939   T   T   T
  0.7583619325697999  0.3313382798642393  0.6717461110178191   T   T   T
 
  0.00000000E+00  0.00000000E+00  0.00000000E+00
  0.00000000E+00  0.00000000E+00  0.00000000E+00
  0.00000000E+00  0.00000000E+00  0.00000000E+00
  0.00000000E+00  0.00000000E+00  0.00000000E+00
  0.00000000E+00  0.00000000E+00  0.00000000E+00
  0.00000000E+00  0.00000000E+00  0.00000000E+00
  0.00000000E+00  0.00000000E+00  0.00000000E+00
  0.00000000E+00  0.00000000E+00  0.00000000E+00
  0.00000000E+00  0.00000000E+00  0.00000000E+00
  0.00000000E+00  0.00000000E+00  0.00000000E+00
  0.00000000E+00  0.00000000E+00  0.00000000E+00
  0.00000000E+00  0.00000000E+00  0.00000000E+00
  0.00000000E+00  0.00000000E+00  0.00000000E+00
  0.00000000E+00  0.00000000E+00  0.00000000E+00
  0.00000000E+00  0.00000000E+00  0.00000000E+00
  0.00000000E+00  0.00000000E+00  0.00000000E+00
  0.00000000E+00  0.00000000E+00  0.00000000E+00
  0.00000000E+00  0.00000000E+00  0.00000000E+00
  0.00000000E+00  0.00000000E+00  0.00000000E+00
  0.00000000E+00  0.00000000E+00  0.00000000E+00
  0.00000000E+00  0.00000000E+00  0.00000000E+00
  0.00000000E+00  0.00000000E+00  0.00000000E+00
  0.00000000E+00  0.00000000E+00  0.00000000E+00
  0.00000000E+00  0.00000000E+00  0.00000000E+00
  0.00000000E+00  0.00000000E+00  0.00000000E+00
  0.00000000E+00  0.00000000E+00  0.00000000E+00
  0.00000000E+00  0.00000000E+00  0.00000000E+00
  0.00000000E+00  0.00000000E+00  0.00000000E+00
  0.00000000E+00  0.00000000E+00  0.00000000E+00
  0.00000000E+00  0.00000000E+00  0.00000000E+00
  0.00000000E+00  0.00000000E+00  0.00000000E+00
  0.00000000E+00  0.00000000E+00  0.00000000E+00
  0.00000000E+00  0.00000000E+00  0.00000000E+00
  0.00000000E+00  0.00000000E+00  0.00000000E+00
  0.00000000E+00  0.00000000E+00  0.00000000E+00
  0.00000000E+00  0.00000000E+00  0.00000000E+00
  0.00000000E+00  0.00000000E+00  0.00000000E+00
  0.00000000E+00  0.00000000E+00  0.00000000E+00
  0.00000000E+00  0.00000000E+00  0.00000000E+00
  0.00000000E+00  0.00000000E+00  0.00000000E+00
  0.00000000E+00  0.00000000E+00  0.00000000E+00
  0.00000000E+00  0.00000000E+00  0.00000000E+00
  0.00000000E+00  0.00000000E+00  0.00000000E+00
  0.00000000E+00  0.00000000E+00  0.00000000E+00
  0.00000000E+00  0.00000000E+00  0.00000000E+00
  0.00000000E+00  0.00000000E+00  0.00000000E+00
  0.00000000E+00  0.00000000E+00  0.00000000E+00
  0.00000000E+00  0.00000000E+00  0.00000000E+00
  0.00000000E+00  0.00000000E+00  0.00000000E+00
  0.00000000E+00  0.00000000E+00  0.00000000E+00
  0.00000000E+00  0.00000000E+00  0.00000000E+00
  0.00000000E+00  0.00000000E+00  0.00000000E+00
  0.00000000E+00  0.00000000E+00  0.00000000E+00
  0.00000000E+00  0.00000000E+00  0.00000000E+00
  0.00000000E+00  0.00000000E+00  0.00000000E+00
  0.00000000E+00  0.00000000E+00  0.00000000E+00
  0.00000000E+00  0.00000000E+00  0.00000000E+00
  0.00000000E+00  0.00000000E+00  0.00000000E+00
  0.00000000E+00  0.00000000E+00  0.00000000E+00
  0.00000000E+00  0.00000000E+00  0.00000000E+00
  0.00000000E+00  0.00000000E+00  0.00000000E+00
  0.00000000E+00  0.00000000E+00  0.00000000E+00
  0.00000000E+00  0.00000000E+00  0.00000000E+00
  0.00000000E+00  0.00000000E+00  0.00000000E+00
  0.00000000E+00  0.00000000E+00  0.00000000E+00
  0.00000000E+00  0.00000000E+00  0.00000000E+00
  0.00000000E+00  0.00000000E+00  0.00000000E+00
  0.00000000E+00  0.00000000E+00  0.00000000E+00
  0.00000000E+00  0.00000000E+00  0.00000000E+00
  0.00000000E+00  0.00000000E+00  0.00000000E+00
  0.00000000E+00  0.00000000E+00  0.00000000E+00
  0.00000000E+00  0.00000000E+00  0.00000000E+00
