Bi La Sn O  C  H                        
   1.00000000000000     
    29.0000000000000000    0.0000000000000000    0.0000000000000000
     0.2488180851000000   28.9989325590000000    0.0000000000000000
    -0.0631677343000000   -0.4515975666000000   28.9964147692999994
   Bi   La   Sn   O    C    H 
    22    23    23     2     1     1
Selective dynamics
Direct
  0.7596710271710093  0.4788898711251544  0.4005637388685689   T   T   T
  0.6482312384841619  0.6844188139162328  0.5496675109086739   T   T   T
  0.3605102925743784  0.4582567125136647  0.4272025795232648   T   T   T
  0.5516255397842452  0.7141218417122213  0.5834906051074505   T   T   T
  0.5915029568994470  0.5209714444905416  0.5841479689498996   F   F   F
  0.6404370377464363  0.6793280474214489  0.4441094145648504   T   T   T
  0.6945428944847443  0.5196069272029453  0.6536633563267338   T   T   T
  0.4885417576492818  0.7022007143374285  0.4981664093823126   T   T   T
  0.5004839460855024  0.5502791173970252  0.5477141156400123   F   F   F
  0.3282243901887378  0.4852677243543977  0.5784612464730737   T   T   T
  0.3825567642630626  0.6086342506590807  0.5377507989096988   T   T   T
  0.6667129484492236  0.4827404655721850  0.5105018184570156   F   F   F
  0.5763997220267569  0.4263140504383500  0.5448328182496311   F   F   F
  0.6678332561249406  0.3738265339079738  0.5068315666677538   T   T   T
  0.4605334533981003  0.3378280976278473  0.4951594771642570   T   T   T
  0.6484934028780529  0.5775373212088155  0.4602701624361103   F   F   F
  0.5542187489473664  0.4341315917050773  0.7496612740542179   T   T   T
  0.5916379551843298  0.3483383509665439  0.6672555139940554   T   T   T
  0.4926352611809808  0.2996853763027769  0.4061939324547765   T   T   T
  0.6603729902493324  0.6153553738614462  0.6683864101948533   T   T   T
  0.4921797967340831  0.4100168026862535  0.3046762550367963   T   T   T
  0.6204338742007035  0.3159590063222972  0.5729123503483696   T   T   T
  0.5398886928965805  0.6864273105923356  0.4012770744529143   T   T   T
  0.3896532307668292  0.4155156368517024  0.5253414384246222   T   T   T
  0.6278310760262398  0.5507809963367433  0.2811844638207778   T   T   T
  0.4730797945952483  0.4807011955595913  0.6925288467654067   T   T   T
  0.5683115009887700  0.5094300495444983  0.4784716241115703   F   F   F
  0.4203210565129183  0.5084107200613417  0.5018573595042781   F   F   F
  0.4527941185544898  0.4015746632520928  0.4047318121013326   T   T   T
  0.5640484664050252  0.3497546328470326  0.3525838611198994   T   T   T
  0.4135924283412982  0.5392893344198335  0.6123282083826194   T   T   T
  0.6008664014697717  0.4401538557842913  0.3063758566810136   T   T   T
  0.4547246005284288  0.6005983629917403  0.3639789203131087   T   T   T
  0.4190408669345598  0.4877532295655312  0.3389945114375713   T   T   T
  0.6606434666445202  0.4249795349513417  0.6045560385782802   T   T   T
  0.6739247760579183  0.5786271324589096  0.5645211057204389   T   T   T
  0.5256662032584376  0.5087593945433747  0.3279424614346688   T   T   T
  0.5647766052574076  0.3566457392236875  0.4693603323001095   T   T   T
  0.3165561780576681  0.5395453746518319  0.4935159324379352   T   T   T
  0.6604386947590064  0.4289030556052694  0.4151246550076077   T   T   T
  0.5660841929594156  0.6261437171197244  0.5094829013827464   F   F   F
  0.5954314808130743  0.5265261720367946  0.6903622009995365   T   T   T
  0.4708690113441110  0.6432810363097402  0.5871165718055509   T   T   T
  0.4625088887122352  0.6036395841779091  0.4646958489235071   T   T   T
  0.7174412071170141  0.5744422155897042  0.3847219130943808   T   T   T
  0.5499310510395361  0.5822218838566187  0.4076968008106903   F   F   F
  0.4794126430662260  0.5072205383607624  0.4190535757241776   F   F   F
  0.6958998811838922  0.4826257703862438  0.3252498758838979   T   T   T
  0.7513526639957694  0.4282530594498326  0.4877933640458815   T   T   T
  0.7493491743919342  0.5385294811688924  0.4871399027199758   T   T   T
  0.7482481891970185  0.4879875371094117  0.5724200051921883   T   T   T
  0.6438382348503580  0.4304963005357785  0.7085287749783002   T   T   T
  0.5794641648991540  0.7443247376750356  0.4927574602443231   T   T   T
  0.6192554540844384  0.5183157687966542  0.3801816896793397   F   F   F
  0.5076295311500038  0.5657369291346919  0.6500283919171356   T   T   T
  0.4922009500451665  0.4366758245867572  0.4933013002826740   F   F   F
  0.5608844484509063  0.4404139570509003  0.6454865549417619   F   F   F
  0.5796955496281823  0.6178290156669357  0.6127527665008664   T   T   T
  0.5444967196586445  0.6148256048362819  0.3122323817863270   T   T   T
  0.6280255465105375  0.6236580907791870  0.3590996396619798   T   T   T
  0.3762697172570122  0.5567354292062270  0.4130755807417625   T   T   T
  0.4723078164089713  0.4557257050327763  0.5877273803360978   F   F   F
  0.7271034493027606  0.6356326994916476  0.4847960326020731   T   T   T
  0.4924622903275285  0.3775673307457856  0.6773723963117619   T   T   T
  0.3873123018626718  0.4366747440999527  0.6407424820725862   T   T   T
  0.5544592502646992  0.4379899399457940  0.4037542370104745   F   F   F
  0.4306407523723338  0.3559827122148699  0.6015888320943767   T   T   T
  0.5254923551712307  0.3492855014696368  0.5752031313699990   T   T   T
  0.5725048663513962  0.7477412133338193  0.3518521133592373   T   T   T
  0.4951113326177686  0.7454208877498277  0.3590025512777023   T   T   T
  0.5322003217956590  0.7639826344402999  0.3441899376137708   T   T   T
  0.5290533082880275  0.7960285822158142  0.3238414192698452   T   T   T
 
  0.00000000E+00  0.00000000E+00  0.00000000E+00
  0.00000000E+00  0.00000000E+00  0.00000000E+00
  0.00000000E+00  0.00000000E+00  0.00000000E+00
  0.00000000E+00  0.00000000E+00  0.00000000E+00
  0.00000000E+00  0.00000000E+00  0.00000000E+00
  0.00000000E+00  0.00000000E+00  0.00000000E+00
  0.00000000E+00  0.00000000E+00  0.00000000E+00
  0.00000000E+00  0.00000000E+00  0.00000000E+00
  0.00000000E+00  0.00000000E+00  0.00000000E+00
  0.00000000E+00  0.00000000E+00  0.00000000E+00
  0.00000000E+00  0.00000000E+00  0.00000000E+00
  0.00000000E+00  0.00000000E+00  0.00000000E+00
  0.00000000E+00  0.00000000E+00  0.00000000E+00
  0.00000000E+00  0.00000000E+00  0.00000000E+00
  0.00000000E+00  0.00000000E+00  0.00000000E+00
  0.00000000E+00  0.00000000E+00  0.00000000E+00
  0.00000000E+00  0.00000000E+00  0.00000000E+00
  0.00000000E+00  0.00000000E+00  0.00000000E+00
  0.00000000E+00  0.00000000E+00  0.00000000E+00
  0.00000000E+00  0.00000000E+00  0.00000000E+00
  0.00000000E+00  0.00000000E+00  0.00000000E+00
  0.00000000E+00  0.00000000E+00  0.00000000E+00
  0.00000000E+00  0.00000000E+00  0.00000000E+00
  0.00000000E+00  0.00000000E+00  0.00000000E+00
  0.00000000E+00  0.00000000E+00  0.00000000E+00
  0.00000000E+00  0.00000000E+00  0.00000000E+00
  0.00000000E+00  0.00000000E+00  0.00000000E+00
  0.00000000E+00  0.00000000E+00  0.00000000E+00
  0.00000000E+00  0.00000000E+00  0.00000000E+00
  0.00000000E+00  0.00000000E+00  0.00000000E+00
  0.00000000E+00  0.00000000E+00  0.00000000E+00
  0.00000000E+00  0.00000000E+00  0.00000000E+00
  0.00000000E+00  0.00000000E+00  0.00000000E+00
  0.00000000E+00  0.00000000E+00  0.00000000E+00
  0.00000000E+00  0.00000000E+00  0.00000000E+00
  0.00000000E+00  0.00000000E+00  0.00000000E+00
  0.00000000E+00  0.00000000E+00  0.00000000E+00
  0.00000000E+00  0.00000000E+00  0.00000000E+00
  0.00000000E+00  0.00000000E+00  0.00000000E+00
  0.00000000E+00  0.00000000E+00  0.00000000E+00
  0.00000000E+00  0.00000000E+00  0.00000000E+00
  0.00000000E+00  0.00000000E+00  0.00000000E+00
  0.00000000E+00  0.00000000E+00  0.00000000E+00
  0.00000000E+00  0.00000000E+00  0.00000000E+00
  0.00000000E+00  0.00000000E+00  0.00000000E+00
  0.00000000E+00  0.00000000E+00  0.00000000E+00
  0.00000000E+00  0.00000000E+00  0.00000000E+00
  0.00000000E+00  0.00000000E+00  0.00000000E+00
  0.00000000E+00  0.00000000E+00  0.00000000E+00
  0.00000000E+00  0.00000000E+00  0.00000000E+00
  0.00000000E+00  0.00000000E+00  0.00000000E+00
  0.00000000E+00  0.00000000E+00  0.00000000E+00
  0.00000000E+00  0.00000000E+00  0.00000000E+00
  0.00000000E+00  0.00000000E+00  0.00000000E+00
  0.00000000E+00  0.00000000E+00  0.00000000E+00
  0.00000000E+00  0.00000000E+00  0.00000000E+00
  0.00000000E+00  0.00000000E+00  0.00000000E+00
  0.00000000E+00  0.00000000E+00  0.00000000E+00
  0.00000000E+00  0.00000000E+00  0.00000000E+00
  0.00000000E+00  0.00000000E+00  0.00000000E+00
  0.00000000E+00  0.00000000E+00  0.00000000E+00
  0.00000000E+00  0.00000000E+00  0.00000000E+00
  0.00000000E+00  0.00000000E+00  0.00000000E+00
  0.00000000E+00  0.00000000E+00  0.00000000E+00
  0.00000000E+00  0.00000000E+00  0.00000000E+00
  0.00000000E+00  0.00000000E+00  0.00000000E+00
  0.00000000E+00  0.00000000E+00  0.00000000E+00
  0.00000000E+00  0.00000000E+00  0.00000000E+00
  0.00000000E+00  0.00000000E+00  0.00000000E+00
  0.00000000E+00  0.00000000E+00  0.00000000E+00
  0.00000000E+00  0.00000000E+00  0.00000000E+00
  0.00000000E+00  0.00000000E+00  0.00000000E+00
