Bi La Sn O  C  H                        
   1.00000000000000     
    29.0000000000000000    0.0000000000000000    0.0000000000000000
     0.2488180851000000   28.9989325590000000    0.0000000000000000
    -0.0631677343000000   -0.4515975666000000   28.9964147692999994
   Bi   La   Sn   O    C    H 
    22    23    23     2     1     1
Selective dynamics
Direct
  0.7581793980484249  0.4780725416455017  0.3992660988106783   T   T   T
  0.6464222153008486  0.6846785869001512  0.5525088044071784   T   T   T
  0.3589310600179603  0.4587059282133414  0.4290852427789210   T   T   T
  0.5498600128547148  0.7130647918637203  0.5844944591336141   T   T   T
  0.5915029568994470  0.5209714444905416  0.5841479689498996   F   F   F
  0.6397352350331332  0.6802307781505462  0.4458374589635901   T   T   T
  0.6957879700995447  0.5233937249262257  0.6550878557448936   T   T   T
  0.4858372905064038  0.7007198728451756  0.5002816048635599   T   T   T
  0.5004839460855024  0.5502791173970252  0.5477141156400123   F   F   F
  0.3241649070595760  0.4859684822585197  0.5716437255489556   T   T   T
  0.3818608223031300  0.6116821424833467  0.5338166868748427   T   T   T
  0.6667129484492236  0.4827404655721850  0.5105018184570156   F   F   F
  0.5763997220267569  0.4263140504383500  0.5448328182496311   F   F   F
  0.6691020799749031  0.3743081117111330  0.5086887909624683   T   T   T
  0.4639636722220133  0.3388285397528280  0.5007427375463509   T   T   T
  0.6484934028780529  0.5775373212088155  0.4602701624361103   F   F   F
  0.5591446769819419  0.4363289117716732  0.7495563187885141   T   T   T
  0.6068544256264007  0.3517898627939916  0.6674884143307390   T   T   T
  0.4913474995451687  0.2988505316906769  0.4110338047118088   T   T   T
  0.6591469533531075  0.6192133034208743  0.6659497218593428   T   T   T
  0.4915199120883593  0.4102266454053217  0.3076091742200103   T   T   T
  0.6196323860972857  0.3150075196676540  0.5713400030580515   T   T   T
  0.5380202796796683  0.6834020135465653  0.4048001245191464   T   T   T
  0.3906779274785543  0.4145562593123315  0.5282970453863050   T   T   T
  0.6285786758652830  0.5522021888581544  0.2828537847382665   T   T   T
  0.4710925263100358  0.4670697814055185  0.6918625759374669   T   T   T
  0.5683115009887700  0.5094300495444983  0.4784716241115703   F   F   F
  0.4203210565129183  0.5084107200613417  0.5018573595042781   F   F   F
  0.4512263519916184  0.4008279501758771  0.4073537947648155   T   T   T
  0.5622779975324108  0.3478581789894811  0.3549758003598433   T   T   T
  0.4088088133341451  0.5407112868008603  0.6075161447666640   T   T   T
  0.5979484813201084  0.4421540269135831  0.3044677819415426   T   T   T
  0.4549947128834216  0.6000548334530952  0.3633923744913970   T   T   T
  0.4176199814209967  0.4871712436703586  0.3406406601220489   T   T   T
  0.6615307034283816  0.4296442852063688  0.6051794455307059   T   T   T
  0.6728358848861854  0.5786887400272113  0.5639825075209786   T   T   T
  0.5257843966453929  0.5096532607883669  0.3279712483342179   T   T   T
  0.5663347363539947  0.3575052785999031  0.4686807052299928   T   T   T
  0.3142727103261002  0.5430562153671475  0.4900862138499922   T   T   T
  0.6595734448522920  0.4293629706737081  0.4167177191604172   T   T   T
  0.5660841929594156  0.6261437171197244  0.5094829013827464   F   F   F
  0.5951641619102035  0.5291832459773693  0.6894988759448153   T   T   T
  0.4695921181083232  0.6411947145624434  0.5887688018000894   T   T   T
  0.4631609697734402  0.6032411319396507  0.4636984016562121   T   T   T
  0.7160187394848281  0.5738626072787320  0.3827495436862269   T   T   T
  0.5499310510395361  0.5822218838566187  0.4076968008106903   F   F   F
  0.4794126430662260  0.5072205383607624  0.4190535757241776   F   F   F
  0.6943083257510487  0.4795192626284682  0.3245292177141923   T   T   T
  0.7518097496319165  0.4300859080929538  0.4893270068131167   T   T   T
  0.7484116522934160  0.5383151945633474  0.4851239280777168   T   T   T
  0.7487140015935433  0.4922320813850292  0.5732276753033149   T   T   T
  0.6487813032007819  0.4385341657906420  0.7092302596263238   T   T   T
  0.5763493145926071  0.7430204502827433  0.4930936504876260   T   T   T
  0.6192554540844384  0.5183157687966542  0.3801816896793397   F   F   F
  0.5032227466891689  0.5570449596207979  0.6498240264447304   T   T   T
  0.4922009500451665  0.4366758245867572  0.4933013002826740   F   F   F
  0.5608844484509063  0.4404139570509003  0.6454865549417619   F   F   F
  0.5759809596621734  0.6155903951703330  0.6138927500420946   T   T   T
  0.5439594815401699  0.6174736595502076  0.3121376136728761   T   T   T
  0.6265899949990488  0.6252425685217406  0.3607542697187746   T   T   T
  0.3771188220663315  0.5574436917517260  0.4128697470034677   T   T   T
  0.4723078164089713  0.4557257050327763  0.5877273803360978   F   F   F
  0.7269060124828426  0.6349193526175634  0.4850102121328502   T   T   T
  0.5073837291445872  0.3651255080819585  0.6867238163978385   T   T   T
  0.3777506372375014  0.4442304274381756  0.6415950339996038   T   T   T
  0.5544592502646992  0.4379899399457940  0.4037542370104745   F   F   F
  0.4348143375052985  0.3682463017120829  0.6156333987481614   T   T   T
  0.5272196389771324  0.3498356309348962  0.5810109666193949   T   T   T
  0.3047058597819487  0.4677865003058324  0.6997994344275273   T   T   T
  0.3171774250778541  0.4013160222360578  0.6596180168566881   T   T   T
  0.2933702214966124  0.4280856973934062  0.6872894254139801   T   T   T
  0.2606494361585561  0.4127350989340715  0.6994484007411294   T   T   T
 
  0.00000000E+00  0.00000000E+00  0.00000000E+00
  0.00000000E+00  0.00000000E+00  0.00000000E+00
  0.00000000E+00  0.00000000E+00  0.00000000E+00
  0.00000000E+00  0.00000000E+00  0.00000000E+00
  0.00000000E+00  0.00000000E+00  0.00000000E+00
  0.00000000E+00  0.00000000E+00  0.00000000E+00
  0.00000000E+00  0.00000000E+00  0.00000000E+00
  0.00000000E+00  0.00000000E+00  0.00000000E+00
  0.00000000E+00  0.00000000E+00  0.00000000E+00
  0.00000000E+00  0.00000000E+00  0.00000000E+00
  0.00000000E+00  0.00000000E+00  0.00000000E+00
  0.00000000E+00  0.00000000E+00  0.00000000E+00
  0.00000000E+00  0.00000000E+00  0.00000000E+00
  0.00000000E+00  0.00000000E+00  0.00000000E+00
  0.00000000E+00  0.00000000E+00  0.00000000E+00
  0.00000000E+00  0.00000000E+00  0.00000000E+00
  0.00000000E+00  0.00000000E+00  0.00000000E+00
  0.00000000E+00  0.00000000E+00  0.00000000E+00
  0.00000000E+00  0.00000000E+00  0.00000000E+00
  0.00000000E+00  0.00000000E+00  0.00000000E+00
  0.00000000E+00  0.00000000E+00  0.00000000E+00
  0.00000000E+00  0.00000000E+00  0.00000000E+00
  0.00000000E+00  0.00000000E+00  0.00000000E+00
  0.00000000E+00  0.00000000E+00  0.00000000E+00
  0.00000000E+00  0.00000000E+00  0.00000000E+00
  0.00000000E+00  0.00000000E+00  0.00000000E+00
  0.00000000E+00  0.00000000E+00  0.00000000E+00
  0.00000000E+00  0.00000000E+00  0.00000000E+00
  0.00000000E+00  0.00000000E+00  0.00000000E+00
  0.00000000E+00  0.00000000E+00  0.00000000E+00
  0.00000000E+00  0.00000000E+00  0.00000000E+00
  0.00000000E+00  0.00000000E+00  0.00000000E+00
  0.00000000E+00  0.00000000E+00  0.00000000E+00
  0.00000000E+00  0.00000000E+00  0.00000000E+00
  0.00000000E+00  0.00000000E+00  0.00000000E+00
  0.00000000E+00  0.00000000E+00  0.00000000E+00
  0.00000000E+00  0.00000000E+00  0.00000000E+00
  0.00000000E+00  0.00000000E+00  0.00000000E+00
  0.00000000E+00  0.00000000E+00  0.00000000E+00
  0.00000000E+00  0.00000000E+00  0.00000000E+00
  0.00000000E+00  0.00000000E+00  0.00000000E+00
  0.00000000E+00  0.00000000E+00  0.00000000E+00
  0.00000000E+00  0.00000000E+00  0.00000000E+00
  0.00000000E+00  0.00000000E+00  0.00000000E+00
  0.00000000E+00  0.00000000E+00  0.00000000E+00
  0.00000000E+00  0.00000000E+00  0.00000000E+00
  0.00000000E+00  0.00000000E+00  0.00000000E+00
  0.00000000E+00  0.00000000E+00  0.00000000E+00
  0.00000000E+00  0.00000000E+00  0.00000000E+00
  0.00000000E+00  0.00000000E+00  0.00000000E+00
  0.00000000E+00  0.00000000E+00  0.00000000E+00
  0.00000000E+00  0.00000000E+00  0.00000000E+00
  0.00000000E+00  0.00000000E+00  0.00000000E+00
  0.00000000E+00  0.00000000E+00  0.00000000E+00
  0.00000000E+00  0.00000000E+00  0.00000000E+00
  0.00000000E+00  0.00000000E+00  0.00000000E+00
  0.00000000E+00  0.00000000E+00  0.00000000E+00
  0.00000000E+00  0.00000000E+00  0.00000000E+00
  0.00000000E+00  0.00000000E+00  0.00000000E+00
  0.00000000E+00  0.00000000E+00  0.00000000E+00
  0.00000000E+00  0.00000000E+00  0.00000000E+00
  0.00000000E+00  0.00000000E+00  0.00000000E+00
  0.00000000E+00  0.00000000E+00  0.00000000E+00
  0.00000000E+00  0.00000000E+00  0.00000000E+00
  0.00000000E+00  0.00000000E+00  0.00000000E+00
  0.00000000E+00  0.00000000E+00  0.00000000E+00
  0.00000000E+00  0.00000000E+00  0.00000000E+00
  0.00000000E+00  0.00000000E+00  0.00000000E+00
  0.00000000E+00  0.00000000E+00  0.00000000E+00
  0.00000000E+00  0.00000000E+00  0.00000000E+00
  0.00000000E+00  0.00000000E+00  0.00000000E+00
  0.00000000E+00  0.00000000E+00  0.00000000E+00
