Bi La Sn O  C  H                        
   1.00000000000000     
    29.0000000000000000    0.0000000000000000    0.0000000000000000
     0.2488180851000000   28.9989325590000000    0.0000000000000000
    -0.0631677343000000   -0.4515975666000000   28.9964147692999994
   Bi   La   Sn   O    C    H 
    22    23    23     2     1     1
Selective dynamics
Direct
  0.7601458428676900  0.4761234192467768  0.3984837245286278   T   T   T
  0.6465956536984465  0.6844865421480428  0.5525707180065381   T   T   T
  0.3567518092083897  0.4657361796321803  0.4260101108772901   T   T   T
  0.5508177710650712  0.7134172193783916  0.5851539521744900   T   T   T
  0.5915029568994470  0.5209714444905416  0.5841479689498996   F   F   F
  0.6400070610956017  0.6807614177590299  0.4456911507381521   T   T   T
  0.6965768780652476  0.5233566851867322  0.6544781346681907   T   T   T
  0.4863188302064749  0.7012706372737633  0.5005813045904102   T   T   T
  0.5004839460855024  0.5502791173970252  0.5477141156400123   F   F   F
  0.3256044246119334  0.4864694837564941  0.5706823532323320   T   T   T
  0.3835633683639390  0.6126578893833607  0.5347392047614247   T   T   T
  0.6667129484492236  0.4827404655721850  0.5105018184570156   F   F   F
  0.5763997220267569  0.4263140504383500  0.5448328182496311   F   F   F
  0.6689293929754544  0.3747198012295112  0.5073964973349414   T   T   T
  0.4669696155022380  0.3384107987013000  0.5033991425651690   T   T   T
  0.6484934028780529  0.5775373212088155  0.4602701624361103   F   F   F
  0.5586256098125105  0.4368234032055368  0.7493666210168769   T   T   T
  0.6062313211889968  0.3533154133968527  0.6721001750368335   T   T   T
  0.4920455184428997  0.2992927018289700  0.4123512382946825   T   T   T
  0.6597834125869481  0.6192756981682819  0.6658826874241083   T   T   T
  0.4919823353158553  0.4115119688591936  0.3121035343133371   T   T   T
  0.6234665523403911  0.3180570813889838  0.5753166768557322   T   T   T
  0.5390351405916073  0.6841522791306212  0.4048566642816357   T   T   T
  0.3881054976492414  0.4129313202040970  0.5220361099473745   T   T   T
  0.6307532875409615  0.5522752881096232  0.2832474579779743   T   T   T
  0.4706851050470088  0.4692443130776702  0.6914233007751257   T   T   T
  0.5683115009887700  0.5094300495444983  0.4784716241115703   F   F   F
  0.4203210565129183  0.5084107200613417  0.5018573595042781   F   F   F
  0.4474527220872319  0.4001017808258849  0.4097118623928834   T   T   T
  0.5629467608591098  0.3469452626933046  0.3557062605588641   T   T   T
  0.4103853260113762  0.5409976659552174  0.6084446106102978   T   T   T
  0.5981808092639097  0.4423584778562745  0.3044785939106276   T   T   T
  0.4562644476002637  0.6030769319980493  0.3626588415223642   T   T   T
  0.4182925875653178  0.4907834516145509  0.3394569346233610   T   T   T
  0.6612258247269195  0.4295477314178883  0.6051395301875337   T   T   T
  0.6732510539804015  0.5786552913829226  0.5638919968785278   T   T   T
  0.5267387822939079  0.5113188043682669  0.3279408245803024   T   T   T
  0.5672672585115409  0.3584520942231009  0.4682056960902040   T   T   T
  0.3153413780847754  0.5470222326487914  0.4908622719611808   T   T   T
  0.6604462390733803  0.4295819976442510  0.4158310691152647   T   T   T
  0.5660841929594156  0.6261437171197244  0.5094829013827464   F   F   F
  0.5960308463457966  0.5291956323535909  0.6894948231352248   T   T   T
  0.4709558792442775  0.6416380239443770  0.5891381452210109   T   T   T
  0.4643210876430713  0.6036800110972401  0.4638323625305347   T   T   T
  0.7168780317545403  0.5716451509726831  0.3832364835727008   T   T   T
  0.5499310510395361  0.5822218838566187  0.4076968008106903   F   F   F
  0.4794126430662260  0.5072205383607624  0.4190535757241776   F   F   F
  0.6951222050160684  0.4782595523613273  0.3243249924498554   T   T   T
  0.7520193440932437  0.4294450511330442  0.4887025116358023   T   T   T
  0.7482714564060851  0.5374272923601816  0.4849233245524173   T   T   T
  0.7490996872593814  0.4911639336898430  0.5727420267850267   T   T   T
  0.6492576472595887  0.4389054299964538  0.7101243561006649   T   T   T
  0.5770389573841377  0.7428536558083422  0.4936535111021894   T   T   T
  0.6192554540844384  0.5183157687966542  0.3801816896793397   F   F   F
  0.5044283173369606  0.5582671235619405  0.6499446391172857   T   T   T
  0.4922009500451665  0.4366758245867572  0.4933013002826740   F   F   F
  0.5608844484509063  0.4404139570509003  0.6454865549417619   F   F   F
  0.5768571543618677  0.6158404935885597  0.6138777140769844   T   T   T
  0.5467886765170306  0.6188120186791763  0.3126026514089039   T   T   T
  0.6291641929288407  0.6249213614641098  0.3614006551713755   T   T   T
  0.3781545350971109  0.5609624103481113  0.4125887968371183   T   T   T
  0.4723078164089713  0.4557257050327763  0.5877273803360978   F   F   F
  0.7269349408147295  0.6346044762720118  0.4843384404849121   T   T   T
  0.5051649904180664  0.3676187472392676  0.6848069130860475   T   T   T
  0.3803116745665498  0.4422116696620416  0.6376636399138896   T   T   T
  0.5544592502646992  0.4379899399457940  0.4037542370104745   F   F   F
  0.4344920700092828  0.3652728136028991  0.6109299210775399   T   T   T
  0.5298722364646973  0.3494657092419625  0.5827537652961222   T   T   T
  0.3773290448739491  0.3632359357957402  0.4386707107900664   T   T   T
  0.3379998477520162  0.3463916144365195  0.5027465149472914   T   T   T
  0.3459928918339961  0.3410758844342779  0.4600260796006458   T   T   T
  0.3248114905254134  0.3165903553405031  0.4395020215036209   T   T   T
 
  0.00000000E+00  0.00000000E+00  0.00000000E+00
  0.00000000E+00  0.00000000E+00  0.00000000E+00
  0.00000000E+00  0.00000000E+00  0.00000000E+00
  0.00000000E+00  0.00000000E+00  0.00000000E+00
  0.00000000E+00  0.00000000E+00  0.00000000E+00
  0.00000000E+00  0.00000000E+00  0.00000000E+00
  0.00000000E+00  0.00000000E+00  0.00000000E+00
  0.00000000E+00  0.00000000E+00  0.00000000E+00
  0.00000000E+00  0.00000000E+00  0.00000000E+00
  0.00000000E+00  0.00000000E+00  0.00000000E+00
  0.00000000E+00  0.00000000E+00  0.00000000E+00
  0.00000000E+00  0.00000000E+00  0.00000000E+00
  0.00000000E+00  0.00000000E+00  0.00000000E+00
  0.00000000E+00  0.00000000E+00  0.00000000E+00
  0.00000000E+00  0.00000000E+00  0.00000000E+00
  0.00000000E+00  0.00000000E+00  0.00000000E+00
  0.00000000E+00  0.00000000E+00  0.00000000E+00
  0.00000000E+00  0.00000000E+00  0.00000000E+00
  0.00000000E+00  0.00000000E+00  0.00000000E+00
  0.00000000E+00  0.00000000E+00  0.00000000E+00
  0.00000000E+00  0.00000000E+00  0.00000000E+00
  0.00000000E+00  0.00000000E+00  0.00000000E+00
  0.00000000E+00  0.00000000E+00  0.00000000E+00
  0.00000000E+00  0.00000000E+00  0.00000000E+00
  0.00000000E+00  0.00000000E+00  0.00000000E+00
  0.00000000E+00  0.00000000E+00  0.00000000E+00
  0.00000000E+00  0.00000000E+00  0.00000000E+00
  0.00000000E+00  0.00000000E+00  0.00000000E+00
  0.00000000E+00  0.00000000E+00  0.00000000E+00
  0.00000000E+00  0.00000000E+00  0.00000000E+00
  0.00000000E+00  0.00000000E+00  0.00000000E+00
  0.00000000E+00  0.00000000E+00  0.00000000E+00
  0.00000000E+00  0.00000000E+00  0.00000000E+00
  0.00000000E+00  0.00000000E+00  0.00000000E+00
  0.00000000E+00  0.00000000E+00  0.00000000E+00
  0.00000000E+00  0.00000000E+00  0.00000000E+00
  0.00000000E+00  0.00000000E+00  0.00000000E+00
  0.00000000E+00  0.00000000E+00  0.00000000E+00
  0.00000000E+00  0.00000000E+00  0.00000000E+00
  0.00000000E+00  0.00000000E+00  0.00000000E+00
  0.00000000E+00  0.00000000E+00  0.00000000E+00
  0.00000000E+00  0.00000000E+00  0.00000000E+00
  0.00000000E+00  0.00000000E+00  0.00000000E+00
  0.00000000E+00  0.00000000E+00  0.00000000E+00
  0.00000000E+00  0.00000000E+00  0.00000000E+00
  0.00000000E+00  0.00000000E+00  0.00000000E+00
  0.00000000E+00  0.00000000E+00  0.00000000E+00
  0.00000000E+00  0.00000000E+00  0.00000000E+00
  0.00000000E+00  0.00000000E+00  0.00000000E+00
  0.00000000E+00  0.00000000E+00  0.00000000E+00
  0.00000000E+00  0.00000000E+00  0.00000000E+00
  0.00000000E+00  0.00000000E+00  0.00000000E+00
  0.00000000E+00  0.00000000E+00  0.00000000E+00
  0.00000000E+00  0.00000000E+00  0.00000000E+00
  0.00000000E+00  0.00000000E+00  0.00000000E+00
  0.00000000E+00  0.00000000E+00  0.00000000E+00
  0.00000000E+00  0.00000000E+00  0.00000000E+00
  0.00000000E+00  0.00000000E+00  0.00000000E+00
  0.00000000E+00  0.00000000E+00  0.00000000E+00
  0.00000000E+00  0.00000000E+00  0.00000000E+00
  0.00000000E+00  0.00000000E+00  0.00000000E+00
  0.00000000E+00  0.00000000E+00  0.00000000E+00
  0.00000000E+00  0.00000000E+00  0.00000000E+00
  0.00000000E+00  0.00000000E+00  0.00000000E+00
  0.00000000E+00  0.00000000E+00  0.00000000E+00
  0.00000000E+00  0.00000000E+00  0.00000000E+00
  0.00000000E+00  0.00000000E+00  0.00000000E+00
  0.00000000E+00  0.00000000E+00  0.00000000E+00
  0.00000000E+00  0.00000000E+00  0.00000000E+00
  0.00000000E+00  0.00000000E+00  0.00000000E+00
  0.00000000E+00  0.00000000E+00  0.00000000E+00
  0.00000000E+00  0.00000000E+00  0.00000000E+00
