Bi La Sn O  C  H                        
   1.00000000000000     
    29.0000000000000000    0.0000000000000000    0.0000000000000000
     0.2488180851000000   28.9989325590000000    0.0000000000000000
    -0.0631677343000000   -0.4515975666000000   28.9964147692999994
   Bi   La   Sn   O    C    H 
    22    23    23     2     1     1
Selective dynamics
Direct
  0.7596104527850279  0.4783711207273238  0.3985842507107120   T   T   T
  0.6466285684263557  0.6844688629233427  0.5523412184875222   T   T   T
  0.3583744349317436  0.4591804611657946  0.4292369328117879   T   T   T
  0.5500775687549735  0.7130895609414939  0.5847424097147697   T   T   T
  0.5915029568994470  0.5209714444905416  0.5841479689498996   F   F   F
  0.6400803116363050  0.6804043788017710  0.4458145644113325   T   T   T
  0.6957624099137567  0.5223188720095308  0.6541399682163154   T   T   T
  0.4860745928791694  0.7010382497488860  0.4996072861336662   T   T   T
  0.5004839460855024  0.5502791173970252  0.5477141156400123   F   F   F
  0.3245159702829359  0.4868244503629353  0.5746556743864129   T   T   T
  0.3816439812596122  0.6107257911551975  0.5348213462650812   T   T   T
  0.6667129484492236  0.4827404655721850  0.5105018184570156   F   F   F
  0.5763997220267569  0.4263140504383500  0.5448328182496311   F   F   F
  0.6685545327136856  0.3739972077749498  0.5063921359935503   T   T   T
  0.4625291095471613  0.3389746711334206  0.5016662916722703   T   T   T
  0.6484934028780529  0.5775373212088155  0.4602701624361103   F   F   F
  0.5592250829496198  0.4365326824866114  0.7498621244678233   T   T   T
  0.6046245181571370  0.3516238169706486  0.6689578778312694   T   T   T
  0.4905264653197576  0.2987350891958057  0.4125521731121588   T   T   T
  0.6598543933467552  0.6185953138669796  0.6661729521201079   T   T   T
  0.4915597202391281  0.4104919197687306  0.3097866129055816   T   T   T
  0.6212777390170495  0.3163015595258555  0.5724622432762864   T   T   T
  0.5388287684546293  0.6837797744593412  0.4046644783700009   T   T   T
  0.3901054704283081  0.4158880958472360  0.5283227985030516   T   T   T
  0.6294364988642018  0.5532271660215651  0.2826859733691553   T   T   T
  0.4716903678418327  0.4705057792762784  0.6919114476153598   T   T   T
  0.5683115009887700  0.5094300495444983  0.4784716241115703   F   F   F
  0.4203210565129183  0.5084107200613417  0.5018573595042781   F   F   F
  0.4503699183739258  0.4005255322644763  0.4083071576744344   T   T   T
  0.5627648779679761  0.3456109049212580  0.3539783959995670   T   T   T
  0.4107202023116842  0.5406664637077248  0.6092715034228673   T   T   T
  0.5982052001237670  0.4415178048001679  0.3019646070480397   T   T   T
  0.4549620283683835  0.6004632423563557  0.3635195463319590   T   T   T
  0.4177994463393414  0.4872064584262182  0.3407803791786682   T   T   T
  0.6614687734147713  0.4280610245855979  0.6040480984692477   T   T   T
  0.6731748544712836  0.5786553598780537  0.5639732399734571   T   T   T
  0.5268399230233203  0.5099592625920512  0.3279127804444137   T   T   T
  0.5650450253049577  0.3574907451589777  0.4694769536322703   T   T   T
  0.3146049584217057  0.5424892053396121  0.4913836089767313   T   T   T
  0.6602540691110578  0.4300181393648436  0.4159871675578791   T   T   T
  0.5660841929594156  0.6261437171197244  0.5094829013827464   F   F   F
  0.5955960049766185  0.5290015279461470  0.6896985759971489   T   T   T
  0.4697007061499039  0.6414257260573916  0.5882086830752771   T   T   T
  0.4628955929550810  0.6033315354512203  0.4638230500120060   T   T   T
  0.7165013347707798  0.5743119497081577  0.3833966810019659   T   T   T
  0.5499310510395361  0.5822218838566187  0.4076968008106903   F   F   F
  0.4794126430662260  0.5072205383607624  0.4190535757241776   F   F   F
  0.6946697137430008  0.4809236494096694  0.3250097127377714   T   T   T
  0.7518083330798712  0.4296191540784582  0.4880244659841906   T   T   T
  0.7482707815829825  0.5380738190418514  0.4852332557174644   T   T   T
  0.7489136815129813  0.4908385972441790  0.5725008234172697   T   T   T
  0.6486966544112043  0.4379114523649479  0.7082155599280940   T   T   T
  0.5766774623805682  0.7428484886112341  0.4935275914011636   T   T   T
  0.6192554540844384  0.5183157687966542  0.3801816896793397   F   F   F
  0.5047000306414835  0.5594486338377906  0.6500208354398062   T   T   T
  0.4922009500451665  0.4366758245867572  0.4933013002826740   F   F   F
  0.5608844484509063  0.4404139570509003  0.6454865549417619   F   F   F
  0.5769267307169943  0.6161296847965149  0.6136939048517721   T   T   T
  0.5444521371420071  0.6174870400883435  0.3122769408467028   T   T   T
  0.6271343061817745  0.6254014631403242  0.3609588031019327   T   T   T
  0.3767065818708208  0.5576235538804730  0.4130446429689490   T   T   T
  0.4723078164089713  0.4557257050327763  0.5877273803360978   F   F   F
  0.7271272806058579  0.6350435206486810  0.4849746620932479   T   T   T
  0.5051218957120663  0.3683233280706153  0.6860364624892988   T   T   T
  0.3806839335995611  0.4427210756702242  0.6407919284653326   T   T   T
  0.5544592502646992  0.4379899399457940  0.4037542370104745   F   F   F
  0.4343953172051572  0.3651344996855578  0.6132429474778757   T   T   T
  0.5278530445471076  0.3497259809055257  0.5807861367343513   T   T   T
  0.6090673461441093  0.3141877798912398  0.2903615043575726   T   T   T
  0.6268162471497220  0.3789383702386206  0.2516861370753152   T   T   T
  0.6242174031016731  0.3353704350450396  0.2552784571125682   T   T   T
  0.6358062717766284  0.3139563184303992  0.2253741733204522   T   T   T
 
  0.00000000E+00  0.00000000E+00  0.00000000E+00
  0.00000000E+00  0.00000000E+00  0.00000000E+00
  0.00000000E+00  0.00000000E+00  0.00000000E+00
  0.00000000E+00  0.00000000E+00  0.00000000E+00
  0.00000000E+00  0.00000000E+00  0.00000000E+00
  0.00000000E+00  0.00000000E+00  0.00000000E+00
  0.00000000E+00  0.00000000E+00  0.00000000E+00
  0.00000000E+00  0.00000000E+00  0.00000000E+00
  0.00000000E+00  0.00000000E+00  0.00000000E+00
  0.00000000E+00  0.00000000E+00  0.00000000E+00
  0.00000000E+00  0.00000000E+00  0.00000000E+00
  0.00000000E+00  0.00000000E+00  0.00000000E+00
  0.00000000E+00  0.00000000E+00  0.00000000E+00
  0.00000000E+00  0.00000000E+00  0.00000000E+00
  0.00000000E+00  0.00000000E+00  0.00000000E+00
  0.00000000E+00  0.00000000E+00  0.00000000E+00
  0.00000000E+00  0.00000000E+00  0.00000000E+00
  0.00000000E+00  0.00000000E+00  0.00000000E+00
  0.00000000E+00  0.00000000E+00  0.00000000E+00
  0.00000000E+00  0.00000000E+00  0.00000000E+00
  0.00000000E+00  0.00000000E+00  0.00000000E+00
  0.00000000E+00  0.00000000E+00  0.00000000E+00
  0.00000000E+00  0.00000000E+00  0.00000000E+00
  0.00000000E+00  0.00000000E+00  0.00000000E+00
  0.00000000E+00  0.00000000E+00  0.00000000E+00
  0.00000000E+00  0.00000000E+00  0.00000000E+00
  0.00000000E+00  0.00000000E+00  0.00000000E+00
  0.00000000E+00  0.00000000E+00  0.00000000E+00
  0.00000000E+00  0.00000000E+00  0.00000000E+00
  0.00000000E+00  0.00000000E+00  0.00000000E+00
  0.00000000E+00  0.00000000E+00  0.00000000E+00
  0.00000000E+00  0.00000000E+00  0.00000000E+00
  0.00000000E+00  0.00000000E+00  0.00000000E+00
  0.00000000E+00  0.00000000E+00  0.00000000E+00
  0.00000000E+00  0.00000000E+00  0.00000000E+00
  0.00000000E+00  0.00000000E+00  0.00000000E+00
  0.00000000E+00  0.00000000E+00  0.00000000E+00
  0.00000000E+00  0.00000000E+00  0.00000000E+00
  0.00000000E+00  0.00000000E+00  0.00000000E+00
  0.00000000E+00  0.00000000E+00  0.00000000E+00
  0.00000000E+00  0.00000000E+00  0.00000000E+00
  0.00000000E+00  0.00000000E+00  0.00000000E+00
  0.00000000E+00  0.00000000E+00  0.00000000E+00
  0.00000000E+00  0.00000000E+00  0.00000000E+00
  0.00000000E+00  0.00000000E+00  0.00000000E+00
  0.00000000E+00  0.00000000E+00  0.00000000E+00
  0.00000000E+00  0.00000000E+00  0.00000000E+00
  0.00000000E+00  0.00000000E+00  0.00000000E+00
  0.00000000E+00  0.00000000E+00  0.00000000E+00
  0.00000000E+00  0.00000000E+00  0.00000000E+00
  0.00000000E+00  0.00000000E+00  0.00000000E+00
  0.00000000E+00  0.00000000E+00  0.00000000E+00
  0.00000000E+00  0.00000000E+00  0.00000000E+00
  0.00000000E+00  0.00000000E+00  0.00000000E+00
  0.00000000E+00  0.00000000E+00  0.00000000E+00
  0.00000000E+00  0.00000000E+00  0.00000000E+00
  0.00000000E+00  0.00000000E+00  0.00000000E+00
  0.00000000E+00  0.00000000E+00  0.00000000E+00
  0.00000000E+00  0.00000000E+00  0.00000000E+00
  0.00000000E+00  0.00000000E+00  0.00000000E+00
  0.00000000E+00  0.00000000E+00  0.00000000E+00
  0.00000000E+00  0.00000000E+00  0.00000000E+00
  0.00000000E+00  0.00000000E+00  0.00000000E+00
  0.00000000E+00  0.00000000E+00  0.00000000E+00
  0.00000000E+00  0.00000000E+00  0.00000000E+00
  0.00000000E+00  0.00000000E+00  0.00000000E+00
  0.00000000E+00  0.00000000E+00  0.00000000E+00
  0.00000000E+00  0.00000000E+00  0.00000000E+00
  0.00000000E+00  0.00000000E+00  0.00000000E+00
  0.00000000E+00  0.00000000E+00  0.00000000E+00
  0.00000000E+00  0.00000000E+00  0.00000000E+00
  0.00000000E+00  0.00000000E+00  0.00000000E+00
