Bi La Sn O  C  H                        
   1.00000000000000     
    29.0000000000000000    0.0000000000000000    0.0000000000000000
     0.2488180851000000   28.9989325590000000    0.0000000000000000
    -0.0631677343000000   -0.4515975666000000   28.9964147692999994
   Bi   La   Sn   O    C    H 
    22    23    23     2     1     1
Selective dynamics
Direct
  0.7631074433415894  0.4731226730676104  0.3951435551343477   T   T   T
  0.6486098132953995  0.6820051061215627  0.5536767071738383   T   T   T
  0.3597023725914222  0.4584793612992450  0.4276989162943976   T   T   T
  0.5523831780163511  0.7129198033059239  0.5841060565612364   T   T   T
  0.5915029568994470  0.5209714444905416  0.5841479689498996   F   F   F
  0.6424791955941950  0.6806506651951904  0.4483266200929874   T   T   T
  0.6955156022369264  0.5205433006074348  0.6545577073137104   T   T   T
  0.4871191043722853  0.7015251599558054  0.4977222008949449   T   T   T
  0.5004839460855024  0.5502791173970252  0.5477141156400123   F   F   F
  0.3260742243892715  0.4853890711932464  0.5749131613109889   T   T   T
  0.3820321524928441  0.6098550265989743  0.5354558285280170   T   T   T
  0.6667129484492236  0.4827404655721850  0.5105018184570156   F   F   F
  0.5763997220267569  0.4263140504383500  0.5448328182496311   F   F   F
  0.6701503883143713  0.3748146458749257  0.5080903348814654   T   T   T
  0.4635400207959114  0.3386172307176528  0.4979363864596891   T   T   T
  0.6484934028780529  0.5775373212088155  0.4602701624361103   F   F   F
  0.5576304889010026  0.4367721285806751  0.7493331319077494   T   T   T
  0.5997389744634707  0.3510461229479344  0.6691728721328229   T   T   T
  0.4937556441691016  0.2997694430923060  0.4084842723540005   T   T   T
  0.6611409766794509  0.6168288555310477  0.6661822859542285   T   T   T
  0.4920317241371960  0.4101612468664499  0.3058550476669079   T   T   T
  0.6222335576060278  0.3167737825453809  0.5735581257338996   T   T   T
  0.5420979855297084  0.6837685460425080  0.4046134926609168   T   T   T
  0.3904562850492065  0.4149983711526126  0.5260708682440521   T   T   T
  0.6300618599731088  0.5519492646189363  0.2827040198500054   T   T   T
  0.4722724114066204  0.4755627026377865  0.6918883480266841   T   T   T
  0.5683115009887700  0.5094300495444983  0.4784716241115703   F   F   F
  0.4203210565129183  0.5084107200613417  0.5018573595042781   F   F   F
  0.4525773186650390  0.4012052142996393  0.4058693054539349   T   T   T
  0.5648585994257387  0.3493168898917164  0.3529929100019034   T   T   T
  0.4113816367327080  0.5398509454969010  0.6102374408556970   T   T   T
  0.5982132387837289  0.4424185789086696  0.3043877415218961   T   T   T
  0.4556288786552299  0.6006668037159240  0.3629908906140372   T   T   T
  0.4187433039311487  0.4870034303400230  0.3398713006688159   T   T   T
  0.6609078243012246  0.4279272901749248  0.6045520972261157   T   T   T
  0.6752789837933278  0.5762273860171577  0.5638527241242003   T   T   T
  0.5264964459704826  0.5096679308076542  0.3279673796484686   T   T   T
  0.5672147683474298  0.3574957098462604  0.4687064745723006   T   T   T
  0.3155016284177814  0.5409556735195292  0.4912670866274347   T   T   T
  0.6616972638210925  0.4295388490944159  0.4165783757267765   T   T   T
  0.5660841929594156  0.6261437171197244  0.5094829013827464   F   F   F
  0.5947502696995232  0.5289957103673121  0.6897009572258725   T   T   T
  0.4701722917404241  0.6426135693223708  0.5867698394400961   T   T   T
  0.4630956299996632  0.6034185771841719  0.4636276370106514   T   T   T
  0.7172647691485206  0.5696604985768638  0.3835067200612582   T   T   T
  0.5499310510395361  0.5822218838566187  0.4076968008106903   F   F   F
  0.4794126430662260  0.5072205383607624  0.4190535757241776   F   F   F
  0.6949839856393761  0.4784498444844631  0.3245546524732993   T   T   T
  0.7534263803376837  0.4270962776293544  0.4862922790146774   T   T   T
  0.7488393544741941  0.5337021368801862  0.4819764808506539   T   T   T
  0.7504635855083632  0.4869830193643049  0.5697550578752643   T   T   T
  0.6475377753704064  0.4363312930005145  0.7086526030007795   T   T   T
  0.5777125065775749  0.7433025505649664  0.4935092348242106   T   T   T
  0.6192554540844384  0.5183157687966542  0.3801816896793397   F   F   F
  0.5046373999558185  0.5635730702019713  0.6505392835112336   T   T   T
  0.4922009500451665  0.4366758245867572  0.4933013002826740   F   F   F
  0.5608844484509063  0.4404139570509003  0.6454865549417619   F   F   F
  0.5783774050720436  0.6159621481383740  0.6130970793101255   T   T   T
  0.5462044336316056  0.6170872960124009  0.3128940435508920   T   T   T
  0.6291807005626956  0.6240063211524886  0.3624523608333873   T   T   T
  0.3774233115164571  0.5570718474271273  0.4126145158292274   T   T   T
  0.4723078164089713  0.4557257050327763  0.5877273803360978   F   F   F
  0.7295272053888272  0.6313364050286022  0.4841388809507640   T   T   T
  0.4996390561803422  0.3724015954912213  0.6820319620161046   T   T   T
  0.3835560271019216  0.4392780955226762  0.6393417246630795   T   T   T
  0.5544592502646992  0.4379899399457940  0.4037542370104745   F   F   F
  0.4334186182496135  0.3604536448343494  0.6065327937310199   T   T   T
  0.5280343084549559  0.3487397753671191  0.5780645832061478   T   T   T
  0.8400215920410232  0.4207142391109348  0.4637578960510922   T   T   T
  0.7993197224838258  0.3608092564281597  0.4901439609403110   T   T   T
  0.8363938445144102  0.3788701219411930  0.4743524905288209   T   T   T
  0.8665325104977977  0.3552630942471976  0.4697895336154409   T   T   T
 
  0.00000000E+00  0.00000000E+00  0.00000000E+00
  0.00000000E+00  0.00000000E+00  0.00000000E+00
  0.00000000E+00  0.00000000E+00  0.00000000E+00
  0.00000000E+00  0.00000000E+00  0.00000000E+00
  0.00000000E+00  0.00000000E+00  0.00000000E+00
  0.00000000E+00  0.00000000E+00  0.00000000E+00
  0.00000000E+00  0.00000000E+00  0.00000000E+00
  0.00000000E+00  0.00000000E+00  0.00000000E+00
  0.00000000E+00  0.00000000E+00  0.00000000E+00
  0.00000000E+00  0.00000000E+00  0.00000000E+00
  0.00000000E+00  0.00000000E+00  0.00000000E+00
  0.00000000E+00  0.00000000E+00  0.00000000E+00
  0.00000000E+00  0.00000000E+00  0.00000000E+00
  0.00000000E+00  0.00000000E+00  0.00000000E+00
  0.00000000E+00  0.00000000E+00  0.00000000E+00
  0.00000000E+00  0.00000000E+00  0.00000000E+00
  0.00000000E+00  0.00000000E+00  0.00000000E+00
  0.00000000E+00  0.00000000E+00  0.00000000E+00
  0.00000000E+00  0.00000000E+00  0.00000000E+00
  0.00000000E+00  0.00000000E+00  0.00000000E+00
  0.00000000E+00  0.00000000E+00  0.00000000E+00
  0.00000000E+00  0.00000000E+00  0.00000000E+00
  0.00000000E+00  0.00000000E+00  0.00000000E+00
  0.00000000E+00  0.00000000E+00  0.00000000E+00
  0.00000000E+00  0.00000000E+00  0.00000000E+00
  0.00000000E+00  0.00000000E+00  0.00000000E+00
  0.00000000E+00  0.00000000E+00  0.00000000E+00
  0.00000000E+00  0.00000000E+00  0.00000000E+00
  0.00000000E+00  0.00000000E+00  0.00000000E+00
  0.00000000E+00  0.00000000E+00  0.00000000E+00
  0.00000000E+00  0.00000000E+00  0.00000000E+00
  0.00000000E+00  0.00000000E+00  0.00000000E+00
  0.00000000E+00  0.00000000E+00  0.00000000E+00
  0.00000000E+00  0.00000000E+00  0.00000000E+00
  0.00000000E+00  0.00000000E+00  0.00000000E+00
  0.00000000E+00  0.00000000E+00  0.00000000E+00
  0.00000000E+00  0.00000000E+00  0.00000000E+00
  0.00000000E+00  0.00000000E+00  0.00000000E+00
  0.00000000E+00  0.00000000E+00  0.00000000E+00
  0.00000000E+00  0.00000000E+00  0.00000000E+00
  0.00000000E+00  0.00000000E+00  0.00000000E+00
  0.00000000E+00  0.00000000E+00  0.00000000E+00
  0.00000000E+00  0.00000000E+00  0.00000000E+00
  0.00000000E+00  0.00000000E+00  0.00000000E+00
  0.00000000E+00  0.00000000E+00  0.00000000E+00
  0.00000000E+00  0.00000000E+00  0.00000000E+00
  0.00000000E+00  0.00000000E+00  0.00000000E+00
  0.00000000E+00  0.00000000E+00  0.00000000E+00
  0.00000000E+00  0.00000000E+00  0.00000000E+00
  0.00000000E+00  0.00000000E+00  0.00000000E+00
  0.00000000E+00  0.00000000E+00  0.00000000E+00
  0.00000000E+00  0.00000000E+00  0.00000000E+00
  0.00000000E+00  0.00000000E+00  0.00000000E+00
  0.00000000E+00  0.00000000E+00  0.00000000E+00
  0.00000000E+00  0.00000000E+00  0.00000000E+00
  0.00000000E+00  0.00000000E+00  0.00000000E+00
  0.00000000E+00  0.00000000E+00  0.00000000E+00
  0.00000000E+00  0.00000000E+00  0.00000000E+00
  0.00000000E+00  0.00000000E+00  0.00000000E+00
  0.00000000E+00  0.00000000E+00  0.00000000E+00
  0.00000000E+00  0.00000000E+00  0.00000000E+00
  0.00000000E+00  0.00000000E+00  0.00000000E+00
  0.00000000E+00  0.00000000E+00  0.00000000E+00
  0.00000000E+00  0.00000000E+00  0.00000000E+00
  0.00000000E+00  0.00000000E+00  0.00000000E+00
  0.00000000E+00  0.00000000E+00  0.00000000E+00
  0.00000000E+00  0.00000000E+00  0.00000000E+00
  0.00000000E+00  0.00000000E+00  0.00000000E+00
  0.00000000E+00  0.00000000E+00  0.00000000E+00
  0.00000000E+00  0.00000000E+00  0.00000000E+00
  0.00000000E+00  0.00000000E+00  0.00000000E+00
  0.00000000E+00  0.00000000E+00  0.00000000E+00
