Bi La Sn O  C  H                        
   1.00000000000000     
    29.0000000000000000    0.0000000000000000    0.0000000000000000
     0.2488180851000000   28.9989325590000000    0.0000000000000000
    -0.0631677343000000   -0.4515975666000000   28.9964147692999994
   Bi   La   Sn   O    C    H 
    22    23    23     2     1     1
Selective dynamics
Direct
  0.7593821612325854  0.4786545168451314  0.3984974580570932   T   T   T
  0.6486105638531318  0.6844662952411091  0.5494615568087096   T   T   T
  0.3596939439475871  0.4578973973010362  0.4284519197461439   T   T   T
  0.5519876316904717  0.7139614975591791  0.5826914591064528   T   T   T
  0.5915029568994470  0.5209714444905416  0.5841479689498996   F   F   F
  0.6407129066385595  0.6795222204134018  0.4446211340940820   T   T   T
  0.6926733722743764  0.5171835490158786  0.6546648171323051   T   T   T
  0.4874059134980893  0.7018727412070971  0.4972679978579301   T   T   T
  0.5004839460855024  0.5502791173970252  0.5477141156400123   F   F   F
  0.3280922532454287  0.4839605737157064  0.5798991893961617   T   T   T
  0.3821877449335463  0.6087965641342996  0.5374320324890699   T   T   T
  0.6667129484492236  0.4827404655721850  0.5105018184570156   F   F   F
  0.5763997220267569  0.4263140504383500  0.5448328182496311   F   F   F
  0.6687777077632803  0.3735093225831754  0.5057463197403798   T   T   T
  0.4608726464333067  0.3380168537107446  0.4944744009327530   T   T   T
  0.6484934028780529  0.5775373212088155  0.4602701624361103   F   F   F
  0.5555436297282175  0.4246405605041709  0.7488209235064567   T   T   T
  0.5902317941348298  0.3481596419736961  0.6659218772456903   T   T   T
  0.4925843862693018  0.3000560690786117  0.4052168063164387   T   T   T
  0.6608045604694607  0.6131280567085262  0.6692294211923457   T   T   T
  0.4902604789496434  0.4115169690121883  0.3034055622383981   T   T   T
  0.6192399646875943  0.3160144144648199  0.5701250659301743   T   T   T
  0.5398183916914296  0.6834713826424504  0.4034428465432863   T   T   T
  0.3896647041412675  0.4151707477119716  0.5263407705548752   T   T   T
  0.6267933114459787  0.5517855996687313  0.2816898524001817   T   T   T
  0.4764213788461487  0.4826380263334061  0.6961943196717837   T   T   T
  0.5683115009887700  0.5094300495444983  0.4784716241115703   F   F   F
  0.4203210565129183  0.5084107200613417  0.5018573595042781   F   F   F
  0.4524564663790015  0.4019341696176648  0.4042888300054420   T   T   T
  0.5623801177089793  0.3507239381809354  0.3504865004397513   T   T   T
  0.4132482579803974  0.5392844219638738  0.6121628820771622   T   T   T
  0.5987432564242352  0.4424628337473628  0.3045255518521996   T   T   T
  0.4541118069048791  0.5998974909637516  0.3642441799225262   T   T   T
  0.4176305805727927  0.4881858098645886  0.3404242807921519   T   T   T
  0.6608862559046101  0.4241589058691059  0.6035958491048046   T   T   T
  0.6745296552354693  0.5783157961536223  0.5646144953132888   T   T   T
  0.5253405955856983  0.5094835620816717  0.3280404195932643   T   T   T
  0.5651835922969731  0.3566455758856930  0.4685145017646586   T   T   T
  0.3156313259841844  0.5390180554551682  0.4953383705779303   T   T   T
  0.6603795298064716  0.4297243651807313  0.4152384933902405   T   T   T
  0.5660841929594156  0.6261437171197244  0.5094829013827464   F   F   F
  0.5926123904567207  0.5267204255860777  0.6945736924629841   T   T   T
  0.4706264433939975  0.6435819261004263  0.5864190001505614   T   T   T
  0.4625681061798811  0.6033710931326361  0.4642831750373221   T   T   T
  0.7162508155938193  0.5742611837593136  0.3832583913938333   T   T   T
  0.5499310510395361  0.5822218838566187  0.4076968008106903   F   F   F
  0.4794126430662260  0.5072205383607624  0.4190535757241776   F   F   F
  0.6947281673984298  0.4817568026353792  0.3238181627674075   T   T   T
  0.7518373884826947  0.4292524414771428  0.4871506174421960   T   T   T
  0.7486081764860050  0.5372806946995219  0.4851400649770887   T   T   T
  0.7480091662962491  0.4893826810454533  0.5726763161701839   T   T   T
  0.6444673311191225  0.4304975222111248  0.7072427351095397   T   T   T
  0.5779228530576562  0.7436897205939188  0.4916009083935858   T   T   T
  0.6192554540844384  0.5183157687966542  0.3801816896793397   F   F   F
  0.5084821783444943  0.5653351042447717  0.6470409381786959   T   T   T
  0.4922009500451665  0.4366758245867572  0.4933013002826740   F   F   F
  0.5608844484509063  0.4404139570509003  0.6454865549417619   F   F   F
  0.5809294521318997  0.6183142500315129  0.6127973457447980   T   T   T
  0.5430157437133252  0.6168247895051108  0.3120225548141908   T   T   T
  0.6265854386669065  0.6243931470745266  0.3596633214708036   T   T   T
  0.3754382526876666  0.5572663559541877  0.4149689970772700   T   T   T
  0.4723078164089713  0.4557257050327763  0.5877273803360978   F   F   F
  0.7280965445764817  0.6344048841631513  0.4840394616010911   T   T   T
  0.4909516823926665  0.3785087844858162  0.6770549622062509   T   T   T
  0.3900333559321286  0.4367027751899592  0.6419184338714630   T   T   T
  0.5544592502646992  0.4379899399457940  0.4037542370104745   F   F   F
  0.4308684977382830  0.3547476295167807  0.6020482674366415   T   T   T
  0.5249979028725235  0.3491575833766475  0.5744761200268766   T   T   T
  0.5808990265245999  0.5539858872815313  0.7756116736630084   T   T   T
  0.5082461211375371  0.5349447181695098  0.7552702216968534   T   T   T
  0.5380926285739664  0.5515479061970222  0.7836597878291243   T   T   T
  0.5250987610643165  0.5647212687634797  0.8173937890189226   T   T   T
 
  0.00000000E+00  0.00000000E+00  0.00000000E+00
  0.00000000E+00  0.00000000E+00  0.00000000E+00
  0.00000000E+00  0.00000000E+00  0.00000000E+00
  0.00000000E+00  0.00000000E+00  0.00000000E+00
  0.00000000E+00  0.00000000E+00  0.00000000E+00
  0.00000000E+00  0.00000000E+00  0.00000000E+00
  0.00000000E+00  0.00000000E+00  0.00000000E+00
  0.00000000E+00  0.00000000E+00  0.00000000E+00
  0.00000000E+00  0.00000000E+00  0.00000000E+00
  0.00000000E+00  0.00000000E+00  0.00000000E+00
  0.00000000E+00  0.00000000E+00  0.00000000E+00
  0.00000000E+00  0.00000000E+00  0.00000000E+00
  0.00000000E+00  0.00000000E+00  0.00000000E+00
  0.00000000E+00  0.00000000E+00  0.00000000E+00
  0.00000000E+00  0.00000000E+00  0.00000000E+00
  0.00000000E+00  0.00000000E+00  0.00000000E+00
  0.00000000E+00  0.00000000E+00  0.00000000E+00
  0.00000000E+00  0.00000000E+00  0.00000000E+00
  0.00000000E+00  0.00000000E+00  0.00000000E+00
  0.00000000E+00  0.00000000E+00  0.00000000E+00
  0.00000000E+00  0.00000000E+00  0.00000000E+00
  0.00000000E+00  0.00000000E+00  0.00000000E+00
  0.00000000E+00  0.00000000E+00  0.00000000E+00
  0.00000000E+00  0.00000000E+00  0.00000000E+00
  0.00000000E+00  0.00000000E+00  0.00000000E+00
  0.00000000E+00  0.00000000E+00  0.00000000E+00
  0.00000000E+00  0.00000000E+00  0.00000000E+00
  0.00000000E+00  0.00000000E+00  0.00000000E+00
  0.00000000E+00  0.00000000E+00  0.00000000E+00
  0.00000000E+00  0.00000000E+00  0.00000000E+00
  0.00000000E+00  0.00000000E+00  0.00000000E+00
  0.00000000E+00  0.00000000E+00  0.00000000E+00
  0.00000000E+00  0.00000000E+00  0.00000000E+00
  0.00000000E+00  0.00000000E+00  0.00000000E+00
  0.00000000E+00  0.00000000E+00  0.00000000E+00
  0.00000000E+00  0.00000000E+00  0.00000000E+00
  0.00000000E+00  0.00000000E+00  0.00000000E+00
  0.00000000E+00  0.00000000E+00  0.00000000E+00
  0.00000000E+00  0.00000000E+00  0.00000000E+00
  0.00000000E+00  0.00000000E+00  0.00000000E+00
  0.00000000E+00  0.00000000E+00  0.00000000E+00
  0.00000000E+00  0.00000000E+00  0.00000000E+00
  0.00000000E+00  0.00000000E+00  0.00000000E+00
  0.00000000E+00  0.00000000E+00  0.00000000E+00
  0.00000000E+00  0.00000000E+00  0.00000000E+00
  0.00000000E+00  0.00000000E+00  0.00000000E+00
  0.00000000E+00  0.00000000E+00  0.00000000E+00
  0.00000000E+00  0.00000000E+00  0.00000000E+00
  0.00000000E+00  0.00000000E+00  0.00000000E+00
  0.00000000E+00  0.00000000E+00  0.00000000E+00
  0.00000000E+00  0.00000000E+00  0.00000000E+00
  0.00000000E+00  0.00000000E+00  0.00000000E+00
  0.00000000E+00  0.00000000E+00  0.00000000E+00
  0.00000000E+00  0.00000000E+00  0.00000000E+00
  0.00000000E+00  0.00000000E+00  0.00000000E+00
  0.00000000E+00  0.00000000E+00  0.00000000E+00
  0.00000000E+00  0.00000000E+00  0.00000000E+00
  0.00000000E+00  0.00000000E+00  0.00000000E+00
  0.00000000E+00  0.00000000E+00  0.00000000E+00
  0.00000000E+00  0.00000000E+00  0.00000000E+00
  0.00000000E+00  0.00000000E+00  0.00000000E+00
  0.00000000E+00  0.00000000E+00  0.00000000E+00
  0.00000000E+00  0.00000000E+00  0.00000000E+00
  0.00000000E+00  0.00000000E+00  0.00000000E+00
  0.00000000E+00  0.00000000E+00  0.00000000E+00
  0.00000000E+00  0.00000000E+00  0.00000000E+00
  0.00000000E+00  0.00000000E+00  0.00000000E+00
  0.00000000E+00  0.00000000E+00  0.00000000E+00
  0.00000000E+00  0.00000000E+00  0.00000000E+00
  0.00000000E+00  0.00000000E+00  0.00000000E+00
  0.00000000E+00  0.00000000E+00  0.00000000E+00
  0.00000000E+00  0.00000000E+00  0.00000000E+00
