Bi La Sn O  C  H                        
   1.00000000000000     
    29.0000000000000000    0.0000000000000000    0.0000000000000000
     0.2488180851000000   28.9989325590000000    0.0000000000000000
    -0.0631677343000000   -0.4515975666000000   28.9964147692999994
   Bi   La   Sn   O    C    H 
    22    23    23     2     1     1
Selective dynamics
Direct
  0.7594067890232720  0.4777811497874944  0.3984739260157589   T   T   T
  0.6472719566297441  0.6837227509508796  0.5544715042157677   T   T   T
  0.3581344834899692  0.4592643257615111  0.4286516975183643   T   T   T
  0.5521662974945111  0.7134350203119413  0.5847308995210536   T   T   T
  0.5915029568994470  0.5209714444905416  0.5841479689498996   F   F   F
  0.6405454695579812  0.6822734843741793  0.4493748438643614   T   T   T
  0.6960786442597655  0.5208229136718585  0.6539381903474193   T   T   T
  0.4859206392001978  0.7009673401428610  0.4991723878070923   T   T   T
  0.5004839460855024  0.5502791173970252  0.5477141156400123   F   F   F
  0.3269668923739223  0.4857920871021216  0.5767655143631519   T   T   T
  0.3832627772436003  0.6096427545106332  0.5367125947737027   T   T   T
  0.6667129484492236  0.4827404655721850  0.5105018184570156   F   F   F
  0.5763997220267569  0.4263140504383500  0.5448328182496311   F   F   F
  0.6685179543970438  0.3734849379951320  0.5076880190108186   T   T   T
  0.4618467043111535  0.3372530295269888  0.4970281199188038   T   T   T
  0.6484934028780529  0.5775373212088155  0.4602701624361103   F   F   F
  0.5566841449338461  0.4360829440255128  0.7498464374707169   T   T   T
  0.5975024370324853  0.3499982196523375  0.6685429019525243   T   T   T
  0.4934359626773464  0.3011618610362676  0.4062004703675119   T   T   T
  0.6610876811214790  0.6171942676231604  0.6664970502433185   T   T   T
  0.4930258580576539  0.4109618281431957  0.3098724787325266   T   T   T
  0.6207899398590228  0.3156615464971589  0.5732806999656156   T   T   T
  0.5389971766718983  0.6842982302288214  0.4050735863981490   T   T   T
  0.3900697489196323  0.4155169725667962  0.5259618206341310   T   T   T
  0.6365442700953970  0.5588564888730175  0.2842274427761785   T   T   T
  0.4726322493385840  0.4765472068667146  0.6927954749202757   T   T   T
  0.5683115009887700  0.5094300495444983  0.4784716241115703   F   F   F
  0.4203210565129183  0.5084107200613417  0.5018573595042781   F   F   F
  0.4504801233521684  0.4014223212495618  0.4074777633653972   T   T   T
  0.5674932909471818  0.3491881166381126  0.3541496069048994   T   T   T
  0.4125384216604970  0.5396725518457139  0.6114442960609512   T   T   T
  0.5978641102870416  0.4419905093022999  0.3034692535532516   T   T   T
  0.4549008606606146  0.6004936762405209  0.3639550328392427   T   T   T
  0.4174297858537292  0.4874125018931524  0.3408691569215063   T   T   T
  0.6608960666565380  0.4271496812694805  0.6048668621211112   T   T   T
  0.6742262364713444  0.5778955497593660  0.5637569751955840   T   T   T
  0.5268684469097727  0.5110546761913276  0.3278589803710636   T   T   T
  0.5654113336063820  0.3570543130182536  0.4693577292531140   T   T   T
  0.3156302261678898  0.5416972511126931  0.4933439243024351   T   T   T
  0.6589869253588992  0.4291076588703085  0.4166032350542759   T   T   T
  0.5660841929594156  0.6261437171197244  0.5094829013827464   F   F   F
  0.5963384663495939  0.5276702865390651  0.6897728086277721   T   T   T
  0.4712713876375177  0.6423791277423107  0.5882942465266645   T   T   T
  0.4629875885302143  0.6029803985389817  0.4636433089117563   T   T   T
  0.7160340460668604  0.5738243339964750  0.3801886667907572   T   T   T
  0.5499310510395361  0.5822218838566187  0.4076968008106903   F   F   F
  0.4794126430662260  0.5072205383607624  0.4190535757241776   F   F   F
  0.6936043583058915  0.4763123856537394  0.3258157764922181   T   T   T
  0.7512397319202245  0.4286992018863717  0.4872954174855562   T   T   T
  0.7486030928661458  0.5366167495988862  0.4848155604784735   T   T   T
  0.7490140256485679  0.4890833678532243  0.5726052885954795   T   T   T
  0.6463874965502046  0.4334833399495914  0.7090914522143144   T   T   T
  0.5752411368431186  0.7444384863849747  0.4934246395809156   T   T   T
  0.6192554540844384  0.5183157687966542  0.3801816896793397   F   F   F
  0.5067553889763108  0.5627323960185100  0.6505294435663195   T   T   T
  0.4922009500451665  0.4366758245867572  0.4933013002826740   F   F   F
  0.5608844484509063  0.4404139570509003  0.6454865549417619   F   F   F
  0.5787134896873805  0.6166211000228597  0.6133224853290805   T   T   T
  0.5446373040203559  0.6174981259227994  0.3125101629667996   T   T   T
  0.6252385634801967  0.6274034065107174  0.3652534166863228   T   T   T
  0.3758698626428341  0.5577344499514933  0.4134001749794227   T   T   T
  0.4723078164089713  0.4557257050327763  0.5877273803360978   F   F   F
  0.7281949599383585  0.6330778455113215  0.4831247305586154   T   T   T
  0.4977533239994225  0.3734924526979834  0.6806040644533043   T   T   T
  0.3847566097223858  0.4384901356227875  0.6400622079575266   T   T   T
  0.5544592502646992  0.4379899399457940  0.4037542370104745   F   F   F
  0.4322823606674663  0.3589668999727729  0.6049186494057570   T   T   T
  0.5267518279658561  0.3492854931601011  0.5771185713768612   T   T   T
  0.7204719978947368  0.5996661532301929  0.3002927187089723   T   T   T
  0.6811555377682225  0.6150878574298418  0.2353279399045685   T   T   T
  0.7149632580021834  0.6215407838348905  0.2622471899866681   T   T   T
  0.7414630215559050  0.6472888617434536  0.2534456680105239   T   T   T
 
  0.00000000E+00  0.00000000E+00  0.00000000E+00
  0.00000000E+00  0.00000000E+00  0.00000000E+00
  0.00000000E+00  0.00000000E+00  0.00000000E+00
  0.00000000E+00  0.00000000E+00  0.00000000E+00
  0.00000000E+00  0.00000000E+00  0.00000000E+00
  0.00000000E+00  0.00000000E+00  0.00000000E+00
  0.00000000E+00  0.00000000E+00  0.00000000E+00
  0.00000000E+00  0.00000000E+00  0.00000000E+00
  0.00000000E+00  0.00000000E+00  0.00000000E+00
  0.00000000E+00  0.00000000E+00  0.00000000E+00
  0.00000000E+00  0.00000000E+00  0.00000000E+00
  0.00000000E+00  0.00000000E+00  0.00000000E+00
  0.00000000E+00  0.00000000E+00  0.00000000E+00
  0.00000000E+00  0.00000000E+00  0.00000000E+00
  0.00000000E+00  0.00000000E+00  0.00000000E+00
  0.00000000E+00  0.00000000E+00  0.00000000E+00
  0.00000000E+00  0.00000000E+00  0.00000000E+00
  0.00000000E+00  0.00000000E+00  0.00000000E+00
  0.00000000E+00  0.00000000E+00  0.00000000E+00
  0.00000000E+00  0.00000000E+00  0.00000000E+00
  0.00000000E+00  0.00000000E+00  0.00000000E+00
  0.00000000E+00  0.00000000E+00  0.00000000E+00
  0.00000000E+00  0.00000000E+00  0.00000000E+00
  0.00000000E+00  0.00000000E+00  0.00000000E+00
  0.00000000E+00  0.00000000E+00  0.00000000E+00
  0.00000000E+00  0.00000000E+00  0.00000000E+00
  0.00000000E+00  0.00000000E+00  0.00000000E+00
  0.00000000E+00  0.00000000E+00  0.00000000E+00
  0.00000000E+00  0.00000000E+00  0.00000000E+00
  0.00000000E+00  0.00000000E+00  0.00000000E+00
  0.00000000E+00  0.00000000E+00  0.00000000E+00
  0.00000000E+00  0.00000000E+00  0.00000000E+00
  0.00000000E+00  0.00000000E+00  0.00000000E+00
  0.00000000E+00  0.00000000E+00  0.00000000E+00
  0.00000000E+00  0.00000000E+00  0.00000000E+00
  0.00000000E+00  0.00000000E+00  0.00000000E+00
  0.00000000E+00  0.00000000E+00  0.00000000E+00
  0.00000000E+00  0.00000000E+00  0.00000000E+00
  0.00000000E+00  0.00000000E+00  0.00000000E+00
  0.00000000E+00  0.00000000E+00  0.00000000E+00
  0.00000000E+00  0.00000000E+00  0.00000000E+00
  0.00000000E+00  0.00000000E+00  0.00000000E+00
  0.00000000E+00  0.00000000E+00  0.00000000E+00
  0.00000000E+00  0.00000000E+00  0.00000000E+00
  0.00000000E+00  0.00000000E+00  0.00000000E+00
  0.00000000E+00  0.00000000E+00  0.00000000E+00
  0.00000000E+00  0.00000000E+00  0.00000000E+00
  0.00000000E+00  0.00000000E+00  0.00000000E+00
  0.00000000E+00  0.00000000E+00  0.00000000E+00
  0.00000000E+00  0.00000000E+00  0.00000000E+00
  0.00000000E+00  0.00000000E+00  0.00000000E+00
  0.00000000E+00  0.00000000E+00  0.00000000E+00
  0.00000000E+00  0.00000000E+00  0.00000000E+00
  0.00000000E+00  0.00000000E+00  0.00000000E+00
  0.00000000E+00  0.00000000E+00  0.00000000E+00
  0.00000000E+00  0.00000000E+00  0.00000000E+00
  0.00000000E+00  0.00000000E+00  0.00000000E+00
  0.00000000E+00  0.00000000E+00  0.00000000E+00
  0.00000000E+00  0.00000000E+00  0.00000000E+00
  0.00000000E+00  0.00000000E+00  0.00000000E+00
  0.00000000E+00  0.00000000E+00  0.00000000E+00
  0.00000000E+00  0.00000000E+00  0.00000000E+00
  0.00000000E+00  0.00000000E+00  0.00000000E+00
  0.00000000E+00  0.00000000E+00  0.00000000E+00
  0.00000000E+00  0.00000000E+00  0.00000000E+00
  0.00000000E+00  0.00000000E+00  0.00000000E+00
  0.00000000E+00  0.00000000E+00  0.00000000E+00
  0.00000000E+00  0.00000000E+00  0.00000000E+00
  0.00000000E+00  0.00000000E+00  0.00000000E+00
  0.00000000E+00  0.00000000E+00  0.00000000E+00
  0.00000000E+00  0.00000000E+00  0.00000000E+00
  0.00000000E+00  0.00000000E+00  0.00000000E+00
