Bi La Sn O  C  H                        
   1.00000000000000     
    29.0000000000000000    0.0000000000000000    0.0000000000000000
     0.2488180851000000   28.9989325590000000    0.0000000000000000
    -0.0631677343000000   -0.4515975666000000   28.9964147692999994
   Bi   La   Sn   O    C    H 
    22    23    23     2     1     1
Selective dynamics
Direct
  0.7596350713183129  0.4780771859466276  0.3974720441602965   T   T   T
  0.6477440001326542  0.6855128270907440  0.5495365132912867   T   T   T
  0.3608974256055762  0.4584769359612718  0.4267816632925595   T   T   T
  0.5508679900732698  0.7137034262436796  0.5830808382604438   T   T   T
  0.5915029568994470  0.5209714444905416  0.5841479689498996   F   F   F
  0.6397728064778494  0.6798175476657868  0.4445000711213130   T   T   T
  0.6935373462793866  0.5201622095706475  0.6535198443303529   T   T   T
  0.4868316179882940  0.7019546133320315  0.4979870331889239   T   T   T
  0.5004839460855024  0.5502791173970252  0.5477141156400123   F   F   F
  0.3277589822389275  0.4844873451223885  0.5787603046196583   T   T   T
  0.3822776823288012  0.6083933448667861  0.5374255054397424   T   T   T
  0.6667129484492236  0.4827404655721850  0.5105018184570156   F   F   F
  0.5763997220267569  0.4263140504383500  0.5448328182496311   F   F   F
  0.6673458706101114  0.3741307377056635  0.5065449687938646   T   T   T
  0.4596628820323383  0.3374207486994963  0.4933782531661114   T   T   T
  0.6484934028780529  0.5775373212088155  0.4602701624361103   F   F   F
  0.5517267665956458  0.4345101981545466  0.7498097233955110   T   T   T
  0.5899956386013248  0.3473595742448350  0.6648350741497728   T   T   T
  0.4920019054143319  0.2996078348031768  0.4041321130178046   T   T   T
  0.6601584359772656  0.6153074499722969  0.6686468083313156   T   T   T
  0.4899573408483756  0.4119758342521463  0.3024735849006856   T   T   T
  0.6178141876001233  0.3150355736260412  0.5701082063266981   T   T   T
  0.5392401320773982  0.6835587550465643  0.4038199073471850   T   T   T
  0.3894625922118344  0.4157976723912828  0.5247141432295710   T   T   T
  0.6262697739886587  0.5513810110887586  0.2817510788629348   T   T   T
  0.4725394551069907  0.4815365930236714  0.6922687074648198   T   T   T
  0.5683115009887700  0.5094300495444983  0.4784716241115703   F   F   F
  0.4203210565129183  0.5084107200613417  0.5018573595042781   F   F   F
  0.4529795651957816  0.4020673434639166  0.4037885377042210   T   T   T
  0.5616159859074729  0.3513417563111528  0.3502158485896942   T   T   T
  0.4131285606817020  0.5389271983942283  0.6121924089054323   T   T   T
  0.5992782644165873  0.4411392232125697  0.3047205664323709   T   T   T
  0.4543258513812592  0.6004059880978311  0.3643279594446047   T   T   T
  0.4182838786621999  0.4893693015651188  0.3389453512356138   T   T   T
  0.6639081925239747  0.4225735146169639  0.6059824035144281   T   T   T
  0.6737276966592350  0.5798353091672128  0.5641425782907873   T   T   T
  0.5253807863834480  0.5094248965622599  0.3283239885398874   T   T   T
  0.5639638814773237  0.3566284570416984  0.4684529676088979   T   T   T
  0.3160317089070226  0.5388661198507922  0.4938498611049081   T   T   T
  0.6604948729500736  0.4295823112635753  0.4148088422876477   T   T   T
  0.5660841929594156  0.6261437171197244  0.5094829013827464   F   F   F
  0.5947489545069988  0.5262575522924055  0.6904277462810499   T   T   T
  0.4702176915774797  0.6431481394504088  0.5869371336584810   T   T   T
  0.4628773245242228  0.6035469663139049  0.4644015386927482   T   T   T
  0.7159771381302497  0.5740923354780689  0.3827671097356783   T   T   T
  0.5499310510395361  0.5822218838566187  0.4076968008106903   F   F   F
  0.4794126430662260  0.5072205383607624  0.4190535757241776   F   F   F
  0.6946933965103441  0.4818896198519900  0.3234732707261107   T   T   T
  0.7513250530509445  0.4297012066673936  0.4867923710476358   T   T   T
  0.7474771689122929  0.5385881257497233  0.4826965248935205   T   T   T
  0.7497821740963648  0.4916537483437878  0.5699428169985545   T   T   T
  0.6409597158979632  0.4285921160918612  0.7096048187101450   T   T   T
  0.5774045718907380  0.7439384545938252  0.4921369980529416   T   T   T
  0.6192554540844384  0.5183157687966542  0.3801816896793397   F   F   F
  0.5073481269593426  0.5660765015715270  0.6499673786701681   T   T   T
  0.4922009500451665  0.4366758245867572  0.4933013002826740   F   F   F
  0.5608844484509063  0.4404139570509003  0.6454865549417619   F   F   F
  0.5795068029586731  0.6175964422413390  0.6127622463155171   T   T   T
  0.5429575074833225  0.6169430643921748  0.3118740917364787   T   T   T
  0.6265397680922223  0.6247986239614673  0.3592281158403692   T   T   T
  0.3757992484958608  0.5575692802391342  0.4139509167763624   T   T   T
  0.4723078164089713  0.4557257050327763  0.5877273803360978   F   F   F
  0.7272795433091618  0.6358073107257303  0.4829068248433485   T   T   T
  0.4908668176361338  0.3786294265554984  0.6746876156980800   T   T   T
  0.3881435970616904  0.4358121437562250  0.6401559745810239   T   T   T
  0.5544592502646992  0.4379899399457940  0.4037542370104745   F   F   F
  0.4294431972244067  0.3542646998836498  0.5997551304327924   T   T   T
  0.5237101535193381  0.3495751655241738  0.5729666334894452   T   T   T
  0.7127895460692687  0.3557592012448549  0.6299776991674820   T   T   T
  0.7426591081689125  0.4252549043664097  0.6470524215352165   T   T   T
  0.7441935470652939  0.3811349401471524  0.6475662781544277   T   T   T
  0.7742237433994957  0.3642875241186753  0.6643936918086369   T   T   T
 
  0.00000000E+00  0.00000000E+00  0.00000000E+00
  0.00000000E+00  0.00000000E+00  0.00000000E+00
  0.00000000E+00  0.00000000E+00  0.00000000E+00
  0.00000000E+00  0.00000000E+00  0.00000000E+00
  0.00000000E+00  0.00000000E+00  0.00000000E+00
  0.00000000E+00  0.00000000E+00  0.00000000E+00
  0.00000000E+00  0.00000000E+00  0.00000000E+00
  0.00000000E+00  0.00000000E+00  0.00000000E+00
  0.00000000E+00  0.00000000E+00  0.00000000E+00
  0.00000000E+00  0.00000000E+00  0.00000000E+00
  0.00000000E+00  0.00000000E+00  0.00000000E+00
  0.00000000E+00  0.00000000E+00  0.00000000E+00
  0.00000000E+00  0.00000000E+00  0.00000000E+00
  0.00000000E+00  0.00000000E+00  0.00000000E+00
  0.00000000E+00  0.00000000E+00  0.00000000E+00
  0.00000000E+00  0.00000000E+00  0.00000000E+00
  0.00000000E+00  0.00000000E+00  0.00000000E+00
  0.00000000E+00  0.00000000E+00  0.00000000E+00
  0.00000000E+00  0.00000000E+00  0.00000000E+00
  0.00000000E+00  0.00000000E+00  0.00000000E+00
  0.00000000E+00  0.00000000E+00  0.00000000E+00
  0.00000000E+00  0.00000000E+00  0.00000000E+00
  0.00000000E+00  0.00000000E+00  0.00000000E+00
  0.00000000E+00  0.00000000E+00  0.00000000E+00
  0.00000000E+00  0.00000000E+00  0.00000000E+00
  0.00000000E+00  0.00000000E+00  0.00000000E+00
  0.00000000E+00  0.00000000E+00  0.00000000E+00
  0.00000000E+00  0.00000000E+00  0.00000000E+00
  0.00000000E+00  0.00000000E+00  0.00000000E+00
  0.00000000E+00  0.00000000E+00  0.00000000E+00
  0.00000000E+00  0.00000000E+00  0.00000000E+00
  0.00000000E+00  0.00000000E+00  0.00000000E+00
  0.00000000E+00  0.00000000E+00  0.00000000E+00
  0.00000000E+00  0.00000000E+00  0.00000000E+00
  0.00000000E+00  0.00000000E+00  0.00000000E+00
  0.00000000E+00  0.00000000E+00  0.00000000E+00
  0.00000000E+00  0.00000000E+00  0.00000000E+00
  0.00000000E+00  0.00000000E+00  0.00000000E+00
  0.00000000E+00  0.00000000E+00  0.00000000E+00
  0.00000000E+00  0.00000000E+00  0.00000000E+00
  0.00000000E+00  0.00000000E+00  0.00000000E+00
  0.00000000E+00  0.00000000E+00  0.00000000E+00
  0.00000000E+00  0.00000000E+00  0.00000000E+00
  0.00000000E+00  0.00000000E+00  0.00000000E+00
  0.00000000E+00  0.00000000E+00  0.00000000E+00
  0.00000000E+00  0.00000000E+00  0.00000000E+00
  0.00000000E+00  0.00000000E+00  0.00000000E+00
  0.00000000E+00  0.00000000E+00  0.00000000E+00
  0.00000000E+00  0.00000000E+00  0.00000000E+00
  0.00000000E+00  0.00000000E+00  0.00000000E+00
  0.00000000E+00  0.00000000E+00  0.00000000E+00
  0.00000000E+00  0.00000000E+00  0.00000000E+00
  0.00000000E+00  0.00000000E+00  0.00000000E+00
  0.00000000E+00  0.00000000E+00  0.00000000E+00
  0.00000000E+00  0.00000000E+00  0.00000000E+00
  0.00000000E+00  0.00000000E+00  0.00000000E+00
  0.00000000E+00  0.00000000E+00  0.00000000E+00
  0.00000000E+00  0.00000000E+00  0.00000000E+00
  0.00000000E+00  0.00000000E+00  0.00000000E+00
  0.00000000E+00  0.00000000E+00  0.00000000E+00
  0.00000000E+00  0.00000000E+00  0.00000000E+00
  0.00000000E+00  0.00000000E+00  0.00000000E+00
  0.00000000E+00  0.00000000E+00  0.00000000E+00
  0.00000000E+00  0.00000000E+00  0.00000000E+00
  0.00000000E+00  0.00000000E+00  0.00000000E+00
  0.00000000E+00  0.00000000E+00  0.00000000E+00
  0.00000000E+00  0.00000000E+00  0.00000000E+00
  0.00000000E+00  0.00000000E+00  0.00000000E+00
  0.00000000E+00  0.00000000E+00  0.00000000E+00
  0.00000000E+00  0.00000000E+00  0.00000000E+00
  0.00000000E+00  0.00000000E+00  0.00000000E+00
  0.00000000E+00  0.00000000E+00  0.00000000E+00
