Bi La Sn O  C  H                        
   1.00000000000000     
    29.0000000000000000    0.0000000000000000    0.0000000000000000
     0.2488180851000000   28.9989325590000000    0.0000000000000000
    -0.0631677343000000   -0.4515975666000000   28.9964147692999994
   Bi   La   Sn   O    C    H 
    22    23    23     2     1     1
Selective dynamics
Direct
  0.7594209346542549  0.4786565373665909  0.3990324713083393   T   T   T
  0.6481147129149422  0.6847844259288103  0.5499307857660047   T   T   T
  0.3598988064401843  0.4582073282191865  0.4278966323446410   T   T   T
  0.5520496546103580  0.7137994464479508  0.5839014802184277   T   T   T
  0.5915029568994470  0.5209714444905416  0.5841479689498996   F   F   F
  0.6402797191754478  0.6797985833779927  0.4447977014254372   T   T   T
  0.6957466821879019  0.5190349219693100  0.6538419731004211   T   T   T
  0.4869910553665440  0.7013971512860571  0.4987034950698873   T   T   T
  0.5004839460855024  0.5502791173970252  0.5477141156400123   F   F   F
  0.3286162042163401  0.4830722944484022  0.5777177629170570   T   T   T
  0.3829918015330714  0.6100895698631159  0.5373631125065964   T   T   T
  0.6667129484492236  0.4827404655721850  0.5105018184570156   F   F   F
  0.5763997220267569  0.4263140504383500  0.5448328182496311   F   F   F
  0.6687474303598925  0.3738293744110461  0.5064744109952751   T   T   T
  0.4619255542880373  0.3370759804465555  0.4941776624392377   T   T   T
  0.6484934028780529  0.5775373212088155  0.4602701624361103   F   F   F
  0.5557495930612397  0.4319876527955499  0.7494561961743862   T   T   T
  0.5902631432816587  0.3482715746699679  0.6673001564946544   T   T   T
  0.4935940838932200  0.3004163356505712  0.4044585571802997   T   T   T
  0.6613013323905572  0.6144846416153934  0.6689651558130104   T   T   T
  0.4925243520049100  0.4107536923566001  0.3048739628773270   T   T   T
  0.6203591636561893  0.3168134125236481  0.5724815922908415   T   T   T
  0.5393945280533843  0.6836087095073402  0.4042305595924429   T   T   T
  0.3903461553885849  0.4142052630512799  0.5247557662045469   T   T   T
  0.6274182905156654  0.5521174306379673  0.2819499346529746   T   T   T
  0.4725414754625272  0.4821273344726791  0.6967691529085244   T   T   T
  0.5683115009887700  0.5094300495444983  0.4784716241115703   F   F   F
  0.4203210565129183  0.5084107200613417  0.5018573595042781   F   F   F
  0.4525558125933234  0.4016790295208904  0.4045348386911083   T   T   T
  0.5653498694976700  0.3498999285970122  0.3514360312841729   T   T   T
  0.4118177130576889  0.5395940124890646  0.6129460591643831   T   T   T
  0.5990215197495978  0.4425252675761472  0.3048159234716664   T   T   T
  0.4545669202831499  0.5997770601109993  0.3635966336131548   T   T   T
  0.4187419227677700  0.4874229138701274  0.3402396370282350   T   T   T
  0.6606622115010912  0.4253654138591018  0.6045108333778826   T   T   T
  0.6743985790093687  0.5786186128502880  0.5646004782928772   T   T   T
  0.5257218531700761  0.5100807161080406  0.3279138617144823   T   T   T
  0.5657579513056847  0.3568715208375281  0.4686017737848411   T   T   T
  0.3168997521748315  0.5402962214919638  0.4944999507415641   T   T   T
  0.6602279773764677  0.4295319394105931  0.4153992674869702   T   T   T
  0.5660841929594156  0.6261437171197244  0.5094829013827464   F   F   F
  0.5964394815595303  0.5255748462924685  0.6905985688019861   T   T   T
  0.4714024845751478  0.6428379549809926  0.5877366358636945   T   T   T
  0.4622923326424696  0.6034033349767098  0.4638928776122095   T   T   T
  0.7164309571540836  0.5743784387452774  0.3834392683504861   T   T   T
  0.5499310510395361  0.5822218838566187  0.4076968008106903   F   F   F
  0.4794126430662260  0.5072205383607624  0.4190535757241776   F   F   F
  0.6950692472390967  0.4816588436819156  0.3243509574663953   T   T   T
  0.7520398819031944  0.4287312988268491  0.4871274888274429   T   T   T
  0.7485105572929210  0.5379013502265989  0.4854694812119094   T   T   T
  0.7488738272086376  0.4890343094459004  0.5718679075402161   T   T   T
  0.6446065533944393  0.4290249843884528  0.7084156700867881   T   T   T
  0.5775323593638162  0.7435307991112841  0.4924817365034861   T   T   T
  0.6192554540844384  0.5183157687966542  0.3801816896793397   F   F   F
  0.5098324122643931  0.5627229542941928  0.6474219192791810   T   T   T
  0.4922009500451665  0.4366758245867572  0.4933013002826740   F   F   F
  0.5608844484509063  0.4404139570509003  0.6454865549417619   F   F   F
  0.5808892609978243  0.6181341327727491  0.6130328853843658   T   T   T
  0.5437321576079800  0.6176478396426440  0.3122210161895186   T   T   T
  0.6270863615954084  0.6246852469628462  0.3598228293833692   T   T   T
  0.3758751729762705  0.5571004664855290  0.4135604555917725   T   T   T
  0.4723078164089713  0.4557257050327763  0.5877273803360978   F   F   F
  0.7278104311844134  0.6347353425871409  0.4839729669211090   T   T   T
  0.4906071672554315  0.3792131885956382  0.6766155023463739   T   T   T
  0.3896448417608180  0.4349654911837039  0.6402531182710023   T   T   T
  0.5544592502646992  0.4379899399457940  0.4037542370104745   F   F   F
  0.4311983955614611  0.3537200474041698  0.6003886237063961   T   T   T
  0.5255566196695938  0.3493294691587939  0.5748717316429360   T   T   T
  0.4261950922701109  0.5171416823816536  0.7626484140800375   T   T   T
  0.4025538584635559  0.5482709866941275  0.6960015388671549   T   T   T
  0.4009561215873390  0.5446012681394072  0.7401646311160134   T   T   T
  0.3760103781991597  0.5672571713319596  0.7588247318691014   T   T   T
 
  0.00000000E+00  0.00000000E+00  0.00000000E+00
  0.00000000E+00  0.00000000E+00  0.00000000E+00
  0.00000000E+00  0.00000000E+00  0.00000000E+00
  0.00000000E+00  0.00000000E+00  0.00000000E+00
  0.00000000E+00  0.00000000E+00  0.00000000E+00
  0.00000000E+00  0.00000000E+00  0.00000000E+00
  0.00000000E+00  0.00000000E+00  0.00000000E+00
  0.00000000E+00  0.00000000E+00  0.00000000E+00
  0.00000000E+00  0.00000000E+00  0.00000000E+00
  0.00000000E+00  0.00000000E+00  0.00000000E+00
  0.00000000E+00  0.00000000E+00  0.00000000E+00
  0.00000000E+00  0.00000000E+00  0.00000000E+00
  0.00000000E+00  0.00000000E+00  0.00000000E+00
  0.00000000E+00  0.00000000E+00  0.00000000E+00
  0.00000000E+00  0.00000000E+00  0.00000000E+00
  0.00000000E+00  0.00000000E+00  0.00000000E+00
  0.00000000E+00  0.00000000E+00  0.00000000E+00
  0.00000000E+00  0.00000000E+00  0.00000000E+00
  0.00000000E+00  0.00000000E+00  0.00000000E+00
  0.00000000E+00  0.00000000E+00  0.00000000E+00
  0.00000000E+00  0.00000000E+00  0.00000000E+00
  0.00000000E+00  0.00000000E+00  0.00000000E+00
  0.00000000E+00  0.00000000E+00  0.00000000E+00
  0.00000000E+00  0.00000000E+00  0.00000000E+00
  0.00000000E+00  0.00000000E+00  0.00000000E+00
  0.00000000E+00  0.00000000E+00  0.00000000E+00
  0.00000000E+00  0.00000000E+00  0.00000000E+00
  0.00000000E+00  0.00000000E+00  0.00000000E+00
  0.00000000E+00  0.00000000E+00  0.00000000E+00
  0.00000000E+00  0.00000000E+00  0.00000000E+00
  0.00000000E+00  0.00000000E+00  0.00000000E+00
  0.00000000E+00  0.00000000E+00  0.00000000E+00
  0.00000000E+00  0.00000000E+00  0.00000000E+00
  0.00000000E+00  0.00000000E+00  0.00000000E+00
  0.00000000E+00  0.00000000E+00  0.00000000E+00
  0.00000000E+00  0.00000000E+00  0.00000000E+00
  0.00000000E+00  0.00000000E+00  0.00000000E+00
  0.00000000E+00  0.00000000E+00  0.00000000E+00
  0.00000000E+00  0.00000000E+00  0.00000000E+00
  0.00000000E+00  0.00000000E+00  0.00000000E+00
  0.00000000E+00  0.00000000E+00  0.00000000E+00
  0.00000000E+00  0.00000000E+00  0.00000000E+00
  0.00000000E+00  0.00000000E+00  0.00000000E+00
  0.00000000E+00  0.00000000E+00  0.00000000E+00
  0.00000000E+00  0.00000000E+00  0.00000000E+00
  0.00000000E+00  0.00000000E+00  0.00000000E+00
  0.00000000E+00  0.00000000E+00  0.00000000E+00
  0.00000000E+00  0.00000000E+00  0.00000000E+00
  0.00000000E+00  0.00000000E+00  0.00000000E+00
  0.00000000E+00  0.00000000E+00  0.00000000E+00
  0.00000000E+00  0.00000000E+00  0.00000000E+00
  0.00000000E+00  0.00000000E+00  0.00000000E+00
  0.00000000E+00  0.00000000E+00  0.00000000E+00
  0.00000000E+00  0.00000000E+00  0.00000000E+00
  0.00000000E+00  0.00000000E+00  0.00000000E+00
  0.00000000E+00  0.00000000E+00  0.00000000E+00
  0.00000000E+00  0.00000000E+00  0.00000000E+00
  0.00000000E+00  0.00000000E+00  0.00000000E+00
  0.00000000E+00  0.00000000E+00  0.00000000E+00
  0.00000000E+00  0.00000000E+00  0.00000000E+00
  0.00000000E+00  0.00000000E+00  0.00000000E+00
  0.00000000E+00  0.00000000E+00  0.00000000E+00
  0.00000000E+00  0.00000000E+00  0.00000000E+00
  0.00000000E+00  0.00000000E+00  0.00000000E+00
  0.00000000E+00  0.00000000E+00  0.00000000E+00
  0.00000000E+00  0.00000000E+00  0.00000000E+00
  0.00000000E+00  0.00000000E+00  0.00000000E+00
  0.00000000E+00  0.00000000E+00  0.00000000E+00
  0.00000000E+00  0.00000000E+00  0.00000000E+00
  0.00000000E+00  0.00000000E+00  0.00000000E+00
  0.00000000E+00  0.00000000E+00  0.00000000E+00
  0.00000000E+00  0.00000000E+00  0.00000000E+00
