Bi La Sn O  C  H                        
   1.00000000000000     
    29.0000000000000000    0.0000000000000000    0.0000000000000000
     0.2488180851000000   28.9989325590000000    0.0000000000000000
    -0.0631677343000000   -0.4515975666000000   28.9964147692999994
   Bi   La   Sn   O    C    H 
    22    23    23     2     1     1
Selective dynamics
Direct
  0.7603191282662549  0.4778410083569583  0.3989323338684796   T   T   T
  0.6466159396545492  0.6839603813058260  0.5532577719918902   T   T   T
  0.3561983642629322  0.4605614825839753  0.4312263590877993   T   T   T
  0.5506648517593130  0.7130875148247898  0.5853412033514958   T   T   T
  0.5915029568994470  0.5209714444905416  0.5841479689498996   F   F   F
  0.6404968401498246  0.6811261815890798  0.4467124803405071   T   T   T
  0.6958806848733134  0.5221264277921835  0.6544224276585288   T   T   T
  0.4859622967062893  0.7008290580867403  0.5004236878073280   T   T   T
  0.5004839460855024  0.5502791173970252  0.5477141156400123   F   F   F
  0.3246285027525159  0.4866488814543950  0.5733145822425680   T   T   T
  0.3831231863709565  0.6114985305693950  0.5350970616254703   T   T   T
  0.6667129484492236  0.4827404655721850  0.5105018184570156   F   F   F
  0.5763997220267569  0.4263140504383500  0.5448328182496311   F   F   F
  0.6690474794826118  0.3742002184111828  0.5059877945731771   T   T   T
  0.4634512620440495  0.3381072992396716  0.5004247191073623   T   T   T
  0.6484934028780529  0.5775373212088155  0.4602701624361103   F   F   F
  0.5579240098437614  0.4368133159996616  0.7498076139814432   T   T   T
  0.6052441623104664  0.3513405794165848  0.6686731621035901   T   T   T
  0.4925420307122843  0.2988099645416609  0.4108749909811386   T   T   T
  0.6599418665970567  0.6184746550261020  0.6660191728519995   T   T   T
  0.4961485480347922  0.4099319138191624  0.3105961311985950   T   T   T
  0.6216629783719618  0.3166205002427327  0.5722227614122390   T   T   T
  0.5390238173709191  0.6838414224674553  0.4053843698199423   T   T   T
  0.3909172018733236  0.4153720289755571  0.5278219528580024   T   T   T
  0.6310468640641435  0.5536750047536998  0.2834063341809476   T   T   T
  0.4708788441838179  0.4699774041239286  0.6913591999681898   T   T   T
  0.5683115009887700  0.5094300495444983  0.4784716241115703   F   F   F
  0.4203210565129183  0.5084107200613417  0.5018573595042781   F   F   F
  0.4491365347461981  0.3996048534342145  0.4075420571282354   T   T   T
  0.5656904697955146  0.3470772240821329  0.3564983630897754   T   T   T
  0.4104543195215187  0.5405125247972836  0.6092445996328012   T   T   T
  0.5997837220719918  0.4436187406615109  0.3043046122740990   T   T   T
  0.4556473177020014  0.5998230323970944  0.3622818373664266   T   T   T
  0.4141108721400572  0.4830562951996463  0.3403470855668619   T   T   T
  0.6612569886211888  0.4282187304529695  0.6041673714999962   T   T   T
  0.6733516966968975  0.5783354899950838  0.5639683500793502   T   T   T
  0.5267104398881727  0.5102911738689699  0.3276762011162944   T   T   T
  0.5661272171626831  0.3579827586369071  0.4688189650770955   T   T   T
  0.3151340189308765  0.5449485156803163  0.4917174274722190   T   T   T
  0.6606657002282907  0.4297820708517130  0.4153230744865250   T   T   T
  0.5660841929594156  0.6261437171197244  0.5094829013827464   F   F   F
  0.5954314747063777  0.5289730027117324  0.6898107692201859   T   T   T
  0.4704307005403862  0.6415018544568981  0.5890161752914758   T   T   T
  0.4632299322233375  0.6035481578079583  0.4633907503740800   T   T   T
  0.7170300702765446  0.5736563756819499  0.3836445225153973   T   T   T
  0.5499310510395361  0.5822218838566187  0.4076968008106903   F   F   F
  0.4794126430662260  0.5072205383607624  0.4190535757241776   F   F   F
  0.6962045605531453  0.4803078359672439  0.3247212487897821   T   T   T
  0.7522464435374465  0.4297156516166807  0.4884666210504758   T   T   T
  0.7484917993441064  0.5378173995441643  0.4853760132295968   T   T   T
  0.7489098560286779  0.4911802650211209  0.5728554061823277   T   T   T
  0.6480559590514295  0.4376842520652783  0.7089304906945538   T   T   T
  0.5763217352731109  0.7428443771391214  0.4939853908823184   T   T   T
  0.6192554540844384  0.5183157687966542  0.3801816896793397   F   F   F
  0.5044125393072254  0.5589356386143425  0.6502169374288802   T   T   T
  0.4922009500451665  0.4366758245867572  0.4933013002826740   F   F   F
  0.5608844484509063  0.4404139570509003  0.6454865549417619   F   F   F
  0.5768955900969223  0.6157543942186542  0.6138391612715612   T   T   T
  0.5462055484539504  0.6181784334084638  0.3127244757957018   T   T   T
  0.6282346631288698  0.6257161327562814  0.3621755282973112   T   T   T
  0.3774879088610816  0.5567906170455152  0.4122745683220696   T   T   T
  0.4723078164089713  0.4557257050327763  0.5877273803360978   F   F   F
  0.7272661928728567  0.6347374658129961  0.4850524532155661   T   T   T
  0.5056706290634627  0.3682252081177759  0.6850201800205775   T   T   T
  0.3798261876580704  0.4424313241150101  0.6400605370742872   T   T   T
  0.5544592502646992  0.4379899399457940  0.4037542370104745   F   F   F
  0.4347351963709037  0.3654734472295587  0.6125952520033322   T   T   T
  0.5281343415718857  0.3494441991280828  0.5802248338816790   T   T   T
  0.3881439658136781  0.3902621768430622  0.3479897878266069   T   T   T
  0.3562141353031789  0.4376457758322569  0.2959232447775734   T   T   T
  0.3594029801564174  0.3988648888847075  0.3156282965594402   T   T   T
  0.3359985487520046  0.3707972903223165  0.3044258317899960   T   T   T
 
  0.00000000E+00  0.00000000E+00  0.00000000E+00
  0.00000000E+00  0.00000000E+00  0.00000000E+00
  0.00000000E+00  0.00000000E+00  0.00000000E+00
  0.00000000E+00  0.00000000E+00  0.00000000E+00
  0.00000000E+00  0.00000000E+00  0.00000000E+00
  0.00000000E+00  0.00000000E+00  0.00000000E+00
  0.00000000E+00  0.00000000E+00  0.00000000E+00
  0.00000000E+00  0.00000000E+00  0.00000000E+00
  0.00000000E+00  0.00000000E+00  0.00000000E+00
  0.00000000E+00  0.00000000E+00  0.00000000E+00
  0.00000000E+00  0.00000000E+00  0.00000000E+00
  0.00000000E+00  0.00000000E+00  0.00000000E+00
  0.00000000E+00  0.00000000E+00  0.00000000E+00
  0.00000000E+00  0.00000000E+00  0.00000000E+00
  0.00000000E+00  0.00000000E+00  0.00000000E+00
  0.00000000E+00  0.00000000E+00  0.00000000E+00
  0.00000000E+00  0.00000000E+00  0.00000000E+00
  0.00000000E+00  0.00000000E+00  0.00000000E+00
  0.00000000E+00  0.00000000E+00  0.00000000E+00
  0.00000000E+00  0.00000000E+00  0.00000000E+00
  0.00000000E+00  0.00000000E+00  0.00000000E+00
  0.00000000E+00  0.00000000E+00  0.00000000E+00
  0.00000000E+00  0.00000000E+00  0.00000000E+00
  0.00000000E+00  0.00000000E+00  0.00000000E+00
  0.00000000E+00  0.00000000E+00  0.00000000E+00
  0.00000000E+00  0.00000000E+00  0.00000000E+00
  0.00000000E+00  0.00000000E+00  0.00000000E+00
  0.00000000E+00  0.00000000E+00  0.00000000E+00
  0.00000000E+00  0.00000000E+00  0.00000000E+00
  0.00000000E+00  0.00000000E+00  0.00000000E+00
  0.00000000E+00  0.00000000E+00  0.00000000E+00
  0.00000000E+00  0.00000000E+00  0.00000000E+00
  0.00000000E+00  0.00000000E+00  0.00000000E+00
  0.00000000E+00  0.00000000E+00  0.00000000E+00
  0.00000000E+00  0.00000000E+00  0.00000000E+00
  0.00000000E+00  0.00000000E+00  0.00000000E+00
  0.00000000E+00  0.00000000E+00  0.00000000E+00
  0.00000000E+00  0.00000000E+00  0.00000000E+00
  0.00000000E+00  0.00000000E+00  0.00000000E+00
  0.00000000E+00  0.00000000E+00  0.00000000E+00
  0.00000000E+00  0.00000000E+00  0.00000000E+00
  0.00000000E+00  0.00000000E+00  0.00000000E+00
  0.00000000E+00  0.00000000E+00  0.00000000E+00
  0.00000000E+00  0.00000000E+00  0.00000000E+00
  0.00000000E+00  0.00000000E+00  0.00000000E+00
  0.00000000E+00  0.00000000E+00  0.00000000E+00
  0.00000000E+00  0.00000000E+00  0.00000000E+00
  0.00000000E+00  0.00000000E+00  0.00000000E+00
  0.00000000E+00  0.00000000E+00  0.00000000E+00
  0.00000000E+00  0.00000000E+00  0.00000000E+00
  0.00000000E+00  0.00000000E+00  0.00000000E+00
  0.00000000E+00  0.00000000E+00  0.00000000E+00
  0.00000000E+00  0.00000000E+00  0.00000000E+00
  0.00000000E+00  0.00000000E+00  0.00000000E+00
  0.00000000E+00  0.00000000E+00  0.00000000E+00
  0.00000000E+00  0.00000000E+00  0.00000000E+00
  0.00000000E+00  0.00000000E+00  0.00000000E+00
  0.00000000E+00  0.00000000E+00  0.00000000E+00
  0.00000000E+00  0.00000000E+00  0.00000000E+00
  0.00000000E+00  0.00000000E+00  0.00000000E+00
  0.00000000E+00  0.00000000E+00  0.00000000E+00
  0.00000000E+00  0.00000000E+00  0.00000000E+00
  0.00000000E+00  0.00000000E+00  0.00000000E+00
  0.00000000E+00  0.00000000E+00  0.00000000E+00
  0.00000000E+00  0.00000000E+00  0.00000000E+00
  0.00000000E+00  0.00000000E+00  0.00000000E+00
  0.00000000E+00  0.00000000E+00  0.00000000E+00
  0.00000000E+00  0.00000000E+00  0.00000000E+00
  0.00000000E+00  0.00000000E+00  0.00000000E+00
  0.00000000E+00  0.00000000E+00  0.00000000E+00
  0.00000000E+00  0.00000000E+00  0.00000000E+00
  0.00000000E+00  0.00000000E+00  0.00000000E+00
