Bi La Sn O  C  H                        
   1.00000000000000     
    29.0000000000000000    0.0000000000000000    0.0000000000000000
     0.2488180851000000   28.9989325590000000    0.0000000000000000
    -0.0631677343000000   -0.4515975666000000   28.9964147692999994
   Bi   La   Sn   O    C    H 
    22    23    23     2     1     1
Selective dynamics
Direct
  0.7606007631525419  0.4759850037615522  0.3996626673252217   T   T   T
  0.6462661751028231  0.6848092427973103  0.5517153970830890   T   T   T
  0.3603440089426372  0.4593951125512422  0.4272859777883984   T   T   T
  0.5502731190958986  0.7134690795745142  0.5845831193036185   T   T   T
  0.5915029568994470  0.5209714444905416  0.5841479689498996   F   F   F
  0.6397748334052630  0.6810001789940137  0.4451172046326208   T   T   T
  0.6960426759807733  0.5226286039793870  0.6534964189652003   T   T   T
  0.4863596670396988  0.7008353801576487  0.5003555437132540   T   T   T
  0.5004839460855024  0.5502791173970252  0.5477141156400123   F   F   F
  0.3249763173229531  0.4870976166709832  0.5735444344180355   T   T   T
  0.3829460381802435  0.6109651622831719  0.5354094346677586   T   T   T
  0.6667129484492236  0.4827404655721850  0.5105018184570156   F   F   F
  0.5763997220267569  0.4263140504383500  0.5448328182496311   F   F   F
  0.6681649999632533  0.3735839077277321  0.5062255278117778   T   T   T
  0.4628007953596353  0.3382594808226938  0.4999828975617777   T   T   T
  0.6484934028780529  0.5775373212088155  0.4602701624361103   F   F   F
  0.5589921722268545  0.4365595073693264  0.7493219046195766   T   T   T
  0.6044398686970162  0.3519573641311368  0.6693973561549027   T   T   T
  0.4921844822060517  0.2984145336042183  0.4103955033408088   T   T   T
  0.6599427731780002  0.6187243563419419  0.6657306506822336   T   T   T
  0.4939176321165145  0.4095182564283493  0.3084261286012266   T   T   T
  0.6215821350865166  0.3162874247573161  0.5732058015450158   T   T   T
  0.5373930730395783  0.6852433370646915  0.4028921306992660   T   T   T
  0.3905584660253376  0.4157786522974994  0.5271593283498059   T   T   T
  0.6309569511693880  0.5516051832194190  0.2831218939548567   T   T   T
  0.4711924107426256  0.4702712427481645  0.6917937187855573   T   T   T
  0.5683115009887700  0.5094300495444983  0.4784716241115703   F   F   F
  0.4203210565129183  0.5084107200613417  0.5018573595042781   F   F   F
  0.4522866877044882  0.4003154837102362  0.4073989448731282   T   T   T
  0.5646751459242090  0.3474128824542007  0.3558753720085865   T   T   T
  0.4108514455421136  0.5402585934631849  0.6097646013236512   T   T   T
  0.6001710067064269  0.4412771640320449  0.3051022286157812   T   T   T
  0.4548920411800830  0.6047190001512750  0.3617540679059592   T   T   T
  0.4198620061739614  0.4872177626070248  0.3385505351896109   T   T   T
  0.6613238044536111  0.4281173556447797  0.6040423033158684   T   T   T
  0.6734799115601232  0.5787846055482158  0.5636264902492805   T   T   T
  0.5267215902692639  0.5096639499475245  0.3277200692200309   T   T   T
  0.5653487477625090  0.3574272127619901  0.4691421324590426   T   T   T
  0.3169399008277808  0.5431896073471142  0.4900785911562981   T   T   T
  0.6601553254366948  0.4292585008932140  0.4156510242651423   T   T   T
  0.5660841929594156  0.6261437171197244  0.5094829013827464   F   F   F
  0.5959908037070142  0.5289640157572627  0.6897182222637073   T   T   T
  0.4703828670758323  0.6415328051744590  0.5892098585909733   T   T   T
  0.4634134457474464  0.6033103788280301  0.4640255483931184   T   T   T
  0.7174239960828754  0.5717926339595512  0.3837689129764696   T   T   T
  0.5499310510395361  0.5822218838566187  0.4076968008106903   F   F   F
  0.4794126430662260  0.5072205383607624  0.4190535757241776   F   F   F
  0.6961827592572748  0.4792603009384595  0.3251230233510995   T   T   T
  0.7514167177056823  0.4282040369693965  0.4888919603363435   T   T   T
  0.7486527740188396  0.5375562450077060  0.4852902388078922   T   T   T
  0.7493135934134667  0.4901250540519252  0.5722261577200226   T   T   T
  0.6488168249708596  0.4380371871533072  0.7082884062497615   T   T   T
  0.5765410250797808  0.7433711935714035  0.4927681706871024   T   T   T
  0.6192554540844384  0.5183157687966542  0.3801816896793397   F   F   F
  0.5048199053028103  0.5590926508043838  0.6504093390136533   T   T   T
  0.4922009500451665  0.4366758245867572  0.4933013002826740   F   F   F
  0.5608844484509063  0.4404139570509003  0.6454865549417619   F   F   F
  0.5768804201566996  0.6162466210276610  0.6136626938384078   T   T   T
  0.5478629170679912  0.6166369344069288  0.3132520531247407   T   T   T
  0.6301862510177316  0.6250405297075758  0.3612490369708226   T   T   T
  0.3790068492090237  0.5564445692780333  0.4110994552554697   T   T   T
  0.4723078164089713  0.4557257050327763  0.5877273803360978   F   F   F
  0.7267669355718670  0.6352790288612432  0.4836951565450340   T   T   T
  0.5044036045056731  0.3680561443295218  0.6852747233134255   T   T   T
  0.3802146954538294  0.4417115141890988  0.6397209560902234   T   T   T
  0.5544592502646992  0.4379899399457940  0.4037542370104745   F   F   F
  0.4346975863495673  0.3647339863883025  0.6113892162390192   T   T   T
  0.5279403376617914  0.3492490456220262  0.5798370821742976   T   T   T
  0.4829003812107409  0.7267199858874673  0.3548441422359084   T   T   T
  0.4318978365351451  0.6762854878038782  0.3236483764618083   T   T   T
  0.4509383812920395  0.7155853264237575  0.3266672024582660   T   T   T
  0.4387835677393953  0.7425330872473495  0.3025964341970198   T   T   T
 
  0.00000000E+00  0.00000000E+00  0.00000000E+00
  0.00000000E+00  0.00000000E+00  0.00000000E+00
  0.00000000E+00  0.00000000E+00  0.00000000E+00
  0.00000000E+00  0.00000000E+00  0.00000000E+00
  0.00000000E+00  0.00000000E+00  0.00000000E+00
  0.00000000E+00  0.00000000E+00  0.00000000E+00
  0.00000000E+00  0.00000000E+00  0.00000000E+00
  0.00000000E+00  0.00000000E+00  0.00000000E+00
  0.00000000E+00  0.00000000E+00  0.00000000E+00
  0.00000000E+00  0.00000000E+00  0.00000000E+00
  0.00000000E+00  0.00000000E+00  0.00000000E+00
  0.00000000E+00  0.00000000E+00  0.00000000E+00
  0.00000000E+00  0.00000000E+00  0.00000000E+00
  0.00000000E+00  0.00000000E+00  0.00000000E+00
  0.00000000E+00  0.00000000E+00  0.00000000E+00
  0.00000000E+00  0.00000000E+00  0.00000000E+00
  0.00000000E+00  0.00000000E+00  0.00000000E+00
  0.00000000E+00  0.00000000E+00  0.00000000E+00
  0.00000000E+00  0.00000000E+00  0.00000000E+00
  0.00000000E+00  0.00000000E+00  0.00000000E+00
  0.00000000E+00  0.00000000E+00  0.00000000E+00
  0.00000000E+00  0.00000000E+00  0.00000000E+00
  0.00000000E+00  0.00000000E+00  0.00000000E+00
  0.00000000E+00  0.00000000E+00  0.00000000E+00
  0.00000000E+00  0.00000000E+00  0.00000000E+00
  0.00000000E+00  0.00000000E+00  0.00000000E+00
  0.00000000E+00  0.00000000E+00  0.00000000E+00
  0.00000000E+00  0.00000000E+00  0.00000000E+00
  0.00000000E+00  0.00000000E+00  0.00000000E+00
  0.00000000E+00  0.00000000E+00  0.00000000E+00
  0.00000000E+00  0.00000000E+00  0.00000000E+00
  0.00000000E+00  0.00000000E+00  0.00000000E+00
  0.00000000E+00  0.00000000E+00  0.00000000E+00
  0.00000000E+00  0.00000000E+00  0.00000000E+00
  0.00000000E+00  0.00000000E+00  0.00000000E+00
  0.00000000E+00  0.00000000E+00  0.00000000E+00
  0.00000000E+00  0.00000000E+00  0.00000000E+00
  0.00000000E+00  0.00000000E+00  0.00000000E+00
  0.00000000E+00  0.00000000E+00  0.00000000E+00
  0.00000000E+00  0.00000000E+00  0.00000000E+00
  0.00000000E+00  0.00000000E+00  0.00000000E+00
  0.00000000E+00  0.00000000E+00  0.00000000E+00
  0.00000000E+00  0.00000000E+00  0.00000000E+00
  0.00000000E+00  0.00000000E+00  0.00000000E+00
  0.00000000E+00  0.00000000E+00  0.00000000E+00
  0.00000000E+00  0.00000000E+00  0.00000000E+00
  0.00000000E+00  0.00000000E+00  0.00000000E+00
  0.00000000E+00  0.00000000E+00  0.00000000E+00
  0.00000000E+00  0.00000000E+00  0.00000000E+00
  0.00000000E+00  0.00000000E+00  0.00000000E+00
  0.00000000E+00  0.00000000E+00  0.00000000E+00
  0.00000000E+00  0.00000000E+00  0.00000000E+00
  0.00000000E+00  0.00000000E+00  0.00000000E+00
  0.00000000E+00  0.00000000E+00  0.00000000E+00
  0.00000000E+00  0.00000000E+00  0.00000000E+00
  0.00000000E+00  0.00000000E+00  0.00000000E+00
  0.00000000E+00  0.00000000E+00  0.00000000E+00
  0.00000000E+00  0.00000000E+00  0.00000000E+00
  0.00000000E+00  0.00000000E+00  0.00000000E+00
  0.00000000E+00  0.00000000E+00  0.00000000E+00
  0.00000000E+00  0.00000000E+00  0.00000000E+00
  0.00000000E+00  0.00000000E+00  0.00000000E+00
  0.00000000E+00  0.00000000E+00  0.00000000E+00
  0.00000000E+00  0.00000000E+00  0.00000000E+00
  0.00000000E+00  0.00000000E+00  0.00000000E+00
  0.00000000E+00  0.00000000E+00  0.00000000E+00
  0.00000000E+00  0.00000000E+00  0.00000000E+00
  0.00000000E+00  0.00000000E+00  0.00000000E+00
  0.00000000E+00  0.00000000E+00  0.00000000E+00
  0.00000000E+00  0.00000000E+00  0.00000000E+00
  0.00000000E+00  0.00000000E+00  0.00000000E+00
  0.00000000E+00  0.00000000E+00  0.00000000E+00
