Bi La Sn O  C  H                        
   1.00000000000000     
    29.0000000000000000    0.0000000000000000    0.0000000000000000
     0.2488180851000000   28.9989325590000000    0.0000000000000000
    -0.0631677343000000   -0.4515975666000000   28.9964147692999994
   Bi   La   Sn   O    C    H 
    22    23    23     2     1     1
Selective dynamics
Direct
  0.7603976688506927  0.4763372921838587  0.3984023620165125   T   T   T
  0.6457524388779923  0.6840480244451392  0.5533640827193215   T   T   T
  0.3597459475757184  0.4587056920282137  0.4283359778134711   T   T   T
  0.5512733263274961  0.7156570056811640  0.5863964838348430   T   T   T
  0.5915029568994470  0.5209714444905416  0.5841479689498996   F   F   F
  0.6406796987867069  0.6808047633787030  0.4471660263541701   T   T   T
  0.6969909728690308  0.5225313011139264  0.6540225012812528   T   T   T
  0.4870911473353932  0.7008931812799830  0.5011419889514435   T   T   T
  0.5004839460855024  0.5502791173970252  0.5477141156400123   F   F   F
  0.3251798712049962  0.4865036095371554  0.5749359918404883   T   T   T
  0.3825963265375059  0.6100504493211022  0.5353783208049331   T   T   T
  0.6667129484492236  0.4827404655721850  0.5105018184570156   F   F   F
  0.5763997220267569  0.4263140504383500  0.5448328182496311   F   F   F
  0.6682835453891343  0.3742612632315958  0.5073840636549788   T   T   T
  0.4634343173859772  0.3389319937605031  0.5001286671754825   T   T   T
  0.6484934028780529  0.5775373212088155  0.4602701624361103   F   F   F
  0.5589740739096362  0.4375652319515441  0.7493398034871149   T   T   T
  0.6042229117393653  0.3519716566023061  0.6689096162599418   T   T   T
  0.4917464563569209  0.2991923940966449  0.4099724468148315   T   T   T
  0.6608289888712258  0.6185613188263640  0.6656058750579886   T   T   T
  0.4920936943402652  0.4101309360354689  0.3070169267428901   T   T   T
  0.6216372528803916  0.3159546967493332  0.5731237681261666   T   T   T
  0.5395257596969544  0.6837820194146532  0.4053691061398764   T   T   T
  0.3904423668962304  0.4158435456169649  0.5274705081325628   T   T   T
  0.6294108809240334  0.5520897613993615  0.2834922424648278   T   T   T
  0.4716710330482980  0.4707336974536844  0.6920993035761168   T   T   T
  0.5683115009887700  0.5094300495444983  0.4784716241115703   F   F   F
  0.4203210565129183  0.5084107200613417  0.5018573595042781   F   F   F
  0.4519809578511970  0.4008682689994213  0.4068152051693205   T   T   T
  0.5632269056108300  0.3481995280114576  0.3544501291052627   T   T   T
  0.4108913941681813  0.5402059229010858  0.6100270360356969   T   T   T
  0.5984279379594513  0.4423561891840284  0.3041937541152542   T   T   T
  0.4551396320058932  0.6001341797239456  0.3629787916566422   T   T   T
  0.4184650073932903  0.4872613899917110  0.3397560866028401   T   T   T
  0.6612533501504829  0.4289644307609723  0.6046868528978392   T   T   T
  0.6741161377840607  0.5781858225328657  0.5636632606700613   T   T   T
  0.5261881275444897  0.5096750362609587  0.3279076715606407   T   T   T
  0.5658351750861922  0.3573619814477625  0.4688291581861346   T   T   T
  0.3156627016694010  0.5422712754072659  0.4914874747484872   T   T   T
  0.6601028481467068  0.4293659962412885  0.4159925396726070   T   T   T
  0.5660841929594156  0.6261437171197244  0.5094829013827464   F   F   F
  0.5966128347653089  0.5289953878890935  0.6894969295858323   T   T   T
  0.4692456223074928  0.6437593481067445  0.5914073365079410   T   T   T
  0.4629372079088782  0.6033198941742292  0.4638151958608379   T   T   T
  0.7166311983959135  0.5722029995189012  0.3827458236329819   T   T   T
  0.5499310510395361  0.5822218838566187  0.4076968008106903   F   F   F
  0.4794126430662260  0.5072205383607624  0.4190535757241776   F   F   F
  0.6949503893513733  0.4788954638616523  0.3246874896794159   T   T   T
  0.7516355838888292  0.4285422791896469  0.4880363081404751   T   T   T
  0.7488552262449641  0.5364067154144212  0.4841121227469957   T   T   T
  0.7496822330731541  0.4904718092391195  0.5720085979259383   T   T   T
  0.6489482837981297  0.4373440258082442  0.7091840191214741   T   T   T
  0.5769397090866983  0.7432542987389656  0.4942110805759146   T   T   T
  0.6192554540844384  0.5183157687966542  0.3801816896793397   F   F   F
  0.5061269857533484  0.5583648872687436  0.6491654985953678   T   T   T
  0.4922009500451665  0.4366758245867572  0.4933013002826740   F   F   F
  0.5608844484509063  0.4404139570509003  0.6454865549417619   F   F   F
  0.5775245119472504  0.6167650617510577  0.6130193801934666   T   T   T
  0.5453404266283099  0.6177125111312951  0.3131878152227362   T   T   T
  0.6282826966882744  0.6254842877634842  0.3617406430185560   T   T   T
  0.3770910534359054  0.5569705533266611  0.4124786981531131   T   T   T
  0.4723078164089713  0.4557257050327763  0.5877273803360978   F   F   F
  0.7282657765745573  0.6330608559839596  0.4831694054551531   T   T   T
  0.5038914597727294  0.3682582534123069  0.6848900495656844   T   T   T
  0.3813327194935518  0.4412810066214892  0.6402731114607012   T   T   T
  0.5544592502646992  0.4379899399457940  0.4037542370104745   F   F   F
  0.4343743156539069  0.3637565516388051  0.6107470257723561   T   T   T
  0.5282293391785912  0.3493891979826113  0.5801520030143392   T   T   T
  0.4863539086859663  0.7716242627609445  0.6391586710182705   T   T   T
  0.4452124715207526  0.7050715896274771  0.6375539806901293   T   T   T
  0.4521512913647401  0.7482611971347093  0.6489161596808293   T   T   T
  0.4235229963023054  0.7642633335495244  0.6693783431922757   T   T   T
 
  0.00000000E+00  0.00000000E+00  0.00000000E+00
  0.00000000E+00  0.00000000E+00  0.00000000E+00
  0.00000000E+00  0.00000000E+00  0.00000000E+00
  0.00000000E+00  0.00000000E+00  0.00000000E+00
  0.00000000E+00  0.00000000E+00  0.00000000E+00
  0.00000000E+00  0.00000000E+00  0.00000000E+00
  0.00000000E+00  0.00000000E+00  0.00000000E+00
  0.00000000E+00  0.00000000E+00  0.00000000E+00
  0.00000000E+00  0.00000000E+00  0.00000000E+00
  0.00000000E+00  0.00000000E+00  0.00000000E+00
  0.00000000E+00  0.00000000E+00  0.00000000E+00
  0.00000000E+00  0.00000000E+00  0.00000000E+00
  0.00000000E+00  0.00000000E+00  0.00000000E+00
  0.00000000E+00  0.00000000E+00  0.00000000E+00
  0.00000000E+00  0.00000000E+00  0.00000000E+00
  0.00000000E+00  0.00000000E+00  0.00000000E+00
  0.00000000E+00  0.00000000E+00  0.00000000E+00
  0.00000000E+00  0.00000000E+00  0.00000000E+00
  0.00000000E+00  0.00000000E+00  0.00000000E+00
  0.00000000E+00  0.00000000E+00  0.00000000E+00
  0.00000000E+00  0.00000000E+00  0.00000000E+00
  0.00000000E+00  0.00000000E+00  0.00000000E+00
  0.00000000E+00  0.00000000E+00  0.00000000E+00
  0.00000000E+00  0.00000000E+00  0.00000000E+00
  0.00000000E+00  0.00000000E+00  0.00000000E+00
  0.00000000E+00  0.00000000E+00  0.00000000E+00
  0.00000000E+00  0.00000000E+00  0.00000000E+00
  0.00000000E+00  0.00000000E+00  0.00000000E+00
  0.00000000E+00  0.00000000E+00  0.00000000E+00
  0.00000000E+00  0.00000000E+00  0.00000000E+00
  0.00000000E+00  0.00000000E+00  0.00000000E+00
  0.00000000E+00  0.00000000E+00  0.00000000E+00
  0.00000000E+00  0.00000000E+00  0.00000000E+00
  0.00000000E+00  0.00000000E+00  0.00000000E+00
  0.00000000E+00  0.00000000E+00  0.00000000E+00
  0.00000000E+00  0.00000000E+00  0.00000000E+00
  0.00000000E+00  0.00000000E+00  0.00000000E+00
  0.00000000E+00  0.00000000E+00  0.00000000E+00
  0.00000000E+00  0.00000000E+00  0.00000000E+00
  0.00000000E+00  0.00000000E+00  0.00000000E+00
  0.00000000E+00  0.00000000E+00  0.00000000E+00
  0.00000000E+00  0.00000000E+00  0.00000000E+00
  0.00000000E+00  0.00000000E+00  0.00000000E+00
  0.00000000E+00  0.00000000E+00  0.00000000E+00
  0.00000000E+00  0.00000000E+00  0.00000000E+00
  0.00000000E+00  0.00000000E+00  0.00000000E+00
  0.00000000E+00  0.00000000E+00  0.00000000E+00
  0.00000000E+00  0.00000000E+00  0.00000000E+00
  0.00000000E+00  0.00000000E+00  0.00000000E+00
  0.00000000E+00  0.00000000E+00  0.00000000E+00
  0.00000000E+00  0.00000000E+00  0.00000000E+00
  0.00000000E+00  0.00000000E+00  0.00000000E+00
  0.00000000E+00  0.00000000E+00  0.00000000E+00
  0.00000000E+00  0.00000000E+00  0.00000000E+00
  0.00000000E+00  0.00000000E+00  0.00000000E+00
  0.00000000E+00  0.00000000E+00  0.00000000E+00
  0.00000000E+00  0.00000000E+00  0.00000000E+00
  0.00000000E+00  0.00000000E+00  0.00000000E+00
  0.00000000E+00  0.00000000E+00  0.00000000E+00
  0.00000000E+00  0.00000000E+00  0.00000000E+00
  0.00000000E+00  0.00000000E+00  0.00000000E+00
  0.00000000E+00  0.00000000E+00  0.00000000E+00
  0.00000000E+00  0.00000000E+00  0.00000000E+00
  0.00000000E+00  0.00000000E+00  0.00000000E+00
  0.00000000E+00  0.00000000E+00  0.00000000E+00
  0.00000000E+00  0.00000000E+00  0.00000000E+00
  0.00000000E+00  0.00000000E+00  0.00000000E+00
  0.00000000E+00  0.00000000E+00  0.00000000E+00
  0.00000000E+00  0.00000000E+00  0.00000000E+00
  0.00000000E+00  0.00000000E+00  0.00000000E+00
  0.00000000E+00  0.00000000E+00  0.00000000E+00
  0.00000000E+00  0.00000000E+00  0.00000000E+00
