Bi La Sn O  C  H                        
   1.00000000000000     
    29.0000000000000000    0.0000000000000000    0.0000000000000000
     0.2488180851000000   28.9989325590000000    0.0000000000000000
    -0.0631677343000000   -0.4515975666000000   28.9964147692999994
   Bi   La   Sn   O    C    H 
    22    23    23     2     1     1
Selective dynamics
Direct
  0.7593661922067895  0.4785620321646770  0.3992400146337846   T   T   T
  0.6481828854431357  0.6846667771978517  0.5500657645600803   T   T   T
  0.3597967631233688  0.4583390499498041  0.4278748861708460   T   T   T
  0.5523214400040470  0.7138227321877328  0.5841046230185978   T   T   T
  0.5915029568994470  0.5209714444905416  0.5841479689498996   F   F   F
  0.6403069548189685  0.6799427440936286  0.4449244286531611   T   T   T
  0.6963406928465934  0.5193457219251666  0.6536882541109076   T   T   T
  0.4868958782686646  0.7013854165156551  0.4990515740013449   T   T   T
  0.5004839460855024  0.5502791173970252  0.5477141156400123   F   F   F
  0.3285052104244927  0.4825536163154187  0.5777809915303150   T   T   T
  0.3834554486434139  0.6100857011722088  0.5377803290061317   T   T   T
  0.6667129484492236  0.4827404655721850  0.5105018184570156   F   F   F
  0.5763997220267569  0.4263140504383500  0.5448328182496311   F   F   F
  0.6686196492701673  0.3738666849456731  0.5066359277676494   T   T   T
  0.4620305589162960  0.3367397394720164  0.4940256228148736   T   T   T
  0.6484934028780529  0.5775373212088155  0.4602701624361103   F   F   F
  0.5557418410772652  0.4322887697712162  0.7491713571163513   T   T   T
  0.5911390936607122  0.3483867845763326  0.6672158816951482   T   T   T
  0.4936589418813442  0.3002662320282207  0.4042672246392573   T   T   T
  0.6616801374540807  0.6148968195934079  0.6685853037882770   T   T   T
  0.4924094906239909  0.4107326351248355  0.3050070419290578   T   T   T
  0.6202978489420274  0.3167141752060817  0.5725444806201463   T   T   T
  0.5392634442810104  0.6836556415028509  0.4044148872857768   T   T   T
  0.3904592016931582  0.4141045797622243  0.5244256574998255   T   T   T
  0.6276342147093289  0.5520610947362755  0.2821510009759460   T   T   T
  0.4717782180374534  0.4808025759623887  0.6967224623444380   T   T   T
  0.5683115009887700  0.5094300495444983  0.4784716241115703   F   F   F
  0.4203210565129183  0.5084107200613417  0.5018573595042781   F   F   F
  0.4525153807579468  0.4016194917889317  0.4046657971754565   T   T   T
  0.5653870165657052  0.3499373326540817  0.3514743367828888   T   T   T
  0.4115576220063380  0.5390823264507161  0.6132457152571108   T   T   T
  0.5989809594806398  0.4425336548137851  0.3047979849591951   T   T   T
  0.4545991068751128  0.5997487457887747  0.3635972699422327   T   T   T
  0.4187144485186396  0.4874285338626680  0.3402134067193480   T   T   T
  0.6606392060294300  0.4256932315639704  0.6046479769641184   T   T   T
  0.6743995723736318  0.5785609823081972  0.5644933776492330   T   T   T
  0.5257111786207220  0.5100713850902500  0.3278690694214731   T   T   T
  0.5657087459282106  0.3568701346512169  0.4685361337253224   T   T   T
  0.3172961906689448  0.5404529823863525  0.4948972069686608   T   T   T
  0.6601620945785782  0.4294570366034498  0.4154749080065831   T   T   T
  0.5660841929594156  0.6261437171197244  0.5094829013827464   F   F   F
  0.5969432529503461  0.5256523328919058  0.6904125089371200   T   T   T
  0.4717985125456576  0.6427307723629756  0.5882171227937659   T   T   T
  0.4622499339018029  0.6034353541895873  0.4639371852921401   T   T   T
  0.7164529603759290  0.5742405502937755  0.3834078445723287   T   T   T
  0.5499310510395361  0.5822218838566187  0.4076968008106903   F   F   F
  0.4794126430662260  0.5072205383607624  0.4190535757241776   F   F   F
  0.6951460836210650  0.4813168615961335  0.3243676497787353   T   T   T
  0.7519659269294712  0.4284338331170918  0.4872425549134930   T   T   T
  0.7485441004677073  0.5379070542127403  0.4855767708944252   T   T   T
  0.7491496123095891  0.4888248138031435  0.5718411908559178   T   T   T
  0.6448243357843809  0.4292045380877368  0.7085376603743161   T   T   T
  0.5774000213704601  0.7435215790033590  0.4925862884682121   T   T   T
  0.6192554540844384  0.5183157687966542  0.3801816896793397   F   F   F
  0.5095920915750034  0.5619634540767849  0.6478502567186512   T   T   T
  0.4922009500451665  0.4366758245867572  0.4933013002826740   F   F   F
  0.5608844484509063  0.4404139570509003  0.6454865549417619   F   F   F
  0.5807478933376823  0.6179151004348006  0.6132184577127694   T   T   T
  0.5439221063864050  0.6176977557111842  0.3123934067500575   T   T   T
  0.6272669074491473  0.6247782531800643  0.3599795774508933   T   T   T
  0.3758732861612034  0.5570872559198646  0.4134947890890889   T   T   T
  0.4723078164089713  0.4557257050327763  0.5877273803360978   F   F   F
  0.7279018609321476  0.6346948017606345  0.4838868622340875   T   T   T
  0.4910534193103946  0.3783204062598123  0.6756451118880871   T   T   T
  0.3896118041713377  0.4339816187074075  0.6395280517972055   T   T   T
  0.5544592502646992  0.4379899399457940  0.4037542370104745   F   F   F
  0.4306851516694891  0.3528100078033846  0.5999284588454153   T   T   T
  0.5254419425266802  0.3493987653598001  0.5748710194730525   T   T   T
  0.3988198933207847  0.5427674818085192  0.6966188582263528   T   T   T
  0.4113308895668910  0.4973122393338396  0.7575976455446342   T   T   T
  0.3868931573216328  0.5258298880750162  0.7356650543686412   T   T   T
  0.3532361537079781  0.5372414913086639  0.7500633062761651   T   T   T
 
  0.00000000E+00  0.00000000E+00  0.00000000E+00
  0.00000000E+00  0.00000000E+00  0.00000000E+00
  0.00000000E+00  0.00000000E+00  0.00000000E+00
  0.00000000E+00  0.00000000E+00  0.00000000E+00
  0.00000000E+00  0.00000000E+00  0.00000000E+00
  0.00000000E+00  0.00000000E+00  0.00000000E+00
  0.00000000E+00  0.00000000E+00  0.00000000E+00
  0.00000000E+00  0.00000000E+00  0.00000000E+00
  0.00000000E+00  0.00000000E+00  0.00000000E+00
  0.00000000E+00  0.00000000E+00  0.00000000E+00
  0.00000000E+00  0.00000000E+00  0.00000000E+00
  0.00000000E+00  0.00000000E+00  0.00000000E+00
  0.00000000E+00  0.00000000E+00  0.00000000E+00
  0.00000000E+00  0.00000000E+00  0.00000000E+00
  0.00000000E+00  0.00000000E+00  0.00000000E+00
  0.00000000E+00  0.00000000E+00  0.00000000E+00
  0.00000000E+00  0.00000000E+00  0.00000000E+00
  0.00000000E+00  0.00000000E+00  0.00000000E+00
  0.00000000E+00  0.00000000E+00  0.00000000E+00
  0.00000000E+00  0.00000000E+00  0.00000000E+00
  0.00000000E+00  0.00000000E+00  0.00000000E+00
  0.00000000E+00  0.00000000E+00  0.00000000E+00
  0.00000000E+00  0.00000000E+00  0.00000000E+00
  0.00000000E+00  0.00000000E+00  0.00000000E+00
  0.00000000E+00  0.00000000E+00  0.00000000E+00
  0.00000000E+00  0.00000000E+00  0.00000000E+00
  0.00000000E+00  0.00000000E+00  0.00000000E+00
  0.00000000E+00  0.00000000E+00  0.00000000E+00
  0.00000000E+00  0.00000000E+00  0.00000000E+00
  0.00000000E+00  0.00000000E+00  0.00000000E+00
  0.00000000E+00  0.00000000E+00  0.00000000E+00
  0.00000000E+00  0.00000000E+00  0.00000000E+00
  0.00000000E+00  0.00000000E+00  0.00000000E+00
  0.00000000E+00  0.00000000E+00  0.00000000E+00
  0.00000000E+00  0.00000000E+00  0.00000000E+00
  0.00000000E+00  0.00000000E+00  0.00000000E+00
  0.00000000E+00  0.00000000E+00  0.00000000E+00
  0.00000000E+00  0.00000000E+00  0.00000000E+00
  0.00000000E+00  0.00000000E+00  0.00000000E+00
  0.00000000E+00  0.00000000E+00  0.00000000E+00
  0.00000000E+00  0.00000000E+00  0.00000000E+00
  0.00000000E+00  0.00000000E+00  0.00000000E+00
  0.00000000E+00  0.00000000E+00  0.00000000E+00
  0.00000000E+00  0.00000000E+00  0.00000000E+00
  0.00000000E+00  0.00000000E+00  0.00000000E+00
  0.00000000E+00  0.00000000E+00  0.00000000E+00
  0.00000000E+00  0.00000000E+00  0.00000000E+00
  0.00000000E+00  0.00000000E+00  0.00000000E+00
  0.00000000E+00  0.00000000E+00  0.00000000E+00
  0.00000000E+00  0.00000000E+00  0.00000000E+00
  0.00000000E+00  0.00000000E+00  0.00000000E+00
  0.00000000E+00  0.00000000E+00  0.00000000E+00
  0.00000000E+00  0.00000000E+00  0.00000000E+00
  0.00000000E+00  0.00000000E+00  0.00000000E+00
  0.00000000E+00  0.00000000E+00  0.00000000E+00
  0.00000000E+00  0.00000000E+00  0.00000000E+00
  0.00000000E+00  0.00000000E+00  0.00000000E+00
  0.00000000E+00  0.00000000E+00  0.00000000E+00
  0.00000000E+00  0.00000000E+00  0.00000000E+00
  0.00000000E+00  0.00000000E+00  0.00000000E+00
  0.00000000E+00  0.00000000E+00  0.00000000E+00
  0.00000000E+00  0.00000000E+00  0.00000000E+00
  0.00000000E+00  0.00000000E+00  0.00000000E+00
  0.00000000E+00  0.00000000E+00  0.00000000E+00
  0.00000000E+00  0.00000000E+00  0.00000000E+00
  0.00000000E+00  0.00000000E+00  0.00000000E+00
  0.00000000E+00  0.00000000E+00  0.00000000E+00
  0.00000000E+00  0.00000000E+00  0.00000000E+00
  0.00000000E+00  0.00000000E+00  0.00000000E+00
  0.00000000E+00  0.00000000E+00  0.00000000E+00
  0.00000000E+00  0.00000000E+00  0.00000000E+00
  0.00000000E+00  0.00000000E+00  0.00000000E+00
