Bi La Sn O  C  H                        
   1.00000000000000     
    29.0000000000000000    0.0000000000000000    0.0000000000000000
     0.2488180851000000   28.9989325590000000    0.0000000000000000
    -0.0631677343000000   -0.4515975666000000   28.9964147692999994
   Bi   La   Sn   O    C    H 
    22    23    23     2     1     1
Selective dynamics
Direct
  0.7593306996416475  0.4788679775102961  0.3988952419317019   T   T   T
  0.6462579330952112  0.6845051921446867  0.5526260272539867   T   T   T
  0.3600451330163849  0.4589238272945597  0.4279369234059983   T   T   T
  0.5494388977930653  0.7129002961016783  0.5854207821310172   T   T   T
  0.5915029568994470  0.5209714444905416  0.5841479689498996   F   F   F
  0.6395639786864903  0.6806347936096302  0.4456586768056346   T   T   T
  0.6971253814422419  0.5242368617220446  0.6541281850205004   T   T   T
  0.4860073308080737  0.7007864085786172  0.5008157246142589   T   T   T
  0.5004839460855024  0.5502791173970252  0.5477141156400123   F   F   F
  0.3252280907352115  0.4854244835837494  0.5746414321847325   T   T   T
  0.3818298260910478  0.6098358688449141  0.5352660852997916   T   T   T
  0.6667129484492236  0.4827404655721850  0.5105018184570156   F   F   F
  0.5763997220267569  0.4263140504383500  0.5448328182496311   F   F   F
  0.6687845209051033  0.3754219772410112  0.5069502857836032   T   T   T
  0.4647560745536029  0.3393004557996842  0.4995656705817181   T   T   T
  0.6484934028780529  0.5775373212088155  0.4602701624361103   F   F   F
  0.5576366338308948  0.4369255238990832  0.7498387459749377   T   T   T
  0.6043026964278277  0.3512302292261406  0.6681969088341149   T   T   T
  0.4929758524148214  0.2997583741052200  0.4092609446919357   T   T   T
  0.6595475699807367  0.6192346185471608  0.6660207299777862   T   T   T
  0.4917077084318118  0.4106810430179530  0.3066132926859291   T   T   T
  0.6272523865148165  0.3161003977809321  0.5734997191508622   T   T   T
  0.5381980247312873  0.6837931569195395  0.4054325639911847   T   T   T
  0.3906043408977932  0.4150803662877921  0.5263710666544682   T   T   T
  0.6277578587625113  0.5525747530896583  0.2828594500695604   T   T   T
  0.4715587237809454  0.4705271025933899  0.6918937561497699   T   T   T
  0.5683115009887700  0.5094300495444983  0.4784716241115703   F   F   F
  0.4203210565129183  0.5084107200613417  0.5018573595042781   F   F   F
  0.4521433786996755  0.4010436113517921  0.4061895201281945   T   T   T
  0.5637038909387799  0.3487149835778067  0.3533118719584398   T   T   T
  0.4108292039189876  0.5395210209188496  0.6099642196548480   T   T   T
  0.5989188881900616  0.4412805507636104  0.3054830650940978   T   T   T
  0.4548026683754478  0.6007279060757816  0.3636494715622748   T   T   T
  0.4187149483941717  0.4881614822065166  0.3395973742606230   T   T   T
  0.6615107347427192  0.4307162424976984  0.6048546781631270   T   T   T
  0.6728951130626601  0.5786770709730001  0.5638883918826448   T   T   T
  0.5257174002592032  0.5102065764952100  0.3280335605641471   T   T   T
  0.5671533481971054  0.3570026461719542  0.4691755431238417   T   T   T
  0.3149956845030095  0.5412762948106947  0.4913772282537190   T   T   T
  0.6609076198010286  0.4297059003138809  0.4154842021082370   T   T   T
  0.5660841929594156  0.6261437171197244  0.5094829013827464   F   F   F
  0.5964257874171393  0.5285891282550176  0.6897265357977543   T   T   T
  0.4693470603959453  0.6408467238058332  0.5890416538166172   T   T   T
  0.4631956836050314  0.6032212291175791  0.4639496681787708   T   T   T
  0.7162788018014566  0.5742188660945844  0.3834705110639103   T   T   T
  0.5499310510395361  0.5822218838566187  0.4076968008106903   F   F   F
  0.4794126430662260  0.5072205383607624  0.4190535757241776   F   F   F
  0.6949452719276272  0.4811537555936434  0.3239682274599798   T   T   T
  0.7525105506712785  0.4302436503970761  0.4880013997713989   T   T   T
  0.7485808395506550  0.5394848850492228  0.4855931899363010   T   T   T
  0.7495203304429127  0.4912662102741840  0.5720107841150810   T   T   T
  0.6472005400013685  0.4363134038619534  0.7090475248776970   T   T   T
  0.5765836929993707  0.7429641925196386  0.4942105298139771   T   T   T
  0.6192554540844384  0.5183157687966542  0.3801816896793397   F   F   F
  0.5051761136300856  0.5589742389809558  0.6503028269086782   T   T   T
  0.4922009500451665  0.4366758245867572  0.4933013002826740   F   F   F
  0.5608844484509063  0.4404139570509003  0.6454865549417619   F   F   F
  0.5765634465296453  0.6161235020851130  0.6136883845028331   T   T   T
  0.5440991206536341  0.6183822871784400  0.3126444811234615   T   T   T
  0.6272644788111940  0.6257115239474725  0.3607157600945730   T   T   T
  0.3766291723771853  0.5574919437615468  0.4128624939108276   T   T   T
  0.4723078164089713  0.4557257050327763  0.5877273803360978   F   F   F
  0.7265357192441004  0.6360949786151274  0.4852729445538657   T   T   T
  0.5045211559699051  0.3676940729589139  0.6823492935590399   T   T   T
  0.3821372816317758  0.4394181673277883  0.6389548148939148   T   T   T
  0.5544592502646992  0.4379899399457940  0.4037542370104745   F   F   F
  0.4374315952884842  0.3634165134252870  0.6076497067616509   T   T   T
  0.5315186938698431  0.3424452795241714  0.5797345429884861   T   T   T
  0.5714440531806904  0.2484917527803411  0.6197960593726736   T   T   T
  0.5081520068780540  0.2683053184689526  0.5773871697649632   T   T   T
  0.5345270394955967  0.2395580499615338  0.5993062341689754   T   T   T
  0.5214820462315551  0.2034575054542442  0.5986577738215278   T   T   T
 
  0.00000000E+00  0.00000000E+00  0.00000000E+00
  0.00000000E+00  0.00000000E+00  0.00000000E+00
  0.00000000E+00  0.00000000E+00  0.00000000E+00
  0.00000000E+00  0.00000000E+00  0.00000000E+00
  0.00000000E+00  0.00000000E+00  0.00000000E+00
  0.00000000E+00  0.00000000E+00  0.00000000E+00
  0.00000000E+00  0.00000000E+00  0.00000000E+00
  0.00000000E+00  0.00000000E+00  0.00000000E+00
  0.00000000E+00  0.00000000E+00  0.00000000E+00
  0.00000000E+00  0.00000000E+00  0.00000000E+00
  0.00000000E+00  0.00000000E+00  0.00000000E+00
  0.00000000E+00  0.00000000E+00  0.00000000E+00
  0.00000000E+00  0.00000000E+00  0.00000000E+00
  0.00000000E+00  0.00000000E+00  0.00000000E+00
  0.00000000E+00  0.00000000E+00  0.00000000E+00
  0.00000000E+00  0.00000000E+00  0.00000000E+00
  0.00000000E+00  0.00000000E+00  0.00000000E+00
  0.00000000E+00  0.00000000E+00  0.00000000E+00
  0.00000000E+00  0.00000000E+00  0.00000000E+00
  0.00000000E+00  0.00000000E+00  0.00000000E+00
  0.00000000E+00  0.00000000E+00  0.00000000E+00
  0.00000000E+00  0.00000000E+00  0.00000000E+00
  0.00000000E+00  0.00000000E+00  0.00000000E+00
  0.00000000E+00  0.00000000E+00  0.00000000E+00
  0.00000000E+00  0.00000000E+00  0.00000000E+00
  0.00000000E+00  0.00000000E+00  0.00000000E+00
  0.00000000E+00  0.00000000E+00  0.00000000E+00
  0.00000000E+00  0.00000000E+00  0.00000000E+00
  0.00000000E+00  0.00000000E+00  0.00000000E+00
  0.00000000E+00  0.00000000E+00  0.00000000E+00
  0.00000000E+00  0.00000000E+00  0.00000000E+00
  0.00000000E+00  0.00000000E+00  0.00000000E+00
  0.00000000E+00  0.00000000E+00  0.00000000E+00
  0.00000000E+00  0.00000000E+00  0.00000000E+00
  0.00000000E+00  0.00000000E+00  0.00000000E+00
  0.00000000E+00  0.00000000E+00  0.00000000E+00
  0.00000000E+00  0.00000000E+00  0.00000000E+00
  0.00000000E+00  0.00000000E+00  0.00000000E+00
  0.00000000E+00  0.00000000E+00  0.00000000E+00
  0.00000000E+00  0.00000000E+00  0.00000000E+00
  0.00000000E+00  0.00000000E+00  0.00000000E+00
  0.00000000E+00  0.00000000E+00  0.00000000E+00
  0.00000000E+00  0.00000000E+00  0.00000000E+00
  0.00000000E+00  0.00000000E+00  0.00000000E+00
  0.00000000E+00  0.00000000E+00  0.00000000E+00
  0.00000000E+00  0.00000000E+00  0.00000000E+00
  0.00000000E+00  0.00000000E+00  0.00000000E+00
  0.00000000E+00  0.00000000E+00  0.00000000E+00
  0.00000000E+00  0.00000000E+00  0.00000000E+00
  0.00000000E+00  0.00000000E+00  0.00000000E+00
  0.00000000E+00  0.00000000E+00  0.00000000E+00
  0.00000000E+00  0.00000000E+00  0.00000000E+00
  0.00000000E+00  0.00000000E+00  0.00000000E+00
  0.00000000E+00  0.00000000E+00  0.00000000E+00
  0.00000000E+00  0.00000000E+00  0.00000000E+00
  0.00000000E+00  0.00000000E+00  0.00000000E+00
  0.00000000E+00  0.00000000E+00  0.00000000E+00
  0.00000000E+00  0.00000000E+00  0.00000000E+00
  0.00000000E+00  0.00000000E+00  0.00000000E+00
  0.00000000E+00  0.00000000E+00  0.00000000E+00
  0.00000000E+00  0.00000000E+00  0.00000000E+00
  0.00000000E+00  0.00000000E+00  0.00000000E+00
  0.00000000E+00  0.00000000E+00  0.00000000E+00
  0.00000000E+00  0.00000000E+00  0.00000000E+00
  0.00000000E+00  0.00000000E+00  0.00000000E+00
  0.00000000E+00  0.00000000E+00  0.00000000E+00
  0.00000000E+00  0.00000000E+00  0.00000000E+00
  0.00000000E+00  0.00000000E+00  0.00000000E+00
  0.00000000E+00  0.00000000E+00  0.00000000E+00
  0.00000000E+00  0.00000000E+00  0.00000000E+00
  0.00000000E+00  0.00000000E+00  0.00000000E+00
  0.00000000E+00  0.00000000E+00  0.00000000E+00
