Bi La Sn O  C  H                        
   1.00000000000000     
    29.0000000000000000    0.0000000000000000    0.0000000000000000
     0.2488180851000000   28.9989325590000000    0.0000000000000000
    -0.0631677343000000   -0.4515975666000000   28.9964147692999994
   Bi   La   Sn   O    C    H 
    22    23    23     2     1     1
Selective dynamics
Direct
  0.7599415961233359  0.4788777558029365  0.3984696019529134   T   T   T
  0.6468600715729019  0.6840081349478278  0.5522970130344430   T   T   T
  0.3584439755430402  0.4598875948022562  0.4286560600306736   T   T   T
  0.5511942411830658  0.7132878299064913  0.5845492555674022   T   T   T
  0.5915029568994470  0.5209714444905416  0.5841479689498996   F   F   F
  0.6404683783362447  0.6802022682613045  0.4460616016941484   T   T   T
  0.6970921346667098  0.5232365763508693  0.6555046867014740   T   T   T
  0.4867216129297758  0.7013275220639209  0.4994447917347158   T   T   T
  0.5004839460855024  0.5502791173970252  0.5477141156400123   F   F   F
  0.3249874328144617  0.4874217859368616  0.5750150926810124   T   T   T
  0.3827986768752081  0.6109264972735798  0.5355585410895238   T   T   T
  0.6667129484492236  0.4827404655721850  0.5105018184570156   F   F   F
  0.5763997220267569  0.4263140504383500  0.5448328182496311   F   F   F
  0.6689259299910214  0.3755030279421215  0.5095272149718282   T   T   T
  0.4613519188119926  0.3389576212012266  0.4995360655763317   T   T   T
  0.6484934028780529  0.5775373212088155  0.4602701624361103   F   F   F
  0.5592697535881754  0.4363804978075063  0.7492120469089274   T   T   T
  0.6042287286113586  0.3527214876206992  0.6691205712708717   T   T   T
  0.4894624835704429  0.3017781559246435  0.4088444453064944   T   T   T
  0.6604043382205497  0.6188661721834109  0.6663001342514173   T   T   T
  0.4944049812101098  0.4095358235958476  0.3104102424410867   T   T   T
  0.6199734810234632  0.3158758647800124  0.5729499483456778   T   T   T
  0.5396639612094737  0.6838030931146002  0.4047833686138584   T   T   T
  0.3897950627514793  0.4164720719557490  0.5273647365765354   T   T   T
  0.6279967074552399  0.5531775668373971  0.2816887036535505   T   T   T
  0.4719000860171788  0.4711634515937164  0.6923830392199756   T   T   T
  0.5683115009887700  0.5094300495444983  0.4784716241115703   F   F   F
  0.4203210565129183  0.5084107200613417  0.5018573595042781   F   F   F
  0.4504455900166232  0.4019808546495386  0.4073069862247406   T   T   T
  0.5685043413527142  0.3460866008302577  0.3565321734364131   T   T   T
  0.4112558604959385  0.5405424980938299  0.6099813035186267   T   T   T
  0.5984015602610169  0.4436186588708365  0.3047633616677649   T   T   T
  0.4554296686326736  0.6008213549578371  0.3634967237587651   T   T   T
  0.4187159581519837  0.4871288874896698  0.3404705072812689   T   T   T
  0.6609932272231374  0.4295747858869429  0.6057255272866962   T   T   T
  0.6736872756436693  0.5782693307484188  0.5644206490074308   T   T   T
  0.5260255954090313  0.5105456516912543  0.3275216892227101   T   T   T
  0.5647880031889199  0.3554351485117684  0.4706133910371199   T   T   T
  0.3157990004538755  0.5431761067023636  0.4915610245453760   T   T   T
  0.6610086871515896  0.4285341603239967  0.4149317164237941   T   T   T
  0.5660841929594156  0.6261437171197244  0.5094829013827464   F   F   F
  0.5962804588263838  0.5286724634755038  0.6896999921598134   T   T   T
  0.4707221342066872  0.6418441196578850  0.5884609946346840   T   T   T
  0.4631319884949357  0.6034830826892844  0.4637611702674808   T   T   T
  0.7171936137687315  0.5750082153492178  0.3838540330667742   T   T   T
  0.5499310510395361  0.5822218838566187  0.4076968008106903   F   F   F
  0.4794126430662260  0.5072205383607624  0.4190535757241776   F   F   F
  0.6950864803779624  0.4830396978927619  0.3245668181083589   T   T   T
  0.7521498424397464  0.4301766648085076  0.4875024593688845   T   T   T
  0.7485675299445402  0.5380528467275977  0.4851934582176545   T   T   T
  0.7486656733671062  0.4909262415753264  0.5725055301379234   T   T   T
  0.6495695004467905  0.4379348830868288  0.7101203635360090   T   T   T
  0.5770667010977465  0.7434128068470697  0.4931257612151436   T   T   T
  0.6192554540844384  0.5183157687966542  0.3801816896793397   F   F   F
  0.5054200936958106  0.5595424586292257  0.6502222524782933   T   T   T
  0.4922009500451665  0.4366758245867572  0.4933013002826740   F   F   F
  0.5608844484509063  0.4404139570509003  0.6454865549417619   F   F   F
  0.5774989191586708  0.6161058213393497  0.6137155897810302   T   T   T
  0.5449000570363361  0.6183886706021707  0.3122084134822048   T   T   T
  0.6276890283964226  0.6248726444302622  0.3606888693768795   T   T   T
  0.3770443812275120  0.5581493233116770  0.4124594005040243   T   T   T
  0.4723078164089713  0.4557257050327763  0.5877273803360978   F   F   F
  0.7275760090053072  0.6350523277288841  0.4850119205707261   T   T   T
  0.5032264312912268  0.3683918491708990  0.6835135752381819   T   T   T
  0.3815719880351475  0.4419051162813912  0.6402236784582338   T   T   T
  0.5544592502646992  0.4379899399457940  0.4037542370104745   F   F   F
  0.4325148560145572  0.3634586105195292  0.6103273016501175   T   T   T
  0.5266677627763636  0.3497823914401564  0.5795893191506278   T   T   T
  0.6129152536176188  0.3016778819319603  0.4227481852986097   T   T   T
  0.6555340653016059  0.3498543801977566  0.3805502778064798   T   T   T
  0.6518444122494896  0.3205921411071055  0.4140696281742914   T   T   T
  0.6833611907616760  0.3082750276860032  0.4313419659089676   T   T   T
 
  0.00000000E+00  0.00000000E+00  0.00000000E+00
  0.00000000E+00  0.00000000E+00  0.00000000E+00
  0.00000000E+00  0.00000000E+00  0.00000000E+00
  0.00000000E+00  0.00000000E+00  0.00000000E+00
  0.00000000E+00  0.00000000E+00  0.00000000E+00
  0.00000000E+00  0.00000000E+00  0.00000000E+00
  0.00000000E+00  0.00000000E+00  0.00000000E+00
  0.00000000E+00  0.00000000E+00  0.00000000E+00
  0.00000000E+00  0.00000000E+00  0.00000000E+00
  0.00000000E+00  0.00000000E+00  0.00000000E+00
  0.00000000E+00  0.00000000E+00  0.00000000E+00
  0.00000000E+00  0.00000000E+00  0.00000000E+00
  0.00000000E+00  0.00000000E+00  0.00000000E+00
  0.00000000E+00  0.00000000E+00  0.00000000E+00
  0.00000000E+00  0.00000000E+00  0.00000000E+00
  0.00000000E+00  0.00000000E+00  0.00000000E+00
  0.00000000E+00  0.00000000E+00  0.00000000E+00
  0.00000000E+00  0.00000000E+00  0.00000000E+00
  0.00000000E+00  0.00000000E+00  0.00000000E+00
  0.00000000E+00  0.00000000E+00  0.00000000E+00
  0.00000000E+00  0.00000000E+00  0.00000000E+00
  0.00000000E+00  0.00000000E+00  0.00000000E+00
  0.00000000E+00  0.00000000E+00  0.00000000E+00
  0.00000000E+00  0.00000000E+00  0.00000000E+00
  0.00000000E+00  0.00000000E+00  0.00000000E+00
  0.00000000E+00  0.00000000E+00  0.00000000E+00
  0.00000000E+00  0.00000000E+00  0.00000000E+00
  0.00000000E+00  0.00000000E+00  0.00000000E+00
  0.00000000E+00  0.00000000E+00  0.00000000E+00
  0.00000000E+00  0.00000000E+00  0.00000000E+00
  0.00000000E+00  0.00000000E+00  0.00000000E+00
  0.00000000E+00  0.00000000E+00  0.00000000E+00
  0.00000000E+00  0.00000000E+00  0.00000000E+00
  0.00000000E+00  0.00000000E+00  0.00000000E+00
  0.00000000E+00  0.00000000E+00  0.00000000E+00
  0.00000000E+00  0.00000000E+00  0.00000000E+00
  0.00000000E+00  0.00000000E+00  0.00000000E+00
  0.00000000E+00  0.00000000E+00  0.00000000E+00
  0.00000000E+00  0.00000000E+00  0.00000000E+00
  0.00000000E+00  0.00000000E+00  0.00000000E+00
  0.00000000E+00  0.00000000E+00  0.00000000E+00
  0.00000000E+00  0.00000000E+00  0.00000000E+00
  0.00000000E+00  0.00000000E+00  0.00000000E+00
  0.00000000E+00  0.00000000E+00  0.00000000E+00
  0.00000000E+00  0.00000000E+00  0.00000000E+00
  0.00000000E+00  0.00000000E+00  0.00000000E+00
  0.00000000E+00  0.00000000E+00  0.00000000E+00
  0.00000000E+00  0.00000000E+00  0.00000000E+00
  0.00000000E+00  0.00000000E+00  0.00000000E+00
  0.00000000E+00  0.00000000E+00  0.00000000E+00
  0.00000000E+00  0.00000000E+00  0.00000000E+00
  0.00000000E+00  0.00000000E+00  0.00000000E+00
  0.00000000E+00  0.00000000E+00  0.00000000E+00
  0.00000000E+00  0.00000000E+00  0.00000000E+00
  0.00000000E+00  0.00000000E+00  0.00000000E+00
  0.00000000E+00  0.00000000E+00  0.00000000E+00
  0.00000000E+00  0.00000000E+00  0.00000000E+00
  0.00000000E+00  0.00000000E+00  0.00000000E+00
  0.00000000E+00  0.00000000E+00  0.00000000E+00
  0.00000000E+00  0.00000000E+00  0.00000000E+00
  0.00000000E+00  0.00000000E+00  0.00000000E+00
  0.00000000E+00  0.00000000E+00  0.00000000E+00
  0.00000000E+00  0.00000000E+00  0.00000000E+00
  0.00000000E+00  0.00000000E+00  0.00000000E+00
  0.00000000E+00  0.00000000E+00  0.00000000E+00
  0.00000000E+00  0.00000000E+00  0.00000000E+00
  0.00000000E+00  0.00000000E+00  0.00000000E+00
  0.00000000E+00  0.00000000E+00  0.00000000E+00
  0.00000000E+00  0.00000000E+00  0.00000000E+00
  0.00000000E+00  0.00000000E+00  0.00000000E+00
  0.00000000E+00  0.00000000E+00  0.00000000E+00
  0.00000000E+00  0.00000000E+00  0.00000000E+00
