Bi La Sn O  C  H                        
   1.00000000000000     
    29.0000000000000000    0.0000000000000000    0.0000000000000000
     0.2488180851000000   28.9989325590000000    0.0000000000000000
    -0.0631677343000000   -0.4515975666000000   28.9964147692999994
   Bi   La   Sn   O    C    H 
    22    23    23     2     1     1
Selective dynamics
Direct
  0.7605834953392796  0.4784551964445474  0.3987741666650453   T   T   T
  0.6463230235530768  0.6889498901661520  0.5461891784698144   T   T   T
  0.3608897573215492  0.4583064468634530  0.4268247285438992   T   T   T
  0.5509868618376289  0.7140277081673939  0.5823822618073319   T   T   T
  0.5915029568994470  0.5209714444905416  0.5841479689498996   F   F   F
  0.6374158640964355  0.6795539446624905  0.4417529262536387   T   T   T
  0.6901086757164570  0.5163832003649677  0.6521811292318554   T   T   T
  0.4862890757787989  0.7011747003789052  0.4982323194834556   T   T   T
  0.5004839460855024  0.5502791173970252  0.5477141156400123   F   F   F
  0.3278784802981702  0.4844223586870082  0.5786388950397703   T   T   T
  0.3824477213857870  0.6085761700972967  0.5378742484083068   T   T   T
  0.6667129484492236  0.4827404655721850  0.5105018184570156   F   F   F
  0.5763997220267569  0.4263140504383500  0.5448328182496311   F   F   F
  0.6680698001574845  0.3737105202206522  0.5052688632687822   T   T   T
  0.4597276325250367  0.3375193300193111  0.4929532550018272   T   T   T
  0.6484934028780529  0.5775373212088155  0.4602701624361103   F   F   F
  0.5515526945911449  0.4297819767495831  0.7491280569943863   T   T   T
  0.5878121640664383  0.3470150502005515  0.6653215225868773   T   T   T
  0.4931549255139256  0.3001808520459325  0.4039844871791367   T   T   T
  0.6583562918373487  0.6107098531825086  0.6733788705060341   T   T   T
  0.4915776415534292  0.4111523993169466  0.3032121594797928   T   T   T
  0.6188653718416768  0.3166081105042913  0.5710472717589611   T   T   T
  0.5368000609475023  0.6831362839280885  0.4024449054786930   T   T   T
  0.3893970602059035  0.4155217682747823  0.5248034819135965   T   T   T
  0.6276532969839009  0.5507290579588067  0.2819946790617606   T   T   T
  0.4727096275153773  0.4814954464604389  0.6924406179792936   T   T   T
  0.5683115009887700  0.5094300495444983  0.4784716241115703   F   F   F
  0.4203210565129183  0.5084107200613417  0.5018573595042781   F   F   F
  0.4530267164692296  0.4020579388108551  0.4037342356259829   T   T   T
  0.5639382776949294  0.3510143791602541  0.3507447983500509   T   T   T
  0.4131161241638742  0.5388036953233987  0.6121810558972757   T   T   T
  0.5994739324378839  0.4422803351731290  0.3045504269025153   T   T   T
  0.4541682022753104  0.5999409851988415  0.3635719867516168   T   T   T
  0.4189424109355234  0.4885968498670449  0.3388479148473222   T   T   T
  0.6604548925721518  0.4228947010673109  0.6040418247567150   T   T   T
  0.6792086545982959  0.5833573368187511  0.5660799177763125   T   T   T
  0.5257495042243973  0.5093774688022288  0.3280381540267149   T   T   T
  0.5644654094900066  0.3564920632262940  0.4688379654352695   T   T   T
  0.3163559348600647  0.5392451958226615  0.4938801421221565   T   T   T
  0.6600320125092071  0.4292747804844692  0.4148340325773209   T   T   T
  0.5660841929594156  0.6261437171197244  0.5094829013827464   F   F   F
  0.5921217584891065  0.5246324491614236  0.6926704481176095   T   T   T
  0.4706229415964048  0.6431178983988409  0.5873985747971804   T   T   T
  0.4619394208560255  0.6031106223930344  0.4640557826330234   T   T   T
  0.7157612286108156  0.5737733030679959  0.3818510177673374   T   T   T
  0.5499310510395361  0.5822218838566187  0.4076968008106903   F   F   F
  0.4794126430662260  0.5072205383607624  0.4190535757241776   F   F   F
  0.6954889923595950  0.4805231089150601  0.3242210277869996   T   T   T
  0.7510442781600885  0.4284715896508397  0.4860907633595777   T   T   T
  0.7478850454609912  0.5392726687767756  0.4833717039834572   T   T   T
  0.7483384814500605  0.4892777231492842  0.5696691816707335   T   T   T
  0.6418078103649710  0.4282257107977641  0.7083210336575451   T   T   T
  0.5759825908896470  0.7440130483871740  0.4896844150303666   T   T   T
  0.6192554540844384  0.5183157687966542  0.3801816896793397   F   F   F
  0.5076309311238644  0.5659803017787024  0.6494664484000543   T   T   T
  0.4922009500451665  0.4366758245867572  0.4933013002826740   F   F   F
  0.5608844484509063  0.4404139570509003  0.6454865549417619   F   F   F
  0.5810341041279815  0.6179526706346332  0.6133310418129454   T   T   T
  0.5432592588759506  0.6167668032924750  0.3115236119111925   T   T   T
  0.6267952460352043  0.6244289974579864  0.3581822678863391   T   T   T
  0.3757163886021790  0.5569637687182073  0.4134175096593798   T   T   T
  0.4723078164089713  0.4557257050327763  0.5877273803360978   F   F   F
  0.7262285628887810  0.6371666820190217  0.4794841880986512   T   T   T
  0.4891510278286287  0.3789913589617895  0.6741872239940960   T   T   T
  0.3881022518177524  0.4355587656363201  0.6402878930148796   T   T   T
  0.5544592502646992  0.4379899399457940  0.4037542370104745   F   F   F
  0.4285648310037652  0.3537446747843042  0.5996829040359118   T   T   T
  0.5235053239484466  0.3497734905839935  0.5732639396694935   T   T   T
  0.7268665319704478  0.6559949138604032  0.5931576088242307   T   T   T
  0.7637013550593337  0.5877238083145061  0.5942565866104396   T   T   T
  0.7624257029543201  0.6312860830593823  0.6009785980891020   T   T   T
  0.7938683151227480  0.6485963563740142  0.6144032812339342   T   T   T
 
  0.00000000E+00  0.00000000E+00  0.00000000E+00
  0.00000000E+00  0.00000000E+00  0.00000000E+00
  0.00000000E+00  0.00000000E+00  0.00000000E+00
  0.00000000E+00  0.00000000E+00  0.00000000E+00
  0.00000000E+00  0.00000000E+00  0.00000000E+00
  0.00000000E+00  0.00000000E+00  0.00000000E+00
  0.00000000E+00  0.00000000E+00  0.00000000E+00
  0.00000000E+00  0.00000000E+00  0.00000000E+00
  0.00000000E+00  0.00000000E+00  0.00000000E+00
  0.00000000E+00  0.00000000E+00  0.00000000E+00
  0.00000000E+00  0.00000000E+00  0.00000000E+00
  0.00000000E+00  0.00000000E+00  0.00000000E+00
  0.00000000E+00  0.00000000E+00  0.00000000E+00
  0.00000000E+00  0.00000000E+00  0.00000000E+00
  0.00000000E+00  0.00000000E+00  0.00000000E+00
  0.00000000E+00  0.00000000E+00  0.00000000E+00
  0.00000000E+00  0.00000000E+00  0.00000000E+00
  0.00000000E+00  0.00000000E+00  0.00000000E+00
  0.00000000E+00  0.00000000E+00  0.00000000E+00
  0.00000000E+00  0.00000000E+00  0.00000000E+00
  0.00000000E+00  0.00000000E+00  0.00000000E+00
  0.00000000E+00  0.00000000E+00  0.00000000E+00
  0.00000000E+00  0.00000000E+00  0.00000000E+00
  0.00000000E+00  0.00000000E+00  0.00000000E+00
  0.00000000E+00  0.00000000E+00  0.00000000E+00
  0.00000000E+00  0.00000000E+00  0.00000000E+00
  0.00000000E+00  0.00000000E+00  0.00000000E+00
  0.00000000E+00  0.00000000E+00  0.00000000E+00
  0.00000000E+00  0.00000000E+00  0.00000000E+00
  0.00000000E+00  0.00000000E+00  0.00000000E+00
  0.00000000E+00  0.00000000E+00  0.00000000E+00
  0.00000000E+00  0.00000000E+00  0.00000000E+00
  0.00000000E+00  0.00000000E+00  0.00000000E+00
  0.00000000E+00  0.00000000E+00  0.00000000E+00
  0.00000000E+00  0.00000000E+00  0.00000000E+00
  0.00000000E+00  0.00000000E+00  0.00000000E+00
  0.00000000E+00  0.00000000E+00  0.00000000E+00
  0.00000000E+00  0.00000000E+00  0.00000000E+00
  0.00000000E+00  0.00000000E+00  0.00000000E+00
  0.00000000E+00  0.00000000E+00  0.00000000E+00
  0.00000000E+00  0.00000000E+00  0.00000000E+00
  0.00000000E+00  0.00000000E+00  0.00000000E+00
  0.00000000E+00  0.00000000E+00  0.00000000E+00
  0.00000000E+00  0.00000000E+00  0.00000000E+00
  0.00000000E+00  0.00000000E+00  0.00000000E+00
  0.00000000E+00  0.00000000E+00  0.00000000E+00
  0.00000000E+00  0.00000000E+00  0.00000000E+00
  0.00000000E+00  0.00000000E+00  0.00000000E+00
  0.00000000E+00  0.00000000E+00  0.00000000E+00
  0.00000000E+00  0.00000000E+00  0.00000000E+00
  0.00000000E+00  0.00000000E+00  0.00000000E+00
  0.00000000E+00  0.00000000E+00  0.00000000E+00
  0.00000000E+00  0.00000000E+00  0.00000000E+00
  0.00000000E+00  0.00000000E+00  0.00000000E+00
  0.00000000E+00  0.00000000E+00  0.00000000E+00
  0.00000000E+00  0.00000000E+00  0.00000000E+00
  0.00000000E+00  0.00000000E+00  0.00000000E+00
  0.00000000E+00  0.00000000E+00  0.00000000E+00
  0.00000000E+00  0.00000000E+00  0.00000000E+00
  0.00000000E+00  0.00000000E+00  0.00000000E+00
  0.00000000E+00  0.00000000E+00  0.00000000E+00
  0.00000000E+00  0.00000000E+00  0.00000000E+00
  0.00000000E+00  0.00000000E+00  0.00000000E+00
  0.00000000E+00  0.00000000E+00  0.00000000E+00
  0.00000000E+00  0.00000000E+00  0.00000000E+00
  0.00000000E+00  0.00000000E+00  0.00000000E+00
  0.00000000E+00  0.00000000E+00  0.00000000E+00
  0.00000000E+00  0.00000000E+00  0.00000000E+00
  0.00000000E+00  0.00000000E+00  0.00000000E+00
  0.00000000E+00  0.00000000E+00  0.00000000E+00
  0.00000000E+00  0.00000000E+00  0.00000000E+00
  0.00000000E+00  0.00000000E+00  0.00000000E+00
