Bi La Sn O  C  H                        
   1.00000000000000     
    29.0000000000000000    0.0000000000000000    0.0000000000000000
     0.2488180851000000   28.9989325590000000    0.0000000000000000
    -0.0631677343000000   -0.4515975666000000   28.9964147692999994
   Bi   La   Sn   O    C    H 
    22    23    23     2     1     1
Selective dynamics
Direct
  0.7597299574662040  0.4769989688127335  0.3992742800715157   T   T   T
  0.6462614211048571  0.6844490631682063  0.5524997094624537   T   T   T
  0.3590225104365585  0.4577027807414715  0.4294159158273333   T   T   T
  0.5500563029878057  0.7129718580362630  0.5853190965600930   T   T   T
  0.5915029568994470  0.5209714444905416  0.5841479689498996   F   F   F
  0.6400365177386987  0.6807882863652528  0.4455348392502824   T   T   T
  0.6961905699231118  0.5226025794951787  0.6540803613721038   T   T   T
  0.4856786260112801  0.7005908445135610  0.5006267079332934   T   T   T
  0.5004839460855024  0.5502791173970252  0.5477141156400123   F   F   F
  0.3251261044058788  0.4862059519158884  0.5747269492189320   T   T   T
  0.3824746129104711  0.6102953752095885  0.5353512760587545   T   T   T
  0.6667129484492236  0.4827404655721850  0.5105018184570156   F   F   F
  0.5763997220267569  0.4263140504383500  0.5448328182496311   F   F   F
  0.6685732494041805  0.3740501279211279  0.5063540328834057   T   T   T
  0.4635713336201560  0.3385330058506201  0.5002680055861675   T   T   T
  0.6484934028780529  0.5775373212088155  0.4602701624361103   F   F   F
  0.5591748967145987  0.4364477408302955  0.7495029994393074   T   T   T
  0.6044737514900211  0.3518817949110752  0.6689587974314527   T   T   T
  0.4918158657939261  0.2997946852982554  0.4099175597595251   T   T   T
  0.6599861823558716  0.6187099617841176  0.6660867829072878   T   T   T
  0.4931152191119248  0.4091856916766354  0.3077958468055036   T   T   T
  0.6221289807391047  0.3162727360661589  0.5728730889382835   T   T   T
  0.5385649686629517  0.6841613822826251  0.4053311518399894   T   T   T
  0.3908700777075392  0.4152838700399749  0.5280906843341422   T   T   T
  0.6295519807244703  0.5527032679789408  0.2829468409016684   T   T   T
  0.4713783923927144  0.4702861792393246  0.6919706531660492   T   T   T
  0.5683115009887700  0.5094300495444983  0.4784716241115703   F   F   F
  0.4203210565129183  0.5084107200613417  0.5018573595042781   F   F   F
  0.4522425212757364  0.4012647828975006  0.4071530913411064   T   T   T
  0.5646299395598606  0.3479616517557864  0.3550498813445373   T   T   T
  0.4109211585511743  0.5399607338212462  0.6099178709541518   T   T   T
  0.5992713389578705  0.4424956449606556  0.3043561335010120   T   T   T
  0.4535406185301499  0.5996663695704987  0.3617439967449464   T   T   T
  0.4168948290670070  0.4856572404329720  0.3384856591141432   T   T   T
  0.6612765670084519  0.4284546503432960  0.6042933946817470   T   T   T
  0.6732713460501165  0.5785682381775262  0.5639644375329713   T   T   T
  0.5265389656681054  0.5090882575219473  0.3281937341355162   T   T   T
  0.5657803583323767  0.3577682219585925  0.4687270873865976   T   T   T
  0.3156250843151781  0.5419531099123409  0.4913194029081749   T   T   T
  0.6602544543820549  0.4295691639191306  0.4155655909669722   T   T   T
  0.5660841929594156  0.6261437171197244  0.5094829013827464   F   F   F
  0.5960753557388158  0.5286977981681674  0.6897911071356940   T   T   T
  0.4701457021111727  0.6411982343809971  0.5894161103212916   T   T   T
  0.4625522285715235  0.6032383763373103  0.4633695691674789   T   T   T
  0.7170408810077398  0.5729189308505619  0.3837206869429125   T   T   T
  0.5499310510395361  0.5822218838566187  0.4076968008106903   F   F   F
  0.4794126430662260  0.5072205383607624  0.4190535757241776   F   F   F
  0.6954728886309074  0.4804170645051769  0.3243768470324688   T   T   T
  0.7517918865307801  0.4290854023752637  0.4889419859663903   T   T   T
  0.7484504428223532  0.5378841631162933  0.4852413037434036   T   T   T
  0.7491527809544125  0.4908948119767028  0.5726080869562389   T   T   T
  0.6491198284463596  0.4375819265929807  0.7089216564409776   T   T   T
  0.5763251426433477  0.7424922132397018  0.4938816151774836   T   T   T
  0.6192554540844384  0.5183157687966542  0.3801816896793397   F   F   F
  0.5050334929106547  0.5588272671372233  0.6502635902862957   T   T   T
  0.4922009500451665  0.4366758245867572  0.4933013002826740   F   F   F
  0.5608844484509063  0.4404139570509003  0.6454865549417619   F   F   F
  0.5769600014263067  0.6160865825073077  0.6138691734284712   T   T   T
  0.5459666247226992  0.6178992431586475  0.3140618613521850   T   T   T
  0.6291275565464302  0.6253606711061260  0.3613700825500817   T   T   T
  0.3775411968358645  0.5553214881639854  0.4128464435706748   T   T   T
  0.4723078164089713  0.4557257050327763  0.5877273803360978   F   F   F
  0.7269505045708026  0.6350725637614612  0.4849396881871218   T   T   T
  0.5046947716965005  0.3682393096703967  0.6858344703965485   T   T   T
  0.3807236697050406  0.4414543169034295  0.6407165120950893   T   T   T
  0.5544592502646992  0.4379899399457940  0.4037542370104745   F   F   F
  0.4353179120308724  0.3646844990262823  0.6118229708186550   T   T   T
  0.5284935899164771  0.3491253350734381  0.5801935915740631   T   T   T
  0.4182342586852240  0.6055095527685483  0.2856755569599023   T   T   T
  0.3923833389752093  0.5324269822848795  0.2753772994096248   T   T   T
  0.3929413548737410  0.5754073892042620  0.2661957108351582   T   T   T
  0.3691017909435865  0.5872565040367266  0.2386960768532380   T   T   T
 
  0.00000000E+00  0.00000000E+00  0.00000000E+00
  0.00000000E+00  0.00000000E+00  0.00000000E+00
  0.00000000E+00  0.00000000E+00  0.00000000E+00
  0.00000000E+00  0.00000000E+00  0.00000000E+00
  0.00000000E+00  0.00000000E+00  0.00000000E+00
  0.00000000E+00  0.00000000E+00  0.00000000E+00
  0.00000000E+00  0.00000000E+00  0.00000000E+00
  0.00000000E+00  0.00000000E+00  0.00000000E+00
  0.00000000E+00  0.00000000E+00  0.00000000E+00
  0.00000000E+00  0.00000000E+00  0.00000000E+00
  0.00000000E+00  0.00000000E+00  0.00000000E+00
  0.00000000E+00  0.00000000E+00  0.00000000E+00
  0.00000000E+00  0.00000000E+00  0.00000000E+00
  0.00000000E+00  0.00000000E+00  0.00000000E+00
  0.00000000E+00  0.00000000E+00  0.00000000E+00
  0.00000000E+00  0.00000000E+00  0.00000000E+00
  0.00000000E+00  0.00000000E+00  0.00000000E+00
  0.00000000E+00  0.00000000E+00  0.00000000E+00
  0.00000000E+00  0.00000000E+00  0.00000000E+00
  0.00000000E+00  0.00000000E+00  0.00000000E+00
  0.00000000E+00  0.00000000E+00  0.00000000E+00
  0.00000000E+00  0.00000000E+00  0.00000000E+00
  0.00000000E+00  0.00000000E+00  0.00000000E+00
  0.00000000E+00  0.00000000E+00  0.00000000E+00
  0.00000000E+00  0.00000000E+00  0.00000000E+00
  0.00000000E+00  0.00000000E+00  0.00000000E+00
  0.00000000E+00  0.00000000E+00  0.00000000E+00
  0.00000000E+00  0.00000000E+00  0.00000000E+00
  0.00000000E+00  0.00000000E+00  0.00000000E+00
  0.00000000E+00  0.00000000E+00  0.00000000E+00
  0.00000000E+00  0.00000000E+00  0.00000000E+00
  0.00000000E+00  0.00000000E+00  0.00000000E+00
  0.00000000E+00  0.00000000E+00  0.00000000E+00
  0.00000000E+00  0.00000000E+00  0.00000000E+00
  0.00000000E+00  0.00000000E+00  0.00000000E+00
  0.00000000E+00  0.00000000E+00  0.00000000E+00
  0.00000000E+00  0.00000000E+00  0.00000000E+00
  0.00000000E+00  0.00000000E+00  0.00000000E+00
  0.00000000E+00  0.00000000E+00  0.00000000E+00
  0.00000000E+00  0.00000000E+00  0.00000000E+00
  0.00000000E+00  0.00000000E+00  0.00000000E+00
  0.00000000E+00  0.00000000E+00  0.00000000E+00
  0.00000000E+00  0.00000000E+00  0.00000000E+00
  0.00000000E+00  0.00000000E+00  0.00000000E+00
  0.00000000E+00  0.00000000E+00  0.00000000E+00
  0.00000000E+00  0.00000000E+00  0.00000000E+00
  0.00000000E+00  0.00000000E+00  0.00000000E+00
  0.00000000E+00  0.00000000E+00  0.00000000E+00
  0.00000000E+00  0.00000000E+00  0.00000000E+00
  0.00000000E+00  0.00000000E+00  0.00000000E+00
  0.00000000E+00  0.00000000E+00  0.00000000E+00
  0.00000000E+00  0.00000000E+00  0.00000000E+00
  0.00000000E+00  0.00000000E+00  0.00000000E+00
  0.00000000E+00  0.00000000E+00  0.00000000E+00
  0.00000000E+00  0.00000000E+00  0.00000000E+00
  0.00000000E+00  0.00000000E+00  0.00000000E+00
  0.00000000E+00  0.00000000E+00  0.00000000E+00
  0.00000000E+00  0.00000000E+00  0.00000000E+00
  0.00000000E+00  0.00000000E+00  0.00000000E+00
  0.00000000E+00  0.00000000E+00  0.00000000E+00
  0.00000000E+00  0.00000000E+00  0.00000000E+00
  0.00000000E+00  0.00000000E+00  0.00000000E+00
  0.00000000E+00  0.00000000E+00  0.00000000E+00
  0.00000000E+00  0.00000000E+00  0.00000000E+00
  0.00000000E+00  0.00000000E+00  0.00000000E+00
  0.00000000E+00  0.00000000E+00  0.00000000E+00
  0.00000000E+00  0.00000000E+00  0.00000000E+00
  0.00000000E+00  0.00000000E+00  0.00000000E+00
  0.00000000E+00  0.00000000E+00  0.00000000E+00
  0.00000000E+00  0.00000000E+00  0.00000000E+00
  0.00000000E+00  0.00000000E+00  0.00000000E+00
  0.00000000E+00  0.00000000E+00  0.00000000E+00
