Bi La Sn O  C  H                        
   1.00000000000000     
    29.0000000000000000    0.0000000000000000    0.0000000000000000
     0.2488180851000000   28.9989325590000000    0.0000000000000000
    -0.0631677343000000   -0.4515975666000000   28.9964147692999994
   Bi   La   Sn   O    C    H 
    22    23    23     2     1     1
Selective dynamics
Direct
  0.7592546165881278  0.4790578888242601  0.4004392924092635   T   T   T
  0.6483995302325073  0.6846934575789777  0.5496350569069234   T   T   T
  0.3602042437507049  0.4578194491424610  0.4282724920037217   T   T   T
  0.5513395238479791  0.7134003777258147  0.5838803408202885   T   T   T
  0.5915029568994470  0.5209714444905416  0.5841479689498996   F   F   F
  0.6401626700809784  0.6793557214354063  0.4443479878544063   T   T   T
  0.6961988676651049  0.5204623229589840  0.6532787349140876   T   T   T
  0.4872643337927602  0.7016797540794106  0.4984107597374433   T   T   T
  0.5004839460855024  0.5502791173970252  0.5477141156400123   F   F   F
  0.3287716573117327  0.4852141617071205  0.5792577901993143   T   T   T
  0.3825145086281908  0.6080595100408905  0.5381705136964915   T   T   T
  0.6667129484492236  0.4827404655721850  0.5105018184570156   F   F   F
  0.5763997220267569  0.4263140504383500  0.5448328182496311   F   F   F
  0.6679342007475252  0.3734449343601725  0.5062242001062545   T   T   T
  0.4611046290914639  0.3379209584922846  0.4959167672229558   T   T   T
  0.6484934028780529  0.5775373212088155  0.4602701624361103   F   F   F
  0.5557479784841720  0.4357521342463248  0.7505862325736753   T   T   T
  0.5931553344449413  0.3483424839347929  0.6677328690737623   T   T   T
  0.4924145069375234  0.2996342657661146  0.4065540313120357   T   T   T
  0.6610187843343360  0.6162470960203270  0.6677519404265359   T   T   T
  0.4917798429284976  0.4102809198587315  0.3044921849849604   T   T   T
  0.6213944977812240  0.3161232105383705  0.5731864562684517   T   T   T
  0.5394165964895989  0.6836645870716658  0.4037537884177386   T   T   T
  0.3899544855475058  0.4150726639122158  0.5266060525531493   T   T   T
  0.6278211159499476  0.5520610475973096  0.2817965970314673   T   T   T
  0.4743957875993448  0.4812807700215543  0.6926356499566886   T   T   T
  0.5683115009887700  0.5094300495444983  0.4784716241115703   F   F   F
  0.4203210565129183  0.5084107200613417  0.5018573595042781   F   F   F
  0.4527479943471721  0.4013707987162828  0.4048829640958471   T   T   T
  0.5632187207280326  0.3498597824976562  0.3522267706641765   T   T   T
  0.4144781511477402  0.5390195028917226  0.6132573983570764   T   T   T
  0.5999163447042867  0.4420654303430551  0.3050173794810813   T   T   T
  0.4544641944657544  0.5994622574530868  0.3634396035327057   T   T   T
  0.4184426227253704  0.4870985890204435  0.3401439292592547   T   T   T
  0.6603083560285711  0.4251530974181300  0.6050595383064202   T   T   T
  0.6742985461007696  0.5783806112777793  0.5640678261229491   T   T   T
  0.5258746256317428  0.5091036319038668  0.3278358477796414   T   T   T
  0.5648038858594234  0.3565505846912437  0.4694623690307157   T   T   T
  0.3161676589367771  0.5390305634943492  0.4941676742825745   T   T   T
  0.6600561718877609  0.4293411388730193  0.4153306905313721   T   T   T
  0.5660841929594156  0.6261437171197244  0.5094829013827464   F   F   F
  0.5969769270574202  0.5263189605096247  0.6898100259422155   T   T   T
  0.4703592859596411  0.6430342023731963  0.5872996233272765   T   T   T
  0.4622771559051904  0.6036478365321549  0.4643223558380651   T   T   T
  0.7167296821305498  0.5746771167203890  0.3841373344917786   T   T   T
  0.5499310510395361  0.5822218838566187  0.4076968008106903   F   F   F
  0.4794126430662260  0.5072205383607624  0.4190535757241776   F   F   F
  0.6955097186795159  0.4822096669734310  0.3248442604453243   T   T   T
  0.7513094341933723  0.4280650892155075  0.4876009602880363   T   T   T
  0.7489716129459418  0.5385387750207057  0.4868288771427755   T   T   T
  0.7487807067646450  0.4877914246425678  0.5720527329696300   T   T   T
  0.6450109667345885  0.4289586222580724  0.7085916202318323   T   T   T
  0.5780572614213900  0.7432265014312035  0.4926460645174588   T   T   T
  0.6192554540844384  0.5183157687966542  0.3801816896793397   F   F   F
  0.5088355864848766  0.5665690550927330  0.6503951583125234   T   T   T
  0.4922009500451665  0.4366758245867572  0.4933013002826740   F   F   F
  0.5608844484509063  0.4404139570509003  0.6454865549417619   F   F   F
  0.5804100611978156  0.6179961982647806  0.6126304807537910   T   T   T
  0.5437718812653171  0.6167685646450136  0.3120928617296624   T   T   T
  0.6270489189418659  0.6245319246132817  0.3597558811966695   T   T   T
  0.3759374281659792  0.5567886289614676  0.4137200945452151   T   T   T
  0.4723078164089713  0.4557257050327763  0.5877273803360978   F   F   F
  0.7276562040831510  0.6354301860378450  0.4846810394358609   T   T   T
  0.4937524995165274  0.3779767595867083  0.6787489547407347   T   T   T
  0.3878868799707338  0.4370144331808715  0.6420722912159303   T   T   T
  0.5544592502646992  0.4379899399457940  0.4037542370104745   F   F   F
  0.4321475800152822  0.3564972081178725  0.6029119175868664   T   T   T
  0.5267035332992360  0.3487590029565598  0.5761319024588767   T   T   T
  0.6833673170844061  0.3320095859407297  0.7144266580316183   T   T   T
  0.6806142137079226  0.3927426814700409  0.7656211453575377   T   T   T
  0.6928579072713908  0.3513061172993498  0.7520059490317196   T   T   T
  0.7138926843727600  0.3325806610032923  0.7780281640145027   T   T   T
 
  0.00000000E+00  0.00000000E+00  0.00000000E+00
  0.00000000E+00  0.00000000E+00  0.00000000E+00
  0.00000000E+00  0.00000000E+00  0.00000000E+00
  0.00000000E+00  0.00000000E+00  0.00000000E+00
  0.00000000E+00  0.00000000E+00  0.00000000E+00
  0.00000000E+00  0.00000000E+00  0.00000000E+00
  0.00000000E+00  0.00000000E+00  0.00000000E+00
  0.00000000E+00  0.00000000E+00  0.00000000E+00
  0.00000000E+00  0.00000000E+00  0.00000000E+00
  0.00000000E+00  0.00000000E+00  0.00000000E+00
  0.00000000E+00  0.00000000E+00  0.00000000E+00
  0.00000000E+00  0.00000000E+00  0.00000000E+00
  0.00000000E+00  0.00000000E+00  0.00000000E+00
  0.00000000E+00  0.00000000E+00  0.00000000E+00
  0.00000000E+00  0.00000000E+00  0.00000000E+00
  0.00000000E+00  0.00000000E+00  0.00000000E+00
  0.00000000E+00  0.00000000E+00  0.00000000E+00
  0.00000000E+00  0.00000000E+00  0.00000000E+00
  0.00000000E+00  0.00000000E+00  0.00000000E+00
  0.00000000E+00  0.00000000E+00  0.00000000E+00
  0.00000000E+00  0.00000000E+00  0.00000000E+00
  0.00000000E+00  0.00000000E+00  0.00000000E+00
  0.00000000E+00  0.00000000E+00  0.00000000E+00
  0.00000000E+00  0.00000000E+00  0.00000000E+00
  0.00000000E+00  0.00000000E+00  0.00000000E+00
  0.00000000E+00  0.00000000E+00  0.00000000E+00
  0.00000000E+00  0.00000000E+00  0.00000000E+00
  0.00000000E+00  0.00000000E+00  0.00000000E+00
  0.00000000E+00  0.00000000E+00  0.00000000E+00
  0.00000000E+00  0.00000000E+00  0.00000000E+00
  0.00000000E+00  0.00000000E+00  0.00000000E+00
  0.00000000E+00  0.00000000E+00  0.00000000E+00
  0.00000000E+00  0.00000000E+00  0.00000000E+00
  0.00000000E+00  0.00000000E+00  0.00000000E+00
  0.00000000E+00  0.00000000E+00  0.00000000E+00
  0.00000000E+00  0.00000000E+00  0.00000000E+00
  0.00000000E+00  0.00000000E+00  0.00000000E+00
  0.00000000E+00  0.00000000E+00  0.00000000E+00
  0.00000000E+00  0.00000000E+00  0.00000000E+00
  0.00000000E+00  0.00000000E+00  0.00000000E+00
  0.00000000E+00  0.00000000E+00  0.00000000E+00
  0.00000000E+00  0.00000000E+00  0.00000000E+00
  0.00000000E+00  0.00000000E+00  0.00000000E+00
  0.00000000E+00  0.00000000E+00  0.00000000E+00
  0.00000000E+00  0.00000000E+00  0.00000000E+00
  0.00000000E+00  0.00000000E+00  0.00000000E+00
  0.00000000E+00  0.00000000E+00  0.00000000E+00
  0.00000000E+00  0.00000000E+00  0.00000000E+00
  0.00000000E+00  0.00000000E+00  0.00000000E+00
  0.00000000E+00  0.00000000E+00  0.00000000E+00
  0.00000000E+00  0.00000000E+00  0.00000000E+00
  0.00000000E+00  0.00000000E+00  0.00000000E+00
  0.00000000E+00  0.00000000E+00  0.00000000E+00
  0.00000000E+00  0.00000000E+00  0.00000000E+00
  0.00000000E+00  0.00000000E+00  0.00000000E+00
  0.00000000E+00  0.00000000E+00  0.00000000E+00
  0.00000000E+00  0.00000000E+00  0.00000000E+00
  0.00000000E+00  0.00000000E+00  0.00000000E+00
  0.00000000E+00  0.00000000E+00  0.00000000E+00
  0.00000000E+00  0.00000000E+00  0.00000000E+00
  0.00000000E+00  0.00000000E+00  0.00000000E+00
  0.00000000E+00  0.00000000E+00  0.00000000E+00
  0.00000000E+00  0.00000000E+00  0.00000000E+00
  0.00000000E+00  0.00000000E+00  0.00000000E+00
  0.00000000E+00  0.00000000E+00  0.00000000E+00
  0.00000000E+00  0.00000000E+00  0.00000000E+00
  0.00000000E+00  0.00000000E+00  0.00000000E+00
  0.00000000E+00  0.00000000E+00  0.00000000E+00
  0.00000000E+00  0.00000000E+00  0.00000000E+00
  0.00000000E+00  0.00000000E+00  0.00000000E+00
  0.00000000E+00  0.00000000E+00  0.00000000E+00
  0.00000000E+00  0.00000000E+00  0.00000000E+00
