Bi La Sn O  C  H                        
   1.00000000000000     
    29.0000000000000000    0.0000000000000000    0.0000000000000000
     0.2488180851000000   28.9989325590000000    0.0000000000000000
    -0.0631677343000000   -0.4515975666000000   28.9964147692999994
   Bi   La   Sn   O    C    H 
    22    23    23     2     1     1
Selective dynamics
Direct
  0.7604803352464200  0.4763847100110830  0.3971329649174015   T   T   T
  0.6469760803365847  0.6841784594404502  0.5522502690677864   T   T   T
  0.3594917026925571  0.4590096041412875  0.4283716278210712   T   T   T
  0.5518402489609252  0.7141830283938646  0.5839239164622149   T   T   T
  0.5915029568994470  0.5209714444905416  0.5841479689498996   F   F   F
  0.6401494754862881  0.6803736912911584  0.4467920706046603   T   T   T
  0.6978813986684126  0.5218168544632592  0.6539758276099131   T   T   T
  0.4866430651785388  0.7006646875368965  0.5009212701318768   T   T   T
  0.5004839460855024  0.5502791173970252  0.5477141156400123   F   F   F
  0.3256502962259155  0.4868304314491846  0.5753007317964568   T   T   T
  0.3828794173682273  0.6101997153599898  0.5357876717370641   T   T   T
  0.6667129484492236  0.4827404655721850  0.5105018184570156   F   F   F
  0.5763997220267569  0.4263140504383500  0.5448328182496311   F   F   F
  0.6682850973781956  0.3744210858236900  0.5073740791377944   T   T   T
  0.4631728002634761  0.3388698297954993  0.4997545923154104   T   T   T
  0.6484934028780529  0.5775373212088155  0.4602701624361103   F   F   F
  0.5591367047565075  0.4371269403800300  0.7493741849324618   T   T   T
  0.6040444660453478  0.3516242819640750  0.6681582135062911   T   T   T
  0.4916854389627760  0.2994350786024390  0.4095001492201649   T   T   T
  0.6619187307729624  0.6169895588932133  0.6662013752942701   T   T   T
  0.4912824209394245  0.4106102959827194  0.3068788674622889   T   T   T
  0.6215327667500972  0.3157207580262106  0.5726057809911516   T   T   T
  0.5388998220252847  0.6834785561520360  0.4047134042549568   T   T   T
  0.3903100557232194  0.4159474986692499  0.5273984727180311   T   T   T
  0.6289671771484122  0.5517048417333148  0.2834659698902818   T   T   T
  0.4718741563508009  0.4705634507295960  0.6923998939779447   T   T   T
  0.5683115009887700  0.5094300495444983  0.4784716241115703   F   F   F
  0.4203210565129183  0.5084107200613417  0.5018573595042781   F   F   F
  0.4516580590000184  0.4010795967679502  0.4067376123321471   T   T   T
  0.5626652321142577  0.3487347415335265  0.3538346169518896   T   T   T
  0.4114212439545067  0.5402485791170375  0.6102434917103761   T   T   T
  0.5977258151494420  0.4426983483503050  0.3035216580499754   T   T   T
  0.4547553732895042  0.6001639519787809  0.3631821355295603   T   T   T
  0.4179627129538261  0.4879639972051951  0.3399248302502545   T   T   T
  0.6610435256170268  0.4293675764618627  0.6046831757002030   T   T   T
  0.6741954084130125  0.5781163823263374  0.5635903375432227   T   T   T
  0.5260923579087255  0.5096884079948455  0.3280780548385144   T   T   T
  0.5658120050224563  0.3573427108613788  0.4687386514745844   T   T   T
  0.3154370489498723  0.5426069210592790  0.4919431310514106   T   T   T
  0.6600972965942885  0.4294725353973869  0.4158467348290256   T   T   T
  0.5660841929594156  0.6261437171197244  0.5094829013827464   F   F   F
  0.5974139336953822  0.5283756002862066  0.6896672339354180   T   T   T
  0.4704358679308203  0.6425436321218854  0.5915184601421056   T   T   T
  0.4628460102622629  0.6031009188333297  0.4634241957985360   T   T   T
  0.7159798246580946  0.5720906018117712  0.3820889172545701   T   T   T
  0.5499310510395361  0.5822218838566187  0.4076968008106903   F   F   F
  0.4794126430662260  0.5072205383607624  0.4190535757241776   F   F   F
  0.6945067474279918  0.4780743544775386  0.3240366850734556   T   T   T
  0.7517838689273962  0.4287653473757641  0.4868036862572935   T   T   T
  0.7485925218639942  0.5360044556732588  0.4831674675863034   T   T   T
  0.7498794953168496  0.4904421245720834  0.5712408902482659   T   T   T
  0.6491927169236398  0.4362374649819731  0.7092690670683985   T   T   T
  0.5761377199412061  0.7438127175235090  0.4924583652895717   T   T   T
  0.6192554540844384  0.5183157687966542  0.3801816896793397   F   F   F
  0.5071990190852254  0.5574031684782127  0.6489124687510063   T   T   T
  0.4922009500451665  0.4366758245867572  0.4933013002826740   F   F   F
  0.5608844484509063  0.4404139570509003  0.6454865549417619   F   F   F
  0.5782324914572697  0.6159984390390595  0.6139045426098513   T   T   T
  0.5442815077953872  0.6174452527724404  0.3124832541263897   T   T   T
  0.6273079027095440  0.6255037120891026  0.3609356559381198   T   T   T
  0.3765818697490756  0.5574851517376406  0.4129683394552727   T   T   T
  0.4723078164089713  0.4557257050327763  0.5877273803360978   F   F   F
  0.7281098159454599  0.6331245509013445  0.4830174488693665   T   T   T
  0.5038713545860898  0.3682181423704244  0.6843780411435316   T   T   T
  0.3817376270661986  0.4412103416976602  0.6404159378119934   T   T   T
  0.5544592502646992  0.4379899399457940  0.4037542370104745   F   F   F
  0.4340928235045531  0.3632992748752457  0.6102870071684974   T   T   T
  0.5280368630148061  0.3494848154604739  0.5796127701003341   T   T   T
  0.4766974901045823  0.6765618536373116  0.6660600420532545   T   T   T
  0.5530683038562602  0.6793792931679241  0.6841566068874879   T   T   T
  0.5110740873779718  0.6821115152758057  0.6941287517251583   T   T   T
  0.5013650377346236  0.6897476784236153  0.7306339513218053   T   T   T
 
  0.00000000E+00  0.00000000E+00  0.00000000E+00
  0.00000000E+00  0.00000000E+00  0.00000000E+00
  0.00000000E+00  0.00000000E+00  0.00000000E+00
  0.00000000E+00  0.00000000E+00  0.00000000E+00
  0.00000000E+00  0.00000000E+00  0.00000000E+00
  0.00000000E+00  0.00000000E+00  0.00000000E+00
  0.00000000E+00  0.00000000E+00  0.00000000E+00
  0.00000000E+00  0.00000000E+00  0.00000000E+00
  0.00000000E+00  0.00000000E+00  0.00000000E+00
  0.00000000E+00  0.00000000E+00  0.00000000E+00
  0.00000000E+00  0.00000000E+00  0.00000000E+00
  0.00000000E+00  0.00000000E+00  0.00000000E+00
  0.00000000E+00  0.00000000E+00  0.00000000E+00
  0.00000000E+00  0.00000000E+00  0.00000000E+00
  0.00000000E+00  0.00000000E+00  0.00000000E+00
  0.00000000E+00  0.00000000E+00  0.00000000E+00
  0.00000000E+00  0.00000000E+00  0.00000000E+00
  0.00000000E+00  0.00000000E+00  0.00000000E+00
  0.00000000E+00  0.00000000E+00  0.00000000E+00
  0.00000000E+00  0.00000000E+00  0.00000000E+00
  0.00000000E+00  0.00000000E+00  0.00000000E+00
  0.00000000E+00  0.00000000E+00  0.00000000E+00
  0.00000000E+00  0.00000000E+00  0.00000000E+00
  0.00000000E+00  0.00000000E+00  0.00000000E+00
  0.00000000E+00  0.00000000E+00  0.00000000E+00
  0.00000000E+00  0.00000000E+00  0.00000000E+00
  0.00000000E+00  0.00000000E+00  0.00000000E+00
  0.00000000E+00  0.00000000E+00  0.00000000E+00
  0.00000000E+00  0.00000000E+00  0.00000000E+00
  0.00000000E+00  0.00000000E+00  0.00000000E+00
  0.00000000E+00  0.00000000E+00  0.00000000E+00
  0.00000000E+00  0.00000000E+00  0.00000000E+00
  0.00000000E+00  0.00000000E+00  0.00000000E+00
  0.00000000E+00  0.00000000E+00  0.00000000E+00
  0.00000000E+00  0.00000000E+00  0.00000000E+00
  0.00000000E+00  0.00000000E+00  0.00000000E+00
  0.00000000E+00  0.00000000E+00  0.00000000E+00
  0.00000000E+00  0.00000000E+00  0.00000000E+00
  0.00000000E+00  0.00000000E+00  0.00000000E+00
  0.00000000E+00  0.00000000E+00  0.00000000E+00
  0.00000000E+00  0.00000000E+00  0.00000000E+00
  0.00000000E+00  0.00000000E+00  0.00000000E+00
  0.00000000E+00  0.00000000E+00  0.00000000E+00
  0.00000000E+00  0.00000000E+00  0.00000000E+00
  0.00000000E+00  0.00000000E+00  0.00000000E+00
  0.00000000E+00  0.00000000E+00  0.00000000E+00
  0.00000000E+00  0.00000000E+00  0.00000000E+00
  0.00000000E+00  0.00000000E+00  0.00000000E+00
  0.00000000E+00  0.00000000E+00  0.00000000E+00
  0.00000000E+00  0.00000000E+00  0.00000000E+00
  0.00000000E+00  0.00000000E+00  0.00000000E+00
  0.00000000E+00  0.00000000E+00  0.00000000E+00
  0.00000000E+00  0.00000000E+00  0.00000000E+00
  0.00000000E+00  0.00000000E+00  0.00000000E+00
  0.00000000E+00  0.00000000E+00  0.00000000E+00
  0.00000000E+00  0.00000000E+00  0.00000000E+00
  0.00000000E+00  0.00000000E+00  0.00000000E+00
  0.00000000E+00  0.00000000E+00  0.00000000E+00
  0.00000000E+00  0.00000000E+00  0.00000000E+00
  0.00000000E+00  0.00000000E+00  0.00000000E+00
  0.00000000E+00  0.00000000E+00  0.00000000E+00
  0.00000000E+00  0.00000000E+00  0.00000000E+00
  0.00000000E+00  0.00000000E+00  0.00000000E+00
  0.00000000E+00  0.00000000E+00  0.00000000E+00
  0.00000000E+00  0.00000000E+00  0.00000000E+00
  0.00000000E+00  0.00000000E+00  0.00000000E+00
  0.00000000E+00  0.00000000E+00  0.00000000E+00
  0.00000000E+00  0.00000000E+00  0.00000000E+00
  0.00000000E+00  0.00000000E+00  0.00000000E+00
  0.00000000E+00  0.00000000E+00  0.00000000E+00
  0.00000000E+00  0.00000000E+00  0.00000000E+00
  0.00000000E+00  0.00000000E+00  0.00000000E+00
