Bi La Sn O  C  H                        
   1.00000000000000     
    29.0000000000000000    0.0000000000000000    0.0000000000000000
     0.2488180851000000   28.9989325590000000    0.0000000000000000
    -0.0631677343000000   -0.4515975666000000   28.9964147692999994
   Bi   La   Sn   O    C    H 
    22    23    23     2     1     1
Selective dynamics
Direct
  0.7621349583536143  0.4796705894652846  0.3997765225578913   T   T   T
  0.6461918126454698  0.6845479969803233  0.5518225893584474   T   T   T
  0.3605271307310184  0.4578725943971145  0.4285172791959275   T   T   T
  0.5503820413145637  0.7127825063486112  0.5863063456277371   T   T   T
  0.5915029568994470  0.5209714444905416  0.5841479689498996   F   F   F
  0.6397664034483228  0.6804156124500701  0.4441884294033296   T   T   T
  0.6954924774023673  0.5227893481891872  0.6546481441492001   T   T   T
  0.4857278601282826  0.7010498890942971  0.5008535805203446   T   T   T
  0.5004839460855024  0.5502791173970252  0.5477141156400123   F   F   F
  0.3243693709270432  0.4865939218198019  0.5739698147971363   T   T   T
  0.3824406660310952  0.6109793256138638  0.5344785451634065   T   T   T
  0.6667129484492236  0.4827404655721850  0.5105018184570156   F   F   F
  0.5763997220267569  0.4263140504383500  0.5448328182496311   F   F   F
  0.6689083998658532  0.3742843626975929  0.5061937574481574   T   T   T
  0.4633878369848953  0.3383386352933061  0.5027316596115968   T   T   T
  0.6484934028780529  0.5775373212088155  0.4602701624361103   F   F   F
  0.5572838394812595  0.4374552294480433  0.7497704584849821   T   T   T
  0.6041695080034952  0.3517309788695281  0.6692658328740698   T   T   T
  0.4902456324273172  0.2948684929302884  0.4144850788427044   T   T   T
  0.6591395452254752  0.6185452811520433  0.6671422890422716   T   T   T
  0.4940225583380791  0.4084711709122033  0.3106401489913895   T   T   T
  0.6224176017021057  0.3166179407349986  0.5731136745809391   T   T   T
  0.5383754509458938  0.6845311674620219  0.4061185991870535   T   T   T
  0.3905312290068886  0.4157511053294593  0.5276399396834855   T   T   T
  0.6269997438076981  0.5504942674618269  0.2770653370919305   T   T   T
  0.4711728589232262  0.4707013771421618  0.6917377427160123   T   T   T
  0.5683115009887700  0.5094300495444983  0.4784716241115703   F   F   F
  0.4203210565129183  0.5084107200613417  0.5018573595042781   F   F   F
  0.4520689516698687  0.3983032878157977  0.4090989360517688   T   T   T
  0.5606172528709226  0.3459983167409161  0.3597962576966157   T   T   T
  0.4105260936243446  0.5403698462719582  0.6093082027648814   T   T   T
  0.6061680284665522  0.4321074446766949  0.3056967213035219   T   T   T
  0.4556974360775279  0.5993811215668110  0.3624972934439371   T   T   T
  0.4186542985850513  0.4842357954410934  0.3395552575497538   T   T   T
  0.6608286185797949  0.4284157989237976  0.6045906940445546   T   T   T
  0.6727525424384108  0.5788933388772579  0.5645897286190170   T   T   T
  0.5278462458111730  0.5088636326567896  0.3250391858372256   T   T   T
  0.5655992922339765  0.3577777384173834  0.4684894134260716   T   T   T
  0.3162274705772538  0.5422314463993766  0.4903440812884137   T   T   T
  0.6616888775246196  0.4308353893935149  0.4158814479053822   T   T   T
  0.5660841929594156  0.6261437171197244  0.5094829013827464   F   F   F
  0.5953252394802628  0.5286776289356026  0.6898908171917273   T   T   T
  0.4697380819534313  0.6413874156250478  0.5889048479532211   T   T   T
  0.4636951037410719  0.6032760117460675  0.4638761144992700   T   T   T
  0.7189263520774789  0.5762456729113954  0.3857530982010644   T   T   T
  0.5499310510395361  0.5822218838566187  0.4076968008106903   F   F   F
  0.4794126430662260  0.5072205383607624  0.4190535757241776   F   F   F
  0.6969665601797440  0.4857964953283014  0.3273874420282737   T   T   T
  0.7520570310068891  0.4296501117054963  0.4880420722438505   T   T   T
  0.7482129134329705  0.5389457385327540  0.4864542899753743   T   T   T
  0.7482536955517237  0.4908774801270219  0.5726208336753763   T   T   T
  0.6477688576784600  0.4374173612523014  0.7094298340490317   T   T   T
  0.5768572722244114  0.7422808608575381  0.4946611791493835   T   T   T
  0.6192554540844384  0.5183157687966542  0.3801816896793397   F   F   F
  0.5046730315539744  0.5591147905291293  0.6498855063881742   T   T   T
  0.4922009500451665  0.4366758245867572  0.4933013002826740   F   F   F
  0.5608844484509063  0.4404139570509003  0.6454865549417619   F   F   F
  0.5768081493493988  0.6161541147238286  0.6138620871494210   T   T   T
  0.5454696463831226  0.6193784355134907  0.3144058864786371   T   T   T
  0.6293839918656893  0.6241144393053976  0.3593903999120953   T   T   T
  0.3781757042639876  0.5553533863197015  0.4114012426152176   T   T   T
  0.4723078164089713  0.4557257050327763  0.5877273803360978   F   F   F
  0.7261114244532687  0.6362165276381481  0.4855045090908040   T   T   T
  0.5041878160967387  0.3679547928761120  0.6843926965405854   T   T   T
  0.3807428365296017  0.4418055208236888  0.6395739779857591   T   T   T
  0.5544592502646992  0.4379899399457940  0.4037542370104745   F   F   F
  0.4344578578745749  0.3638841866153402  0.6109537551257288   T   T   T
  0.5290694610649649  0.3490733153396681  0.5809020594292766   T   T   T
  0.6160618407225410  0.4766477839752434  0.2404946103533877   T   T   T
  0.5535435298089989  0.5256196780206926  0.2496568038203034   T   T   T
  0.5674933123083368  0.4797409897412200  0.2449211038888631   T   T   T
  0.5489898570332692  0.4603652210816272  0.2176880676999988   T   T   T
 
  0.00000000E+00  0.00000000E+00  0.00000000E+00
  0.00000000E+00  0.00000000E+00  0.00000000E+00
  0.00000000E+00  0.00000000E+00  0.00000000E+00
  0.00000000E+00  0.00000000E+00  0.00000000E+00
  0.00000000E+00  0.00000000E+00  0.00000000E+00
  0.00000000E+00  0.00000000E+00  0.00000000E+00
  0.00000000E+00  0.00000000E+00  0.00000000E+00
  0.00000000E+00  0.00000000E+00  0.00000000E+00
  0.00000000E+00  0.00000000E+00  0.00000000E+00
  0.00000000E+00  0.00000000E+00  0.00000000E+00
  0.00000000E+00  0.00000000E+00  0.00000000E+00
  0.00000000E+00  0.00000000E+00  0.00000000E+00
  0.00000000E+00  0.00000000E+00  0.00000000E+00
  0.00000000E+00  0.00000000E+00  0.00000000E+00
  0.00000000E+00  0.00000000E+00  0.00000000E+00
  0.00000000E+00  0.00000000E+00  0.00000000E+00
  0.00000000E+00  0.00000000E+00  0.00000000E+00
  0.00000000E+00  0.00000000E+00  0.00000000E+00
  0.00000000E+00  0.00000000E+00  0.00000000E+00
  0.00000000E+00  0.00000000E+00  0.00000000E+00
  0.00000000E+00  0.00000000E+00  0.00000000E+00
  0.00000000E+00  0.00000000E+00  0.00000000E+00
  0.00000000E+00  0.00000000E+00  0.00000000E+00
  0.00000000E+00  0.00000000E+00  0.00000000E+00
  0.00000000E+00  0.00000000E+00  0.00000000E+00
  0.00000000E+00  0.00000000E+00  0.00000000E+00
  0.00000000E+00  0.00000000E+00  0.00000000E+00
  0.00000000E+00  0.00000000E+00  0.00000000E+00
  0.00000000E+00  0.00000000E+00  0.00000000E+00
  0.00000000E+00  0.00000000E+00  0.00000000E+00
  0.00000000E+00  0.00000000E+00  0.00000000E+00
  0.00000000E+00  0.00000000E+00  0.00000000E+00
  0.00000000E+00  0.00000000E+00  0.00000000E+00
  0.00000000E+00  0.00000000E+00  0.00000000E+00
  0.00000000E+00  0.00000000E+00  0.00000000E+00
  0.00000000E+00  0.00000000E+00  0.00000000E+00
  0.00000000E+00  0.00000000E+00  0.00000000E+00
  0.00000000E+00  0.00000000E+00  0.00000000E+00
  0.00000000E+00  0.00000000E+00  0.00000000E+00
  0.00000000E+00  0.00000000E+00  0.00000000E+00
  0.00000000E+00  0.00000000E+00  0.00000000E+00
  0.00000000E+00  0.00000000E+00  0.00000000E+00
  0.00000000E+00  0.00000000E+00  0.00000000E+00
  0.00000000E+00  0.00000000E+00  0.00000000E+00
  0.00000000E+00  0.00000000E+00  0.00000000E+00
  0.00000000E+00  0.00000000E+00  0.00000000E+00
  0.00000000E+00  0.00000000E+00  0.00000000E+00
  0.00000000E+00  0.00000000E+00  0.00000000E+00
  0.00000000E+00  0.00000000E+00  0.00000000E+00
  0.00000000E+00  0.00000000E+00  0.00000000E+00
  0.00000000E+00  0.00000000E+00  0.00000000E+00
  0.00000000E+00  0.00000000E+00  0.00000000E+00
  0.00000000E+00  0.00000000E+00  0.00000000E+00
  0.00000000E+00  0.00000000E+00  0.00000000E+00
  0.00000000E+00  0.00000000E+00  0.00000000E+00
  0.00000000E+00  0.00000000E+00  0.00000000E+00
  0.00000000E+00  0.00000000E+00  0.00000000E+00
  0.00000000E+00  0.00000000E+00  0.00000000E+00
  0.00000000E+00  0.00000000E+00  0.00000000E+00
  0.00000000E+00  0.00000000E+00  0.00000000E+00
  0.00000000E+00  0.00000000E+00  0.00000000E+00
  0.00000000E+00  0.00000000E+00  0.00000000E+00
  0.00000000E+00  0.00000000E+00  0.00000000E+00
  0.00000000E+00  0.00000000E+00  0.00000000E+00
  0.00000000E+00  0.00000000E+00  0.00000000E+00
  0.00000000E+00  0.00000000E+00  0.00000000E+00
  0.00000000E+00  0.00000000E+00  0.00000000E+00
  0.00000000E+00  0.00000000E+00  0.00000000E+00
  0.00000000E+00  0.00000000E+00  0.00000000E+00
  0.00000000E+00  0.00000000E+00  0.00000000E+00
  0.00000000E+00  0.00000000E+00  0.00000000E+00
  0.00000000E+00  0.00000000E+00  0.00000000E+00
