Bi La Sn O  C  H                        
   1.00000000000000     
    29.0000000000000000    0.0000000000000000    0.0000000000000000
     0.2488180851000000   28.9989325590000000    0.0000000000000000
    -0.0631677343000000   -0.4515975666000000   28.9964147692999994
   Bi   La   Sn   O    C    H 
    22    23    23     2     1     1
Selective dynamics
Direct
  0.7578245912630842  0.4810882323559266  0.4012137012797977   T   T   T
  0.6480020855154199  0.6849618443051413  0.5499233664767930   T   T   T
  0.3607035067624815  0.4579956034226216  0.4280039846086144   T   T   T
  0.5513261306500966  0.7136471125397722  0.5840814464956412   T   T   T
  0.5915029568994470  0.5209714444905416  0.5841479689498996   F   F   F
  0.6400804046686207  0.6795344530166343  0.4442970425865897   T   T   T
  0.6956504060894301  0.5205711770102387  0.6540967860128633   T   T   T
  0.4871123388123768  0.7019286116151899  0.4987533271608737   T   T   T
  0.5004839460855024  0.5502791173970252  0.5477141156400123   F   F   F
  0.3286262579156124  0.4852204743783851  0.5793609662649600   T   T   T
  0.3826796073088912  0.6085235222448497  0.5379983345348782   T   T   T
  0.6667129484492236  0.4827404655721850  0.5105018184570156   F   F   F
  0.5763997220267569  0.4263140504383500  0.5448328182496311   F   F   F
  0.6676003161584513  0.3746478168956121  0.5077059931580664   T   T   T
  0.4597537559424475  0.3373231460330389  0.4959152708033671   T   T   T
  0.6484934028780529  0.5775373212088155  0.4602701624361103   F   F   F
  0.5549880693601862  0.4351180155022425  0.7500662051255105   T   T   T
  0.5905597651086412  0.3488766112176702  0.6684465294121493   T   T   T
  0.4926568371015166  0.2987523633313232  0.4079930604734655   T   T   T
  0.6606907805557315  0.6162128915477694  0.6684313976739668   T   T   T
  0.4921433942389339  0.4112210120660458  0.3049133898204833   T   T   T
  0.6194406127099797  0.3173133514751711  0.5737674000967337   T   T   T
  0.5394051857684233  0.6839135487254066  0.4044287427545495   T   T   T
  0.3892963320733570  0.4151025760871873  0.5260161505082019   T   T   T
  0.6270721682739744  0.5532546966059508  0.2812121605497555   T   T   T
  0.4738899684436981  0.4817505342842022  0.6932406026315813   T   T   T
  0.5683115009887700  0.5094300495444983  0.4784716241115703   F   F   F
  0.4203210565129183  0.5084107200613417  0.5018573595042781   F   F   F
  0.4527160515307805  0.4011431347867935  0.4051326990065873   T   T   T
  0.5632115637427255  0.3494664037156748  0.3521558994520488   T   T   T
  0.4139919645599751  0.5394418727793974  0.6128895645236100   T   T   T
  0.6005185960868238  0.4414347149726870  0.3070273310932272   T   T   T
  0.4545395363430022  0.6001639385200749  0.3639412685484728   T   T   T
  0.4188083989363485  0.4879123251078834  0.3398224316403877   T   T   T
  0.6606085831743130  0.4259898061049482  0.6052862969334312   T   T   T
  0.6738616712369189  0.5786026035700806  0.5648145876726699   T   T   T
  0.5264355053795693  0.5096403669330339  0.3273842926595928   T   T   T
  0.5639045192291091  0.3563780360437185  0.4703319427236115   T   T   T
  0.3165755196454939  0.5393164728940548  0.4941532063652114   T   T   T
  0.6607846322259944  0.4263886207849608  0.4129769030839302   T   T   T
  0.5660841929594156  0.6261437171197244  0.5094829013827464   F   F   F
  0.5961387995585647  0.5266497070061434  0.6901471332977844   T   T   T
  0.4707844627293277  0.6430571564002551  0.5875272879550277   T   T   T
  0.4624489818903235  0.6037420440433278  0.4644601319085977   T   T   T
  0.7175337960595860  0.5775336408869295  0.3848727337113629   T   T   T
  0.5499310510395361  0.5822218838566187  0.4076968008106903   F   F   F
  0.4794126430662260  0.5072205383607624  0.4190535757241776   F   F   F
  0.6955301546944285  0.4863087776929421  0.3251188665142035   T   T   T
  0.7510895979548031  0.4287485364411125  0.4872609707318410   T   T   T
  0.7490409321255699  0.5399205004673544  0.4877087217398230   T   T   T
  0.7484821419455033  0.4883067718694671  0.5721019549038676   T   T   T
  0.6440329356450014  0.4308101333227850  0.7087353191647172   T   T   T
  0.5778731742481640  0.7434145172431994  0.4928411931919489   T   T   T
  0.6192554540844384  0.5183157687966542  0.3801816896793397   F   F   F
  0.5083912659483714  0.5659652179396268  0.6500635163718259   T   T   T
  0.4922009500451665  0.4366758245867572  0.4933013002826740   F   F   F
  0.5608844484509063  0.4404139570509003  0.6454865549417619   F   F   F
  0.5801743091962387  0.6179402607055512  0.6128318240094195   T   T   T
  0.5436740038186522  0.6179213733474997  0.3125273773621227   T   T   T
  0.6273121569911037  0.6247473468744419  0.3595250771933967   T   T   T
  0.3758301390950988  0.5571983939716854  0.4136555149092523   T   T   T
  0.4723078164089713  0.4557257050327763  0.5877273803360978   F   F   F
  0.7271828009704454  0.6364808349553949  0.4857651308220114   T   T   T
  0.4908509488168837  0.3787509815702415  0.6777922021128384   T   T   T
  0.3886827870360515  0.4368267852497623  0.6412959978593685   T   T   T
  0.5544592502646992  0.4379899399457940  0.4037542370104745   F   F   F
  0.4293633956545298  0.3549782407479134  0.6024991428952990   T   T   T
  0.5242333477338478  0.3499155898443203  0.5758735276544596   T   T   T
  0.7083774690500284  0.3554715532390175  0.3835136530609682   T   T   T
  0.6459657741773598  0.3649802735461479  0.3380287112878458   T   T   T
  0.6869034590254651  0.3476498897970734  0.3469264377485291   T   T   T
  0.7020775169502883  0.3248690386235183  0.3197638309382261   T   T   T
 
  0.00000000E+00  0.00000000E+00  0.00000000E+00
  0.00000000E+00  0.00000000E+00  0.00000000E+00
  0.00000000E+00  0.00000000E+00  0.00000000E+00
  0.00000000E+00  0.00000000E+00  0.00000000E+00
  0.00000000E+00  0.00000000E+00  0.00000000E+00
  0.00000000E+00  0.00000000E+00  0.00000000E+00
  0.00000000E+00  0.00000000E+00  0.00000000E+00
  0.00000000E+00  0.00000000E+00  0.00000000E+00
  0.00000000E+00  0.00000000E+00  0.00000000E+00
  0.00000000E+00  0.00000000E+00  0.00000000E+00
  0.00000000E+00  0.00000000E+00  0.00000000E+00
  0.00000000E+00  0.00000000E+00  0.00000000E+00
  0.00000000E+00  0.00000000E+00  0.00000000E+00
  0.00000000E+00  0.00000000E+00  0.00000000E+00
  0.00000000E+00  0.00000000E+00  0.00000000E+00
  0.00000000E+00  0.00000000E+00  0.00000000E+00
  0.00000000E+00  0.00000000E+00  0.00000000E+00
  0.00000000E+00  0.00000000E+00  0.00000000E+00
  0.00000000E+00  0.00000000E+00  0.00000000E+00
  0.00000000E+00  0.00000000E+00  0.00000000E+00
  0.00000000E+00  0.00000000E+00  0.00000000E+00
  0.00000000E+00  0.00000000E+00  0.00000000E+00
  0.00000000E+00  0.00000000E+00  0.00000000E+00
  0.00000000E+00  0.00000000E+00  0.00000000E+00
  0.00000000E+00  0.00000000E+00  0.00000000E+00
  0.00000000E+00  0.00000000E+00  0.00000000E+00
  0.00000000E+00  0.00000000E+00  0.00000000E+00
  0.00000000E+00  0.00000000E+00  0.00000000E+00
  0.00000000E+00  0.00000000E+00  0.00000000E+00
  0.00000000E+00  0.00000000E+00  0.00000000E+00
  0.00000000E+00  0.00000000E+00  0.00000000E+00
  0.00000000E+00  0.00000000E+00  0.00000000E+00
  0.00000000E+00  0.00000000E+00  0.00000000E+00
  0.00000000E+00  0.00000000E+00  0.00000000E+00
  0.00000000E+00  0.00000000E+00  0.00000000E+00
  0.00000000E+00  0.00000000E+00  0.00000000E+00
  0.00000000E+00  0.00000000E+00  0.00000000E+00
  0.00000000E+00  0.00000000E+00  0.00000000E+00
  0.00000000E+00  0.00000000E+00  0.00000000E+00
  0.00000000E+00  0.00000000E+00  0.00000000E+00
  0.00000000E+00  0.00000000E+00  0.00000000E+00
  0.00000000E+00  0.00000000E+00  0.00000000E+00
  0.00000000E+00  0.00000000E+00  0.00000000E+00
  0.00000000E+00  0.00000000E+00  0.00000000E+00
  0.00000000E+00  0.00000000E+00  0.00000000E+00
  0.00000000E+00  0.00000000E+00  0.00000000E+00
  0.00000000E+00  0.00000000E+00  0.00000000E+00
  0.00000000E+00  0.00000000E+00  0.00000000E+00
  0.00000000E+00  0.00000000E+00  0.00000000E+00
  0.00000000E+00  0.00000000E+00  0.00000000E+00
  0.00000000E+00  0.00000000E+00  0.00000000E+00
  0.00000000E+00  0.00000000E+00  0.00000000E+00
  0.00000000E+00  0.00000000E+00  0.00000000E+00
  0.00000000E+00  0.00000000E+00  0.00000000E+00
  0.00000000E+00  0.00000000E+00  0.00000000E+00
  0.00000000E+00  0.00000000E+00  0.00000000E+00
  0.00000000E+00  0.00000000E+00  0.00000000E+00
  0.00000000E+00  0.00000000E+00  0.00000000E+00
  0.00000000E+00  0.00000000E+00  0.00000000E+00
  0.00000000E+00  0.00000000E+00  0.00000000E+00
  0.00000000E+00  0.00000000E+00  0.00000000E+00
  0.00000000E+00  0.00000000E+00  0.00000000E+00
  0.00000000E+00  0.00000000E+00  0.00000000E+00
  0.00000000E+00  0.00000000E+00  0.00000000E+00
  0.00000000E+00  0.00000000E+00  0.00000000E+00
  0.00000000E+00  0.00000000E+00  0.00000000E+00
  0.00000000E+00  0.00000000E+00  0.00000000E+00
  0.00000000E+00  0.00000000E+00  0.00000000E+00
  0.00000000E+00  0.00000000E+00  0.00000000E+00
  0.00000000E+00  0.00000000E+00  0.00000000E+00
  0.00000000E+00  0.00000000E+00  0.00000000E+00
  0.00000000E+00  0.00000000E+00  0.00000000E+00
