Bi La Sn O  C  H                        
   1.00000000000000     
    29.0000000000000000    0.0000000000000000    0.0000000000000000
     0.2488180851000000   28.9989325590000000    0.0000000000000000
    -0.0631677343000000   -0.4515975666000000   28.9964147692999994
   Bi   La   Sn   O    C    H 
    22    23    23     2     1     1
Selective dynamics
Direct
  0.7597659780059632  0.4781755280034807  0.3994984768224483   T   T   T
  0.6490422064344235  0.6836744754043419  0.5504267214021634   T   T   T
  0.3617316468208732  0.4554933569991349  0.4273108996491656   T   T   T
  0.5513469663881481  0.7135119179910925  0.5828861077551468   T   T   T
  0.5915029568994470  0.5209714444905416  0.5841479689498996   F   F   F
  0.6427937318355603  0.6785141435474098  0.4437179564642279   T   T   T
  0.6926511474062890  0.5198050133163423  0.6548683211663441   T   T   T
  0.4958593755998465  0.7064320718639248  0.4949757321576614   T   T   T
  0.5004839460855024  0.5502791173970252  0.5477141156400123   F   F   F
  0.3292551874101034  0.4823044607730252  0.5802187632678327   T   T   T
  0.3748913027415745  0.5985042791949349  0.5388126361175151   T   T   T
  0.6667129484492236  0.4827404655721850  0.5105018184570156   F   F   F
  0.5763997220267569  0.4263140504383500  0.5448328182496311   F   F   F
  0.6691821402485271  0.3736008527010311  0.5072758946624009   T   T   T
  0.4631202533151403  0.3379995940334455  0.4951773855809797   T   T   T
  0.6484934028780529  0.5775373212088155  0.4602701624361103   F   F   F
  0.5541292372783808  0.4361771833454131  0.7499148182303623   T   T   T
  0.5917489254375794  0.3493743931774092  0.6688816284900831   T   T   T
  0.4942480230155819  0.2989601205258763  0.4063661129484809   T   T   T
  0.6594801716142423  0.6165664232042295  0.6674536230909844   T   T   T
  0.4904425029320483  0.4105537815686656  0.3026882808761052   T   T   T
  0.6233136094726280  0.3165081131659733  0.5753255947678559   T   T   T
  0.5436882621555735  0.6841251169117334  0.4016869304902258   T   T   T
  0.3903420724439634  0.4140321477895779  0.5260850372258911   T   T   T
  0.6261177648355830  0.5504155791397642  0.2812285127185911   T   T   T
  0.4738179189990062  0.4834692801415391  0.6915464620622025   T   T   T
  0.5683115009887700  0.5094300495444983  0.4784716241115703   F   F   F
  0.4203210565129183  0.5084107200613417  0.5018573595042781   F   F   F
  0.4539863613597390  0.4008935753228886  0.4040046810804099   T   T   T
  0.5624676089902945  0.3507176782093479  0.3508412607164351   T   T   T
  0.4133876657319863  0.5373259557794249  0.6141495047278173   T   T   T
  0.6005704659832453  0.4401170604691428  0.3056535681131022   T   T   T
  0.4535671118787165  0.5989721944124078  0.3646919163699134   T   T   T
  0.4181643186401107  0.4876921831909141  0.3397156638759640   T   T   T
  0.6610112377467287  0.4253870668897081  0.6045636644445750   T   T   T
  0.6742610830633013  0.5780941819458383  0.5642823030771248   T   T   T
  0.5252111103395157  0.5082372648593785  0.3279941901144365   T   T   T
  0.5665911346601725  0.3566935833655230  0.4688030361580728   T   T   T
  0.3110114684305385  0.5299871104171112  0.4921433174723897   T   T   T
  0.6609077473705680  0.4289974884135201  0.4154790793150768   T   T   T
  0.5660841929594156  0.6261437171197244  0.5094829013827464   F   F   F
  0.5921288490926243  0.5293005007440876  0.6893990859007335   T   T   T
  0.4631442392929158  0.6462111227546476  0.5800071637330571   T   T   T
  0.4598638153528661  0.6075179046497342  0.4655549491839464   T   T   T
  0.7169360110912769  0.5740410044862468  0.3845309217545501   T   T   T
  0.5499310510395361  0.5822218838566187  0.4076968008106903   F   F   F
  0.4794126430662260  0.5072205383607624  0.4190535757241776   F   F   F
  0.6951946569520095  0.4827363486754083  0.3244379832152761   T   T   T
  0.7519414499028914  0.4289750028452134  0.4884044778572622   T   T   T
  0.7495235107529554  0.5368680079165747  0.4859831499114349   T   T   T
  0.7478402385753290  0.4890757356475001  0.5732244422193282   T   T   T
  0.6435548799668631  0.4340045358616465  0.7083273716643899   T   T   T
  0.5863396621922042  0.7454930321986436  0.4934291424128458   T   T   T
  0.6192554540844384  0.5183157687966542  0.3801816896793397   F   F   F
  0.5042380027760268  0.5719638251800916  0.6494656246988584   T   T   T
  0.4922009500451665  0.4366758245867572  0.4933013002826740   F   F   F
  0.5608844484509063  0.4404139570509003  0.6454865549417619   F   F   F
  0.5787713371048880  0.6176571305558316  0.6117952814074118   T   T   T
  0.5428566515780969  0.6153188654085937  0.3124107695045912   T   T   T
  0.6278061916674479  0.6240172892155518  0.3583310752969271   T   T   T
  0.3743368648835728  0.5560968900494317  0.4158385727973964   T   T   T
  0.4723078164089713  0.4557257050327763  0.5877273803360978   F   F   F
  0.7286586583419709  0.6343706261910301  0.4846395335604124   T   T   T
  0.4919244783578664  0.3795921769267318  0.6779554979566242   T   T   T
  0.3893705189607506  0.4340675148887310  0.6426522289859823   T   T   T
  0.5544592502646992  0.4379899399457940  0.4037542370104745   F   F   F
  0.4338448767718050  0.3551061258760226  0.6010427567607619   T   T   T
  0.5284306579069303  0.3476812360404622  0.5758148673527539   T   T   T
  0.4045068201024264  0.7015359772829619  0.5482557310754221   T   T   T
  0.4024339741523027  0.6802779428828241  0.4725608800225304   T   T   T
  0.3890932582995963  0.7045993197392031  0.5070367978247945   T   T   T
  0.3622185482747511  0.7313066207315427  0.5009257898942904   T   T   T
 
  0.00000000E+00  0.00000000E+00  0.00000000E+00
  0.00000000E+00  0.00000000E+00  0.00000000E+00
  0.00000000E+00  0.00000000E+00  0.00000000E+00
  0.00000000E+00  0.00000000E+00  0.00000000E+00
  0.00000000E+00  0.00000000E+00  0.00000000E+00
  0.00000000E+00  0.00000000E+00  0.00000000E+00
  0.00000000E+00  0.00000000E+00  0.00000000E+00
  0.00000000E+00  0.00000000E+00  0.00000000E+00
  0.00000000E+00  0.00000000E+00  0.00000000E+00
  0.00000000E+00  0.00000000E+00  0.00000000E+00
  0.00000000E+00  0.00000000E+00  0.00000000E+00
  0.00000000E+00  0.00000000E+00  0.00000000E+00
  0.00000000E+00  0.00000000E+00  0.00000000E+00
  0.00000000E+00  0.00000000E+00  0.00000000E+00
  0.00000000E+00  0.00000000E+00  0.00000000E+00
  0.00000000E+00  0.00000000E+00  0.00000000E+00
  0.00000000E+00  0.00000000E+00  0.00000000E+00
  0.00000000E+00  0.00000000E+00  0.00000000E+00
  0.00000000E+00  0.00000000E+00  0.00000000E+00
  0.00000000E+00  0.00000000E+00  0.00000000E+00
  0.00000000E+00  0.00000000E+00  0.00000000E+00
  0.00000000E+00  0.00000000E+00  0.00000000E+00
  0.00000000E+00  0.00000000E+00  0.00000000E+00
  0.00000000E+00  0.00000000E+00  0.00000000E+00
  0.00000000E+00  0.00000000E+00  0.00000000E+00
  0.00000000E+00  0.00000000E+00  0.00000000E+00
  0.00000000E+00  0.00000000E+00  0.00000000E+00
  0.00000000E+00  0.00000000E+00  0.00000000E+00
  0.00000000E+00  0.00000000E+00  0.00000000E+00
  0.00000000E+00  0.00000000E+00  0.00000000E+00
  0.00000000E+00  0.00000000E+00  0.00000000E+00
  0.00000000E+00  0.00000000E+00  0.00000000E+00
  0.00000000E+00  0.00000000E+00  0.00000000E+00
  0.00000000E+00  0.00000000E+00  0.00000000E+00
  0.00000000E+00  0.00000000E+00  0.00000000E+00
  0.00000000E+00  0.00000000E+00  0.00000000E+00
  0.00000000E+00  0.00000000E+00  0.00000000E+00
  0.00000000E+00  0.00000000E+00  0.00000000E+00
  0.00000000E+00  0.00000000E+00  0.00000000E+00
  0.00000000E+00  0.00000000E+00  0.00000000E+00
  0.00000000E+00  0.00000000E+00  0.00000000E+00
  0.00000000E+00  0.00000000E+00  0.00000000E+00
  0.00000000E+00  0.00000000E+00  0.00000000E+00
  0.00000000E+00  0.00000000E+00  0.00000000E+00
  0.00000000E+00  0.00000000E+00  0.00000000E+00
  0.00000000E+00  0.00000000E+00  0.00000000E+00
  0.00000000E+00  0.00000000E+00  0.00000000E+00
  0.00000000E+00  0.00000000E+00  0.00000000E+00
  0.00000000E+00  0.00000000E+00  0.00000000E+00
  0.00000000E+00  0.00000000E+00  0.00000000E+00
  0.00000000E+00  0.00000000E+00  0.00000000E+00
  0.00000000E+00  0.00000000E+00  0.00000000E+00
  0.00000000E+00  0.00000000E+00  0.00000000E+00
  0.00000000E+00  0.00000000E+00  0.00000000E+00
  0.00000000E+00  0.00000000E+00  0.00000000E+00
  0.00000000E+00  0.00000000E+00  0.00000000E+00
  0.00000000E+00  0.00000000E+00  0.00000000E+00
  0.00000000E+00  0.00000000E+00  0.00000000E+00
  0.00000000E+00  0.00000000E+00  0.00000000E+00
  0.00000000E+00  0.00000000E+00  0.00000000E+00
  0.00000000E+00  0.00000000E+00  0.00000000E+00
  0.00000000E+00  0.00000000E+00  0.00000000E+00
  0.00000000E+00  0.00000000E+00  0.00000000E+00
  0.00000000E+00  0.00000000E+00  0.00000000E+00
  0.00000000E+00  0.00000000E+00  0.00000000E+00
  0.00000000E+00  0.00000000E+00  0.00000000E+00
  0.00000000E+00  0.00000000E+00  0.00000000E+00
  0.00000000E+00  0.00000000E+00  0.00000000E+00
  0.00000000E+00  0.00000000E+00  0.00000000E+00
  0.00000000E+00  0.00000000E+00  0.00000000E+00
  0.00000000E+00  0.00000000E+00  0.00000000E+00
  0.00000000E+00  0.00000000E+00  0.00000000E+00
