Bi La Sn O  C  H                        
   1.00000000000000     
    29.0000000000000000    0.0000000000000000    0.0000000000000000
     0.2488180851000000   28.9989325590000000    0.0000000000000000
    -0.0631677343000000   -0.4515975666000000   28.9964147692999994
   Bi   La   Sn   O    C    H 
    22    23    23     2     1     1
Selective dynamics
Direct
  0.7596807760736689  0.4786915792381680  0.4002523446884431   T   T   T
  0.6481097484115081  0.6843231812710927  0.5507486335087231   T   T   T
  0.3601618840752134  0.4584343424801367  0.4273741260674481   T   T   T
  0.5515099038121328  0.7132831333025994  0.5841453494359864   T   T   T
  0.5915029568994470  0.5209714444905416  0.5841479689498996   F   F   F
  0.6405517344842729  0.6799089780618919  0.4451887715644111   T   T   T
  0.6960908893070025  0.5204573530226133  0.6543794180288646   T   T   T
  0.4872513009332812  0.7017952988196999  0.4985979179777146   T   T   T
  0.5004839460855024  0.5502791173970252  0.5477141156400123   F   F   F
  0.3278199208929947  0.4851542064297640  0.5781926438156491   T   T   T
  0.3823555609400875  0.6083829408866432  0.5375661305765183   T   T   T
  0.6667129484492236  0.4827404655721850  0.5105018184570156   F   F   F
  0.5763997220267569  0.4263140504383500  0.5448328182496311   F   F   F
  0.6682632801303361  0.3734098057968455  0.5064057501911016   T   T   T
  0.4613644814381440  0.3385975769788065  0.4957794274686982   T   T   T
  0.6484934028780529  0.5775373212088155  0.4602701624361103   F   F   F
  0.5567573376312156  0.4334236674911981  0.7489229150231361   T   T   T
  0.5942386476004882  0.3498109410839211  0.6679971780314943   T   T   T
  0.4928061191825168  0.2995848324652992  0.4069808069617928   T   T   T
  0.6608498056258505  0.6166431838062693  0.6673895928338399   T   T   T
  0.4913328561822894  0.4108084524945390  0.3040449561123172   T   T   T
  0.6209477782096462  0.3161466483074475  0.5730679127934677   T   T   T
  0.5398796543064170  0.6837263645121898  0.4042784665514599   T   T   T
  0.3896591517929052  0.4153699637243111  0.5258556554561865   T   T   T
  0.6283925954172944  0.5519555859130699  0.2822136588749041   T   T   T
  0.4740705329336502  0.4797161760853981  0.6926652678874760   T   T   T
  0.5683115009887700  0.5094300495444983  0.4784716241115703   F   F   F
  0.4203210565129183  0.5084107200613417  0.5018573595042781   F   F   F
  0.4528495081511223  0.4015323578087153  0.4045709558969580   T   T   T
  0.5626908472327755  0.3501247485740568  0.3517510387838365   T   T   T
  0.4135384808144932  0.5389894979217855  0.6126088983134080   T   T   T
  0.5998204260463860  0.4420906959966099  0.3049105227261075   T   T   T
  0.4547396323204432  0.6000797551427292  0.3635760655123595   T   T   T
  0.4185216242193445  0.4878967748053902  0.3395329058873793   T   T   T
  0.6605198581266805  0.4256187905700144  0.6047647203144149   T   T   T
  0.6742100838089865  0.5781796182868063  0.5643517034394449   T   T   T
  0.5259780842525194  0.5093035811812288  0.3278993124309723   T   T   T
  0.5653786306642188  0.3567483737500859  0.4692007569245590   T   T   T
  0.3158785614796144  0.5394153023852822  0.4934245238479890   T   T   T
  0.6603669042408294  0.4294040393604196  0.4155961344071960   T   T   T
  0.5660841929594156  0.6261437171197244  0.5094829013827464   F   F   F
  0.5964049426411839  0.5267777714360320  0.6897990681317616   T   T   T
  0.4702205137785190  0.6429148773866894  0.5873583245032686   T   T   T
  0.4624055828607070  0.6036611745253564  0.4642923434009344   T   T   T
  0.7169145692308621  0.5742217954804694  0.3840277170403721   T   T   T
  0.5499310510395361  0.5822218838566187  0.4076968008106903   F   F   F
  0.4794126430662260  0.5072205383607624  0.4190535757241776   F   F   F
  0.6955753504587290  0.4816064455280160  0.3249422432667785   T   T   T
  0.7513588644434098  0.4282612007687927  0.4879446026274569   T   T   T
  0.7489087020335014  0.5381412407725429  0.4864877813180297   T   T   T
  0.7486924529238328  0.4884232213377697  0.5724138056874349   T   T   T
  0.6474920769385029  0.4315404673106805  0.7086578827517757   T   T   T
  0.5780155740818951  0.7435232175715470  0.4930954923168332   T   T   T
  0.6192554540844384  0.5183157687966542  0.3801816896793397   F   F   F
  0.5076160304016046  0.5656544276605279  0.6504028138321011   T   T   T
  0.4922009500451665  0.4366758245867572  0.4933013002826740   F   F   F
  0.5608844484509063  0.4404139570509003  0.6454865549417619   F   F   F
  0.5796236882984386  0.6174457711070105  0.6128981328143086   T   T   T
  0.5443234254473073  0.6167404092380872  0.3125449941971936   T   T   T
  0.6275217327153436  0.6247127331909833  0.3603967248632968   T   T   T
  0.3763087923147999  0.5571292776697506  0.4136562765297772   T   T   T
  0.4723078164089713  0.4557257050327763  0.5877273803360978   F   F   F
  0.7276802025684505  0.6349303608541998  0.4849567003138471   T   T   T
  0.4937537012310701  0.3765567752289484  0.6773334610432412   T   T   T
  0.3872728960638621  0.4371001851006969  0.6408669272007192   T   T   T
  0.5544592502646992  0.4379899399457940  0.4037542370104745   F   F   F
  0.4305760190855017  0.3562306704682493  0.6020376980718460   T   T   T
  0.5262344799708563  0.3490605109398741  0.5765785124219966   T   T   T
  0.6344847766623112  0.4085827297826514  0.8175421324933939   T   T   T
  0.6938331982061452  0.4180425273734158  0.7665326837613118   T   T   T
  0.6757129002018735  0.4077778703934821  0.8065779233219331   T   T   T
  0.7025732342282570  0.3972799004970675  0.8320989985261625   T   T   T
 
  0.00000000E+00  0.00000000E+00  0.00000000E+00
  0.00000000E+00  0.00000000E+00  0.00000000E+00
  0.00000000E+00  0.00000000E+00  0.00000000E+00
  0.00000000E+00  0.00000000E+00  0.00000000E+00
  0.00000000E+00  0.00000000E+00  0.00000000E+00
  0.00000000E+00  0.00000000E+00  0.00000000E+00
  0.00000000E+00  0.00000000E+00  0.00000000E+00
  0.00000000E+00  0.00000000E+00  0.00000000E+00
  0.00000000E+00  0.00000000E+00  0.00000000E+00
  0.00000000E+00  0.00000000E+00  0.00000000E+00
  0.00000000E+00  0.00000000E+00  0.00000000E+00
  0.00000000E+00  0.00000000E+00  0.00000000E+00
  0.00000000E+00  0.00000000E+00  0.00000000E+00
  0.00000000E+00  0.00000000E+00  0.00000000E+00
  0.00000000E+00  0.00000000E+00  0.00000000E+00
  0.00000000E+00  0.00000000E+00  0.00000000E+00
  0.00000000E+00  0.00000000E+00  0.00000000E+00
  0.00000000E+00  0.00000000E+00  0.00000000E+00
  0.00000000E+00  0.00000000E+00  0.00000000E+00
  0.00000000E+00  0.00000000E+00  0.00000000E+00
  0.00000000E+00  0.00000000E+00  0.00000000E+00
  0.00000000E+00  0.00000000E+00  0.00000000E+00
  0.00000000E+00  0.00000000E+00  0.00000000E+00
  0.00000000E+00  0.00000000E+00  0.00000000E+00
  0.00000000E+00  0.00000000E+00  0.00000000E+00
  0.00000000E+00  0.00000000E+00  0.00000000E+00
  0.00000000E+00  0.00000000E+00  0.00000000E+00
  0.00000000E+00  0.00000000E+00  0.00000000E+00
  0.00000000E+00  0.00000000E+00  0.00000000E+00
  0.00000000E+00  0.00000000E+00  0.00000000E+00
  0.00000000E+00  0.00000000E+00  0.00000000E+00
  0.00000000E+00  0.00000000E+00  0.00000000E+00
  0.00000000E+00  0.00000000E+00  0.00000000E+00
  0.00000000E+00  0.00000000E+00  0.00000000E+00
  0.00000000E+00  0.00000000E+00  0.00000000E+00
  0.00000000E+00  0.00000000E+00  0.00000000E+00
  0.00000000E+00  0.00000000E+00  0.00000000E+00
  0.00000000E+00  0.00000000E+00  0.00000000E+00
  0.00000000E+00  0.00000000E+00  0.00000000E+00
  0.00000000E+00  0.00000000E+00  0.00000000E+00
  0.00000000E+00  0.00000000E+00  0.00000000E+00
  0.00000000E+00  0.00000000E+00  0.00000000E+00
  0.00000000E+00  0.00000000E+00  0.00000000E+00
  0.00000000E+00  0.00000000E+00  0.00000000E+00
  0.00000000E+00  0.00000000E+00  0.00000000E+00
  0.00000000E+00  0.00000000E+00  0.00000000E+00
  0.00000000E+00  0.00000000E+00  0.00000000E+00
  0.00000000E+00  0.00000000E+00  0.00000000E+00
  0.00000000E+00  0.00000000E+00  0.00000000E+00
  0.00000000E+00  0.00000000E+00  0.00000000E+00
  0.00000000E+00  0.00000000E+00  0.00000000E+00
  0.00000000E+00  0.00000000E+00  0.00000000E+00
  0.00000000E+00  0.00000000E+00  0.00000000E+00
  0.00000000E+00  0.00000000E+00  0.00000000E+00
  0.00000000E+00  0.00000000E+00  0.00000000E+00
  0.00000000E+00  0.00000000E+00  0.00000000E+00
  0.00000000E+00  0.00000000E+00  0.00000000E+00
  0.00000000E+00  0.00000000E+00  0.00000000E+00
  0.00000000E+00  0.00000000E+00  0.00000000E+00
  0.00000000E+00  0.00000000E+00  0.00000000E+00
  0.00000000E+00  0.00000000E+00  0.00000000E+00
  0.00000000E+00  0.00000000E+00  0.00000000E+00
  0.00000000E+00  0.00000000E+00  0.00000000E+00
  0.00000000E+00  0.00000000E+00  0.00000000E+00
  0.00000000E+00  0.00000000E+00  0.00000000E+00
  0.00000000E+00  0.00000000E+00  0.00000000E+00
  0.00000000E+00  0.00000000E+00  0.00000000E+00
  0.00000000E+00  0.00000000E+00  0.00000000E+00
  0.00000000E+00  0.00000000E+00  0.00000000E+00
  0.00000000E+00  0.00000000E+00  0.00000000E+00
  0.00000000E+00  0.00000000E+00  0.00000000E+00
  0.00000000E+00  0.00000000E+00  0.00000000E+00
