Bi La Sn O  C  H                        
   1.00000000000000     
    29.0000000000000000    0.0000000000000000    0.0000000000000000
     0.2488180851000000   28.9989325590000000    0.0000000000000000
    -0.0631677343000000   -0.4515975666000000   28.9964147692999994
   Bi   La   Sn   O    C    H 
    22    23    23     2     1     1
Selective dynamics
Direct
  0.7597086248331724  0.4780590015469679  0.3979864099400711   T   T   T
  0.6482397501201617  0.6842556034355967  0.5499209747385566   T   T   T
  0.3600020921007475  0.4584798323080557  0.4273425333323118   T   T   T
  0.5522384413247307  0.7133955682346163  0.5836001526457234   T   T   T
  0.5915029568994470  0.5209714444905416  0.5841479689498996   F   F   F
  0.6404660390180071  0.6800478748895519  0.4449347364777411   T   T   T
  0.6946131723199401  0.5191561214143231  0.6557216618882586   T   T   T
  0.4869799462879156  0.7019215404337804  0.4985615771178883   T   T   T
  0.5004839460855024  0.5502791173970252  0.5477141156400123   F   F   F
  0.3279078152067302  0.4846452293934396  0.5782713959490777   T   T   T
  0.3826633705706768  0.6085907906842600  0.5375721342982733   T   T   T
  0.6667129484492236  0.4827404655721850  0.5105018184570156   F   F   F
  0.5763997220267569  0.4263140504383500  0.5448328182496311   F   F   F
  0.6682557632219355  0.3743306552227965  0.5068390542446938   T   T   T
  0.4606371507717636  0.3373484671097995  0.4938318355045670   T   T   T
  0.6484934028780529  0.5775373212088155  0.4602701624361103   F   F   F
  0.5528511552716144  0.4347836127477200  0.7496975142515214   T   T   T
  0.5906440736767743  0.3481388366595503  0.6662477423513122   T   T   T
  0.4929627244111904  0.3005285659095476  0.4041048565221403   T   T   T
  0.6612136116236299  0.6149196858905296  0.6687522951153687   T   T   T
  0.4920450028337840  0.4108551007671914  0.3045881712893428   T   T   T
  0.6198363838085743  0.3161857488758879  0.5718112187415424   T   T   T
  0.5395670124683553  0.6837133253678400  0.4043360806149114   T   T   T
  0.3895227531771610  0.4153971789297284  0.5249218565944834   T   T   T
  0.6271823322091228  0.5520546141074031  0.2824250112499981   T   T   T
  0.4728939034984670  0.4813383659696431  0.6925587218285046   T   T   T
  0.5683115009887700  0.5094300495444983  0.4784716241115703   F   F   F
  0.4203210565129183  0.5084107200613417  0.5018573595042781   F   F   F
  0.4525395149237382  0.4019981874390438  0.4043341369434828   T   T   T
  0.5651128448541877  0.3502277234725137  0.3515759428728207   T   T   T
  0.4131022891792503  0.5390340583455664  0.6122269825998705   T   T   T
  0.5986868126022826  0.4423798267211783  0.3045362019435117   T   T   T
  0.4544610373817537  0.6002654834007930  0.3640634225695984   T   T   T
  0.4187656346911902  0.4880886673126103  0.3395794166799190   T   T   T
  0.6628076799673439  0.4247706064207868  0.6054397035550309   T   T   T
  0.6751027260332626  0.5784139587859586  0.5648903848405229   T   T   T
  0.5256210880822247  0.5098697786590419  0.3279812354569397   T   T   T
  0.5649712184409903  0.3566008473024679  0.4688419971212542   T   T   T
  0.3159705138393360  0.5395911778439023  0.4937844650513308   T   T   T
  0.6603365274602312  0.4295584748548225  0.4153225031115060   T   T   T
  0.5660841929594156  0.6261437171197244  0.5094829013827464   F   F   F
  0.5949897505394760  0.5265449773955331  0.6903744312284488   T   T   T
  0.4707691762396095  0.6432284754298512  0.5872112782112885   T   T   T
  0.4625794438578031  0.6035951711010952  0.4640642754458836   T   T   T
  0.7159406590109741  0.5739220195312599  0.3824684365911661   T   T   T
  0.5499310510395361  0.5822218838566187  0.4076968008106903   F   F   F
  0.4794126430662260  0.5072205383607624  0.4190535757241776   F   F   F
  0.6948131857054380  0.4810215524268639  0.3239859987814011   T   T   T
  0.7518046694564641  0.4299625472375269  0.4880258746489620   T   T   T
  0.7470487039678694  0.5374964367894444  0.4832421803040347   T   T   T
  0.7500821408710828  0.4899636480899504  0.5723258840163711   T   T   T
  0.6423610362384179  0.4297922020196820  0.7095698687120245   T   T   T
  0.5775038861687880  0.7436721777018589  0.4923370850428587   T   T   T
  0.6192554540844384  0.5183157687966542  0.3801816896793397   F   F   F
  0.5074871221154208  0.5658663253077123  0.6499855160086681   T   T   T
  0.4922009500451665  0.4366758245867572  0.4933013002826740   F   F   F
  0.5608844484509063  0.4404139570509003  0.6454865549417619   F   F   F
  0.5803072298873848  0.6172557395783589  0.6128924331180594   T   T   T
  0.5433945684898435  0.6178087509901095  0.3122039273095291   T   T   T
  0.6267287806746518  0.6252228774953908  0.3598226611068726   T   T   T
  0.3759239426095899  0.5572061553319757  0.4136316500063324   T   T   T
  0.4723078164089713  0.4557257050327763  0.5877273803360978   F   F   F
  0.7281640932689311  0.6345923931860022  0.4831457563041415   T   T   T
  0.4908394343589447  0.3784791619489156  0.6752956786240772   T   T   T
  0.3880683881342296  0.4361092930371155  0.6401072453538754   T   T   T
  0.5544592502646992  0.4379899399457940  0.4037542370104745   F   F   F
  0.4296549674724388  0.3547449535458397  0.6000256036785852   T   T   T
  0.5246986739592588  0.3493378834305719  0.5742978526667439   T   T   T
  0.7341699579709560  0.3967448014455087  0.6318172211822073   T   T   T
  0.7929353265431790  0.4479956410806236  0.6374010062735724   T   T   T
  0.7751830205562791  0.4091985483784856  0.6436851619612385   T   T   T
  0.7962844469480452  0.3823283405837950  0.6610731414764817   T   T   T
 
  0.00000000E+00  0.00000000E+00  0.00000000E+00
  0.00000000E+00  0.00000000E+00  0.00000000E+00
  0.00000000E+00  0.00000000E+00  0.00000000E+00
  0.00000000E+00  0.00000000E+00  0.00000000E+00
  0.00000000E+00  0.00000000E+00  0.00000000E+00
  0.00000000E+00  0.00000000E+00  0.00000000E+00
  0.00000000E+00  0.00000000E+00  0.00000000E+00
  0.00000000E+00  0.00000000E+00  0.00000000E+00
  0.00000000E+00  0.00000000E+00  0.00000000E+00
  0.00000000E+00  0.00000000E+00  0.00000000E+00
  0.00000000E+00  0.00000000E+00  0.00000000E+00
  0.00000000E+00  0.00000000E+00  0.00000000E+00
  0.00000000E+00  0.00000000E+00  0.00000000E+00
  0.00000000E+00  0.00000000E+00  0.00000000E+00
  0.00000000E+00  0.00000000E+00  0.00000000E+00
  0.00000000E+00  0.00000000E+00  0.00000000E+00
  0.00000000E+00  0.00000000E+00  0.00000000E+00
  0.00000000E+00  0.00000000E+00  0.00000000E+00
  0.00000000E+00  0.00000000E+00  0.00000000E+00
  0.00000000E+00  0.00000000E+00  0.00000000E+00
  0.00000000E+00  0.00000000E+00  0.00000000E+00
  0.00000000E+00  0.00000000E+00  0.00000000E+00
  0.00000000E+00  0.00000000E+00  0.00000000E+00
  0.00000000E+00  0.00000000E+00  0.00000000E+00
  0.00000000E+00  0.00000000E+00  0.00000000E+00
  0.00000000E+00  0.00000000E+00  0.00000000E+00
  0.00000000E+00  0.00000000E+00  0.00000000E+00
  0.00000000E+00  0.00000000E+00  0.00000000E+00
  0.00000000E+00  0.00000000E+00  0.00000000E+00
  0.00000000E+00  0.00000000E+00  0.00000000E+00
  0.00000000E+00  0.00000000E+00  0.00000000E+00
  0.00000000E+00  0.00000000E+00  0.00000000E+00
  0.00000000E+00  0.00000000E+00  0.00000000E+00
  0.00000000E+00  0.00000000E+00  0.00000000E+00
  0.00000000E+00  0.00000000E+00  0.00000000E+00
  0.00000000E+00  0.00000000E+00  0.00000000E+00
  0.00000000E+00  0.00000000E+00  0.00000000E+00
  0.00000000E+00  0.00000000E+00  0.00000000E+00
  0.00000000E+00  0.00000000E+00  0.00000000E+00
  0.00000000E+00  0.00000000E+00  0.00000000E+00
  0.00000000E+00  0.00000000E+00  0.00000000E+00
  0.00000000E+00  0.00000000E+00  0.00000000E+00
  0.00000000E+00  0.00000000E+00  0.00000000E+00
  0.00000000E+00  0.00000000E+00  0.00000000E+00
  0.00000000E+00  0.00000000E+00  0.00000000E+00
  0.00000000E+00  0.00000000E+00  0.00000000E+00
  0.00000000E+00  0.00000000E+00  0.00000000E+00
  0.00000000E+00  0.00000000E+00  0.00000000E+00
  0.00000000E+00  0.00000000E+00  0.00000000E+00
  0.00000000E+00  0.00000000E+00  0.00000000E+00
  0.00000000E+00  0.00000000E+00  0.00000000E+00
  0.00000000E+00  0.00000000E+00  0.00000000E+00
  0.00000000E+00  0.00000000E+00  0.00000000E+00
  0.00000000E+00  0.00000000E+00  0.00000000E+00
  0.00000000E+00  0.00000000E+00  0.00000000E+00
  0.00000000E+00  0.00000000E+00  0.00000000E+00
  0.00000000E+00  0.00000000E+00  0.00000000E+00
  0.00000000E+00  0.00000000E+00  0.00000000E+00
  0.00000000E+00  0.00000000E+00  0.00000000E+00
  0.00000000E+00  0.00000000E+00  0.00000000E+00
  0.00000000E+00  0.00000000E+00  0.00000000E+00
  0.00000000E+00  0.00000000E+00  0.00000000E+00
  0.00000000E+00  0.00000000E+00  0.00000000E+00
  0.00000000E+00  0.00000000E+00  0.00000000E+00
  0.00000000E+00  0.00000000E+00  0.00000000E+00
  0.00000000E+00  0.00000000E+00  0.00000000E+00
  0.00000000E+00  0.00000000E+00  0.00000000E+00
  0.00000000E+00  0.00000000E+00  0.00000000E+00
  0.00000000E+00  0.00000000E+00  0.00000000E+00
  0.00000000E+00  0.00000000E+00  0.00000000E+00
  0.00000000E+00  0.00000000E+00  0.00000000E+00
  0.00000000E+00  0.00000000E+00  0.00000000E+00
