Bi La Sn O  C  H                        
   1.00000000000000     
    29.0000000000000000    0.0000000000000000    0.0000000000000000
     0.2488180851000000   28.9989325590000000    0.0000000000000000
    -0.0631677343000000   -0.4515975666000000   28.9964147692999994
   Bi   La   Sn   O    C    H 
    22    23    23     2     1     1
Selective dynamics
Direct
  0.7601381334257057  0.4761367345772304  0.3984786894627187   T   T   T
  0.6479133443105095  0.6826332993639800  0.5533979835115912   T   T   T
  0.3596457580468024  0.4594925131178972  0.4278336941123451   T   T   T
  0.5515792904992700  0.7154271718248296  0.5818603647686952   T   T   T
  0.5915029568994470  0.5209714444905416  0.5841479689498996   F   F   F
  0.6414798382683766  0.6811715942077203  0.4483419177647938   T   T   T
  0.6962129482905902  0.5216087708942807  0.6547533227188491   T   T   T
  0.4870529090756158  0.7010225030401021  0.4991906925005606   T   T   T
  0.5004839460855024  0.5502791173970252  0.5477141156400123   F   F   F
  0.3256559863807822  0.4868892867527222  0.5749303119912377   T   T   T
  0.3829396737082287  0.6107911626204617  0.5356684717463019   T   T   T
  0.6667129484492236  0.4827404655721850  0.5105018184570156   F   F   F
  0.5763997220267569  0.4263140504383500  0.5448328182496311   F   F   F
  0.6685160029724750  0.3738673764854063  0.5072126717743913   T   T   T
  0.4635441523887083  0.3391715141013639  0.5000614759772640   T   T   T
  0.6484934028780529  0.5775373212088155  0.4602701624361103   F   F   F
  0.5581448198519313  0.4365515710252132  0.7494992818959526   T   T   T
  0.6029217272537061  0.3515075925975344  0.6693469784011046   T   T   T
  0.4920455273229695  0.2992759660430921  0.4100537360959169   T   T   T
  0.6605373599124613  0.6181753963915820  0.6658191729129641   T   T   T
  0.4917025347724965  0.4106923660546154  0.3073760009420694   T   T   T
  0.6211992174764686  0.3161289600077881  0.5730305509165384   T   T   T
  0.5419020321320099  0.6847682527300459  0.4052586677391991   T   T   T
  0.3901937264003138  0.4159196722062645  0.5270858524326733   T   T   T
  0.6300241889782150  0.5523811530414247  0.2829879909849324   T   T   T
  0.4717589339960269  0.4724211264591162  0.6918088062902640   T   T   T
  0.5683115009887700  0.5094300495444983  0.4784716241115703   F   F   F
  0.4203210565129183  0.5084107200613417  0.5018573595042781   F   F   F
  0.4519144222656615  0.4009987728975425  0.4070929097039672   T   T   T
  0.5633366912006929  0.3483992618748151  0.3542453982421949   T   T   T
  0.4114959654714344  0.5405675888535780  0.6099020576042494   T   T   T
  0.5979631474582912  0.4426411205379147  0.3039338697308759   T   T   T
  0.4556004981256612  0.6012929163079710  0.3630176597785635   T   T   T
  0.4182895876351289  0.4882672467368432  0.3394886513506811   T   T   T
  0.6610870406450564  0.4279448966092049  0.6045652825334907   T   T   T
  0.6741613341144170  0.5774787704726105  0.5640506539931563   T   T   T
  0.5263509044626903  0.5100754568702505  0.3278813893041103   T   T   T
  0.5660180617917673  0.3576490121898216  0.4687698910803901   T   T   T
  0.3160782948718324  0.5427949972816233  0.4914925411466721   T   T   T
  0.6600297231598546  0.4291159783332267  0.4157733505850770   T   T   T
  0.5660841929594156  0.6261437171197244  0.5094829013827464   F   F   F
  0.5958452778699324  0.5288401662017497  0.6896463035528861   T   T   T
  0.4715917182699731  0.6429316138112686  0.5880262279247779   T   T   T
  0.4633954419185798  0.6032986399447676  0.4641055822365357   T   T   T
  0.7171292810546523  0.5720883286011847  0.3834766743939992   T   T   T
  0.5499310510395361  0.5822218838566187  0.4076968008106903   F   F   F
  0.4794126430662260  0.5072205383607624  0.4190535757241776   F   F   F
  0.6949294430304530  0.4793739331337973  0.3247063448564700   T   T   T
  0.7513846627274735  0.4285431196826418  0.4880435913835062   T   T   T
  0.7491339145574308  0.5361561848783435  0.4848398984027643   T   T   T
  0.7489063160221391  0.4896701755025661  0.5727616054646841   T   T   T
  0.6480510081037959  0.4369840813034920  0.7090598596722435   T   T   T
  0.5791749456003635  0.7469588512755876  0.4922082030924623   T   T   T
  0.6192554540844384  0.5183157687966542  0.3801816896793397   F   F   F
  0.5054312058253355  0.5608438898349711  0.6500846272988272   T   T   T
  0.4922009500451665  0.4366758245867572  0.4933013002826740   F   F   F
  0.5608844484509063  0.4404139570509003  0.6454865549417619   F   F   F
  0.5778422250043066  0.6167444966348031  0.6129942801574830   T   T   T
  0.5459817608319153  0.6177406110741144  0.3131403837926577   T   T   T
  0.6288854957984324  0.6249794059787975  0.3619532159249398   T   T   T
  0.3774762572556818  0.5577619853722877  0.4124886113542036   T   T   T
  0.4723078164089713  0.4557257050327763  0.5877273803360978   F   F   F
  0.7281037574585608  0.6333465665648378  0.4845907072848274   T   T   T
  0.5026531942890299  0.3696337479716079  0.6843972063008721   T   T   T
  0.3813645402101076  0.4413085828625938  0.6404689737972672   T   T   T
  0.5544592502646992  0.4379899399457940  0.4037542370104745   F   F   F
  0.4333548191314995  0.3634263836718861  0.6102085135024623   T   T   T
  0.5277542801499397  0.3497846458780905  0.5802879517454875   T   T   T
  0.6386690615049272  0.7869446066033395  0.5785576429335638   T   T   T
  0.6232104443991561  0.8092217014416943  0.5047741889757872   T   T   T
  0.6420059196348825  0.8135595218469511  0.5455877049869433   T   T   T
  0.6633909434963312  0.8452795596353483  0.5490667267457170   T   T   T
 
  0.00000000E+00  0.00000000E+00  0.00000000E+00
  0.00000000E+00  0.00000000E+00  0.00000000E+00
  0.00000000E+00  0.00000000E+00  0.00000000E+00
  0.00000000E+00  0.00000000E+00  0.00000000E+00
  0.00000000E+00  0.00000000E+00  0.00000000E+00
  0.00000000E+00  0.00000000E+00  0.00000000E+00
  0.00000000E+00  0.00000000E+00  0.00000000E+00
  0.00000000E+00  0.00000000E+00  0.00000000E+00
  0.00000000E+00  0.00000000E+00  0.00000000E+00
  0.00000000E+00  0.00000000E+00  0.00000000E+00
  0.00000000E+00  0.00000000E+00  0.00000000E+00
  0.00000000E+00  0.00000000E+00  0.00000000E+00
  0.00000000E+00  0.00000000E+00  0.00000000E+00
  0.00000000E+00  0.00000000E+00  0.00000000E+00
  0.00000000E+00  0.00000000E+00  0.00000000E+00
  0.00000000E+00  0.00000000E+00  0.00000000E+00
  0.00000000E+00  0.00000000E+00  0.00000000E+00
  0.00000000E+00  0.00000000E+00  0.00000000E+00
  0.00000000E+00  0.00000000E+00  0.00000000E+00
  0.00000000E+00  0.00000000E+00  0.00000000E+00
  0.00000000E+00  0.00000000E+00  0.00000000E+00
  0.00000000E+00  0.00000000E+00  0.00000000E+00
  0.00000000E+00  0.00000000E+00  0.00000000E+00
  0.00000000E+00  0.00000000E+00  0.00000000E+00
  0.00000000E+00  0.00000000E+00  0.00000000E+00
  0.00000000E+00  0.00000000E+00  0.00000000E+00
  0.00000000E+00  0.00000000E+00  0.00000000E+00
  0.00000000E+00  0.00000000E+00  0.00000000E+00
  0.00000000E+00  0.00000000E+00  0.00000000E+00
  0.00000000E+00  0.00000000E+00  0.00000000E+00
  0.00000000E+00  0.00000000E+00  0.00000000E+00
  0.00000000E+00  0.00000000E+00  0.00000000E+00
  0.00000000E+00  0.00000000E+00  0.00000000E+00
  0.00000000E+00  0.00000000E+00  0.00000000E+00
  0.00000000E+00  0.00000000E+00  0.00000000E+00
  0.00000000E+00  0.00000000E+00  0.00000000E+00
  0.00000000E+00  0.00000000E+00  0.00000000E+00
  0.00000000E+00  0.00000000E+00  0.00000000E+00
  0.00000000E+00  0.00000000E+00  0.00000000E+00
  0.00000000E+00  0.00000000E+00  0.00000000E+00
  0.00000000E+00  0.00000000E+00  0.00000000E+00
  0.00000000E+00  0.00000000E+00  0.00000000E+00
  0.00000000E+00  0.00000000E+00  0.00000000E+00
  0.00000000E+00  0.00000000E+00  0.00000000E+00
  0.00000000E+00  0.00000000E+00  0.00000000E+00
  0.00000000E+00  0.00000000E+00  0.00000000E+00
  0.00000000E+00  0.00000000E+00  0.00000000E+00
  0.00000000E+00  0.00000000E+00  0.00000000E+00
  0.00000000E+00  0.00000000E+00  0.00000000E+00
  0.00000000E+00  0.00000000E+00  0.00000000E+00
  0.00000000E+00  0.00000000E+00  0.00000000E+00
  0.00000000E+00  0.00000000E+00  0.00000000E+00
  0.00000000E+00  0.00000000E+00  0.00000000E+00
  0.00000000E+00  0.00000000E+00  0.00000000E+00
  0.00000000E+00  0.00000000E+00  0.00000000E+00
  0.00000000E+00  0.00000000E+00  0.00000000E+00
  0.00000000E+00  0.00000000E+00  0.00000000E+00
  0.00000000E+00  0.00000000E+00  0.00000000E+00
  0.00000000E+00  0.00000000E+00  0.00000000E+00
  0.00000000E+00  0.00000000E+00  0.00000000E+00
  0.00000000E+00  0.00000000E+00  0.00000000E+00
  0.00000000E+00  0.00000000E+00  0.00000000E+00
  0.00000000E+00  0.00000000E+00  0.00000000E+00
  0.00000000E+00  0.00000000E+00  0.00000000E+00
  0.00000000E+00  0.00000000E+00  0.00000000E+00
  0.00000000E+00  0.00000000E+00  0.00000000E+00
  0.00000000E+00  0.00000000E+00  0.00000000E+00
  0.00000000E+00  0.00000000E+00  0.00000000E+00
  0.00000000E+00  0.00000000E+00  0.00000000E+00
  0.00000000E+00  0.00000000E+00  0.00000000E+00
  0.00000000E+00  0.00000000E+00  0.00000000E+00
  0.00000000E+00  0.00000000E+00  0.00000000E+00
