Bi La Sn O  C  H                        
   1.00000000000000     
    29.0000000000000000    0.0000000000000000    0.0000000000000000
     0.2488180851000000   28.9989325590000000    0.0000000000000000
    -0.0631677343000000   -0.4515975666000000   28.9964147692999994
   Bi   La   Sn   O    C    H 
    22    23    23     2     1     1
Selective dynamics
Direct
  0.7591359183791232  0.4755186487081005  0.3986656185051995   T   T   T
  0.6467982860749341  0.6840171389432835  0.5531360955723310   T   T   T
  0.3590148039513373  0.4568768554696187  0.4307065924308494   T   T   T
  0.5503879909421442  0.7128733188828393  0.5842069477397436   T   T   T
  0.5915029568994470  0.5209714444905416  0.5841479689498996   F   F   F
  0.6406586328097146  0.6811936053146719  0.4468760706877741   T   T   T
  0.6960266287887009  0.5225316864068783  0.6542187306026149   T   T   T
  0.4856502925368857  0.7002594121095684  0.4989376158652928   T   T   T
  0.5004839460855024  0.5502791173970252  0.5477141156400123   F   F   F
  0.3249885011891362  0.4868976380590884  0.5746172975968251   T   T   T
  0.3823537013333336  0.6111774626763705  0.5348776706786833   T   T   T
  0.6667129484492236  0.4827404655721850  0.5105018184570156   F   F   F
  0.5763997220267569  0.4263140504383500  0.5448328182496311   F   F   F
  0.6683706776168351  0.3739214465192805  0.5068721783470630   T   T   T
  0.4630929197397563  0.3389136225212397  0.5011567142344203   T   T   T
  0.6484934028780529  0.5775373212088155  0.4602701624361103   F   F   F
  0.5594816604340384  0.4369762709559918  0.7494076656442292   T   T   T
  0.6054438867985835  0.3524853313798836  0.6692377086342595   T   T   T
  0.4919751913834872  0.2988646793277487  0.4109882161690362   T   T   T
  0.6599603571167963  0.6189247266937683  0.6657920436424021   T   T   T
  0.4916538714513328  0.4104240318997902  0.3091681007751204   T   T   T
  0.6214740581817031  0.3162562631826785  0.5729997216449333   T   T   T
  0.5402882919342775  0.6839430020025085  0.4050969024380608   T   T   T
  0.3905452614977979  0.4152187204458150  0.5294766767537432   T   T   T
  0.6307387477768375  0.5523161758957631  0.2828904243416622   T   T   T
  0.4716567185663939  0.4698691669998338  0.6918901996546364   T   T   T
  0.5683115009887700  0.5094300495444983  0.4784716241115703   F   F   F
  0.4203210565129183  0.5084107200613417  0.5018573595042781   F   F   F
  0.4521131426131040  0.4004791638729779  0.4086000401637379   T   T   T
  0.5637016519085808  0.3480248943668591  0.3551967842757363   T   T   T
  0.4109094200594811  0.5406025876444408  0.6094981828886951   T   T   T
  0.5978189159847173  0.4426008094381648  0.3042740478560250   T   T   T
  0.4543108763821224  0.6002440041318390  0.3614335246895488   T   T   T
  0.4156344327487320  0.4840151390227305  0.3407729610809142   T   T   T
  0.6615325847390097  0.4283619314930606  0.6043478629751020   T   T   T
  0.6733194977874060  0.5783400499216460  0.5639794481005732   T   T   T
  0.5273240592939480  0.5108170515983749  0.3282271069808356   T   T   T
  0.5654499444504789  0.3577463782149379  0.4689842449942009   T   T   T
  0.3160175502664389  0.5425032409809077  0.4911555185427780   T   T   T
  0.6596905393941400  0.4292542061692609  0.4157230002589943   T   T   T
  0.5660841929594156  0.6261437171197244  0.5094829013827464   F   F   F
  0.5957666640732844  0.5290720578111076  0.6894985682715006   T   T   T
  0.4701550934128988  0.6413708032533318  0.5885437764020882   T   T   T
  0.4620919808294915  0.6021725912614768  0.4629878632653771   T   T   T
  0.7168267096291668  0.5711748077353954  0.3834111141126103   T   T   T
  0.5499310510395361  0.5822218838566187  0.4076968008106903   F   F   F
  0.4794126430662260  0.5072205383607624  0.4190535757241776   F   F   F
  0.6946824482680430  0.4781514864477909  0.3239378357816114   T   T   T
  0.7515299149874382  0.4287501069178031  0.4888393576677668   T   T   T
  0.7488148148627745  0.5369131272959495  0.4849367858496136   T   T   T
  0.7487245839081144  0.4905647112169151  0.5726804872751110   T   T   T
  0.6496424188286583  0.4382969879158762  0.7089415118259745   T   T   T
  0.5761408371228007  0.7432834131439883  0.4934681032454444   T   T   T
  0.6192554540844384  0.5183157687966542  0.3801816896793397   F   F   F
  0.5046006948959009  0.5591300146703830  0.6503375597417297   T   T   T
  0.4922009500451665  0.4366758245867572  0.4933013002826740   F   F   F
  0.5608844484509063  0.4404139570509003  0.6454865549417619   F   F   F
  0.5768804023767611  0.6160154883064208  0.6137736728399609   T   T   T
  0.5467795803724024  0.6181864131249771  0.3135666471662861   T   T   T
  0.6292158736838795  0.6246456499791215  0.3619532817120312   T   T   T
  0.3771877867895897  0.5558782982000797  0.4120360113550973   T   T   T
  0.4723078164089713  0.4557257050327763  0.5877273803360978   F   F   F
  0.7274916906094259  0.6338040648301541  0.4845141244595513   T   T   T
  0.5057617998691192  0.3673915611497693  0.6869836614590656   T   T   T
  0.3804608132127524  0.4425446522115206  0.6411720674406276   T   T   T
  0.5544592502646992  0.4379899399457940  0.4037542370104745   F   F   F
  0.4350060925184073  0.3651121454679685  0.6138895351575189   T   T   T
  0.5279147353887899  0.3498817758330346  0.5807271875184215   T   T   T
  0.4483945061632951  0.5397805033984623  0.2897515833713646   T   T   T
  0.4324088929719173  0.6151495011585960  0.2787806983538873   T   T   T
  0.4490281885570501  0.5772400481054315  0.2645688222476552   T   T   T
  0.4645087512758480  0.5733637347110613  0.2299868605904285   T   T   T
 
  0.00000000E+00  0.00000000E+00  0.00000000E+00
  0.00000000E+00  0.00000000E+00  0.00000000E+00
  0.00000000E+00  0.00000000E+00  0.00000000E+00
  0.00000000E+00  0.00000000E+00  0.00000000E+00
  0.00000000E+00  0.00000000E+00  0.00000000E+00
  0.00000000E+00  0.00000000E+00  0.00000000E+00
  0.00000000E+00  0.00000000E+00  0.00000000E+00
  0.00000000E+00  0.00000000E+00  0.00000000E+00
  0.00000000E+00  0.00000000E+00  0.00000000E+00
  0.00000000E+00  0.00000000E+00  0.00000000E+00
  0.00000000E+00  0.00000000E+00  0.00000000E+00
  0.00000000E+00  0.00000000E+00  0.00000000E+00
  0.00000000E+00  0.00000000E+00  0.00000000E+00
  0.00000000E+00  0.00000000E+00  0.00000000E+00
  0.00000000E+00  0.00000000E+00  0.00000000E+00
  0.00000000E+00  0.00000000E+00  0.00000000E+00
  0.00000000E+00  0.00000000E+00  0.00000000E+00
  0.00000000E+00  0.00000000E+00  0.00000000E+00
  0.00000000E+00  0.00000000E+00  0.00000000E+00
  0.00000000E+00  0.00000000E+00  0.00000000E+00
  0.00000000E+00  0.00000000E+00  0.00000000E+00
  0.00000000E+00  0.00000000E+00  0.00000000E+00
  0.00000000E+00  0.00000000E+00  0.00000000E+00
  0.00000000E+00  0.00000000E+00  0.00000000E+00
  0.00000000E+00  0.00000000E+00  0.00000000E+00
  0.00000000E+00  0.00000000E+00  0.00000000E+00
  0.00000000E+00  0.00000000E+00  0.00000000E+00
  0.00000000E+00  0.00000000E+00  0.00000000E+00
  0.00000000E+00  0.00000000E+00  0.00000000E+00
  0.00000000E+00  0.00000000E+00  0.00000000E+00
  0.00000000E+00  0.00000000E+00  0.00000000E+00
  0.00000000E+00  0.00000000E+00  0.00000000E+00
  0.00000000E+00  0.00000000E+00  0.00000000E+00
  0.00000000E+00  0.00000000E+00  0.00000000E+00
  0.00000000E+00  0.00000000E+00  0.00000000E+00
  0.00000000E+00  0.00000000E+00  0.00000000E+00
  0.00000000E+00  0.00000000E+00  0.00000000E+00
  0.00000000E+00  0.00000000E+00  0.00000000E+00
  0.00000000E+00  0.00000000E+00  0.00000000E+00
  0.00000000E+00  0.00000000E+00  0.00000000E+00
  0.00000000E+00  0.00000000E+00  0.00000000E+00
  0.00000000E+00  0.00000000E+00  0.00000000E+00
  0.00000000E+00  0.00000000E+00  0.00000000E+00
  0.00000000E+00  0.00000000E+00  0.00000000E+00
  0.00000000E+00  0.00000000E+00  0.00000000E+00
  0.00000000E+00  0.00000000E+00  0.00000000E+00
  0.00000000E+00  0.00000000E+00  0.00000000E+00
  0.00000000E+00  0.00000000E+00  0.00000000E+00
  0.00000000E+00  0.00000000E+00  0.00000000E+00
  0.00000000E+00  0.00000000E+00  0.00000000E+00
  0.00000000E+00  0.00000000E+00  0.00000000E+00
  0.00000000E+00  0.00000000E+00  0.00000000E+00
  0.00000000E+00  0.00000000E+00  0.00000000E+00
  0.00000000E+00  0.00000000E+00  0.00000000E+00
  0.00000000E+00  0.00000000E+00  0.00000000E+00
  0.00000000E+00  0.00000000E+00  0.00000000E+00
  0.00000000E+00  0.00000000E+00  0.00000000E+00
  0.00000000E+00  0.00000000E+00  0.00000000E+00
  0.00000000E+00  0.00000000E+00  0.00000000E+00
  0.00000000E+00  0.00000000E+00  0.00000000E+00
  0.00000000E+00  0.00000000E+00  0.00000000E+00
  0.00000000E+00  0.00000000E+00  0.00000000E+00
  0.00000000E+00  0.00000000E+00  0.00000000E+00
  0.00000000E+00  0.00000000E+00  0.00000000E+00
  0.00000000E+00  0.00000000E+00  0.00000000E+00
  0.00000000E+00  0.00000000E+00  0.00000000E+00
  0.00000000E+00  0.00000000E+00  0.00000000E+00
  0.00000000E+00  0.00000000E+00  0.00000000E+00
  0.00000000E+00  0.00000000E+00  0.00000000E+00
  0.00000000E+00  0.00000000E+00  0.00000000E+00
  0.00000000E+00  0.00000000E+00  0.00000000E+00
  0.00000000E+00  0.00000000E+00  0.00000000E+00
