Bi La Sn O  C  H                        
   1.00000000000000     
    29.0000000000000000    0.0000000000000000    0.0000000000000000
     0.2488180851000000   28.9989325590000000    0.0000000000000000
    -0.0631677343000000   -0.4515975666000000   28.9964147692999994
   Bi   La   Sn   O    C    H 
    22    23    23     2     1     1
Selective dynamics
Direct
  0.7596277556941164  0.4788295472201822  0.3981976373710789   T   T   T
  0.6465801744227687  0.6848811138079951  0.5514691983765251   T   T   T
  0.3634916070017057  0.4579461898941666  0.4273990307410336   T   T   T
  0.5493476145253722  0.7133102140029448  0.5839074629002802   T   T   T
  0.5915029568994470  0.5209714444905416  0.5841479689498996   F   F   F
  0.6395337236933484  0.6799529186857683  0.4448733425482205   T   T   T
  0.6953498199125818  0.5221343859686944  0.6547448381901074   T   T   T
  0.4861616886504598  0.7017390787697165  0.4989908017949177   T   T   T
  0.5004839460855024  0.5502791173970252  0.5477141156400123   F   F   F
  0.3250774079932732  0.4860223643671353  0.5754388191763845   T   T   T
  0.3808112764069260  0.6098548955500279  0.5343135160098362   T   T   T
  0.6667129484492236  0.4827404655721850  0.5105018184570156   F   F   F
  0.5763997220267569  0.4263140504383500  0.5448328182496311   F   F   F
  0.6713597692691076  0.3748542113876243  0.5072690004289638   T   T   T
  0.4653088452883535  0.3408401819996776  0.5045068083023586   T   T   T
  0.6484934028780529  0.5775373212088155  0.4602701624361103   F   F   F
  0.5577109876405547  0.4373870558547929  0.7501683808587636   T   T   T
  0.6034688279908770  0.3514588068050332  0.6699843505324884   T   T   T
  0.4958422745014984  0.2923014715494864  0.4229128231614712   T   T   T
  0.6590578209752255  0.6182177669934774  0.6668533445234854   T   T   T
  0.4895127114581860  0.4179608614879689  0.3032262948350046   T   T   T
  0.6240942495074255  0.3173665983901131  0.5737358696155083   T   T   T
  0.5387450310691516  0.6839540309947987  0.4040530048451356   T   T   T
  0.3905815200941417  0.4155475987432589  0.5280641155201233   T   T   T
  0.6275439435541591  0.5521499816314044  0.2819536699404100   T   T   T
  0.4718561662730374  0.4729231601582612  0.6918695891455892   T   T   T
  0.5683115009887700  0.5094300495444983  0.4784716241115703   F   F   F
  0.4203210565129183  0.5084107200613417  0.5018573595042781   F   F   F
  0.4524392581814172  0.3955737784569577  0.4041201350501832   T   T   T
  0.5490024367927322  0.3457727632447862  0.3505688954698616   T   T   T
  0.4109337823273799  0.5404616660452107  0.6092741943889836   T   T   T
  0.5984950311273807  0.4410496341204973  0.3051919245212969   T   T   T
  0.4550872470955597  0.6028416038241724  0.3638260169038295   T   T   T
  0.4174893273123504  0.4914624805498421  0.3386383960968192   T   T   T
  0.6615136134620943  0.4284495508398949  0.6042328110389322   T   T   T
  0.6726376605117278  0.5790886912445000  0.5642283987282227   T   T   T
  0.5271940877160481  0.5121091691265581  0.3285996394315920   T   T   T
  0.5680744421498148  0.3582828419970266  0.4697332761736390   T   T   T
  0.3153156052499112  0.5395461616101465  0.4906148002265423   T   T   T
  0.6613581845376182  0.4301209862195151  0.4156671679622138   T   T   T
  0.5660841929594156  0.6261437171197244  0.5094829013827464   F   F   F
  0.5949557416969083  0.5289343937811095  0.6897152071247816   T   T   T
  0.4689872028071886  0.6416144748186930  0.5871518738605499   T   T   T
  0.4637178475444996  0.6033168501391593  0.4643243268889258   T   T   T
  0.7164874805691928  0.5742974221788012  0.3833298913161492   T   T   T
  0.5499310510395361  0.5822218838566187  0.4076968008106903   F   F   F
  0.4794126430662260  0.5072205383607624  0.4190535757241776   F   F   F
  0.6946569669394879  0.4817276127498141  0.3239199444904373   T   T   T
  0.7532161134015505  0.4313096395202114  0.4880358333723119   T   T   T
  0.7479613253191841  0.5388701314496960  0.4850646895100550   T   T   T
  0.7484837861015872  0.4919985386229550  0.5727900851254631   T   T   T
  0.6477581651561264  0.4373576265749440  0.7087436920713788   T   T   T
  0.5771052088797956  0.7432495387451743  0.4928682196596499   T   T   T
  0.6192554540844384  0.5183157687966542  0.3801816896793397   F   F   F
  0.5045097995776788  0.5615380212253672  0.6503102393345164   T   T   T
  0.4922009500451665  0.4366758245867572  0.4933013002826740   F   F   F
  0.5608844484509063  0.4404139570509003  0.6454865549417619   F   F   F
  0.5767743641931611  0.6166063896582726  0.6135925287880796   T   T   T
  0.5441769669590556  0.6187019964235556  0.3117594073957006   T   T   T
  0.6272102187371356  0.6247346983532662  0.3598406619938923   T   T   T
  0.3772546961932964  0.5585969215528861  0.4135391202739987   T   T   T
  0.4723078164089713  0.4557257050327763  0.5877273803360978   F   F   F
  0.7263858142023684  0.6359442807949305  0.4853015000161429   T   T   T
  0.5038246149936439  0.3701690413762226  0.6863687134542170   T   T   T
  0.3816891167161537  0.4418174729544194  0.6411569908149426   T   T   T
  0.5544592502646992  0.4379899399457940  0.4037542370104745   F   F   F
  0.4349459817642558  0.3641743754916971  0.6122890776295985   T   T   T
  0.5301645743954841  0.3492209953106562  0.5825929796769937   T   T   T
  0.4229473318458001  0.3371027467375981  0.3470430498173647   T   T   T
  0.4858681116846410  0.3027665731215352  0.3146987996610726   T   T   T
  0.4423317627625014  0.3085212259657361  0.3195802297223747   T   T   T
  0.4198404286417879  0.2861705365492045  0.2979801622059298   T   T   T
 
  0.00000000E+00  0.00000000E+00  0.00000000E+00
  0.00000000E+00  0.00000000E+00  0.00000000E+00
  0.00000000E+00  0.00000000E+00  0.00000000E+00
  0.00000000E+00  0.00000000E+00  0.00000000E+00
  0.00000000E+00  0.00000000E+00  0.00000000E+00
  0.00000000E+00  0.00000000E+00  0.00000000E+00
  0.00000000E+00  0.00000000E+00  0.00000000E+00
  0.00000000E+00  0.00000000E+00  0.00000000E+00
  0.00000000E+00  0.00000000E+00  0.00000000E+00
  0.00000000E+00  0.00000000E+00  0.00000000E+00
  0.00000000E+00  0.00000000E+00  0.00000000E+00
  0.00000000E+00  0.00000000E+00  0.00000000E+00
  0.00000000E+00  0.00000000E+00  0.00000000E+00
  0.00000000E+00  0.00000000E+00  0.00000000E+00
  0.00000000E+00  0.00000000E+00  0.00000000E+00
  0.00000000E+00  0.00000000E+00  0.00000000E+00
  0.00000000E+00  0.00000000E+00  0.00000000E+00
  0.00000000E+00  0.00000000E+00  0.00000000E+00
  0.00000000E+00  0.00000000E+00  0.00000000E+00
  0.00000000E+00  0.00000000E+00  0.00000000E+00
  0.00000000E+00  0.00000000E+00  0.00000000E+00
  0.00000000E+00  0.00000000E+00  0.00000000E+00
  0.00000000E+00  0.00000000E+00  0.00000000E+00
  0.00000000E+00  0.00000000E+00  0.00000000E+00
  0.00000000E+00  0.00000000E+00  0.00000000E+00
  0.00000000E+00  0.00000000E+00  0.00000000E+00
  0.00000000E+00  0.00000000E+00  0.00000000E+00
  0.00000000E+00  0.00000000E+00  0.00000000E+00
  0.00000000E+00  0.00000000E+00  0.00000000E+00
  0.00000000E+00  0.00000000E+00  0.00000000E+00
  0.00000000E+00  0.00000000E+00  0.00000000E+00
  0.00000000E+00  0.00000000E+00  0.00000000E+00
  0.00000000E+00  0.00000000E+00  0.00000000E+00
  0.00000000E+00  0.00000000E+00  0.00000000E+00
  0.00000000E+00  0.00000000E+00  0.00000000E+00
  0.00000000E+00  0.00000000E+00  0.00000000E+00
  0.00000000E+00  0.00000000E+00  0.00000000E+00
  0.00000000E+00  0.00000000E+00  0.00000000E+00
  0.00000000E+00  0.00000000E+00  0.00000000E+00
  0.00000000E+00  0.00000000E+00  0.00000000E+00
  0.00000000E+00  0.00000000E+00  0.00000000E+00
  0.00000000E+00  0.00000000E+00  0.00000000E+00
  0.00000000E+00  0.00000000E+00  0.00000000E+00
  0.00000000E+00  0.00000000E+00  0.00000000E+00
  0.00000000E+00  0.00000000E+00  0.00000000E+00
  0.00000000E+00  0.00000000E+00  0.00000000E+00
  0.00000000E+00  0.00000000E+00  0.00000000E+00
  0.00000000E+00  0.00000000E+00  0.00000000E+00
  0.00000000E+00  0.00000000E+00  0.00000000E+00
  0.00000000E+00  0.00000000E+00  0.00000000E+00
  0.00000000E+00  0.00000000E+00  0.00000000E+00
  0.00000000E+00  0.00000000E+00  0.00000000E+00
  0.00000000E+00  0.00000000E+00  0.00000000E+00
  0.00000000E+00  0.00000000E+00  0.00000000E+00
  0.00000000E+00  0.00000000E+00  0.00000000E+00
  0.00000000E+00  0.00000000E+00  0.00000000E+00
  0.00000000E+00  0.00000000E+00  0.00000000E+00
  0.00000000E+00  0.00000000E+00  0.00000000E+00
  0.00000000E+00  0.00000000E+00  0.00000000E+00
  0.00000000E+00  0.00000000E+00  0.00000000E+00
  0.00000000E+00  0.00000000E+00  0.00000000E+00
  0.00000000E+00  0.00000000E+00  0.00000000E+00
  0.00000000E+00  0.00000000E+00  0.00000000E+00
  0.00000000E+00  0.00000000E+00  0.00000000E+00
  0.00000000E+00  0.00000000E+00  0.00000000E+00
  0.00000000E+00  0.00000000E+00  0.00000000E+00
  0.00000000E+00  0.00000000E+00  0.00000000E+00
  0.00000000E+00  0.00000000E+00  0.00000000E+00
  0.00000000E+00  0.00000000E+00  0.00000000E+00
  0.00000000E+00  0.00000000E+00  0.00000000E+00
  0.00000000E+00  0.00000000E+00  0.00000000E+00
  0.00000000E+00  0.00000000E+00  0.00000000E+00
