Bi La Sn O  C  H                        
   1.00000000000000     
    29.0000000000000000    0.0000000000000000    0.0000000000000000
     0.2488180851000000   28.9989325590000000    0.0000000000000000
    -0.0631677343000000   -0.4515975666000000   28.9964147692999994
   Bi   La   Sn   O    C    H 
    22    23    23     2     1     1
Selective dynamics
Direct
  0.7606248146286047  0.4765947419543093  0.3973853739960093   T   T   T
  0.6487479656552992  0.6848161535690023  0.5490266017680777   T   T   T
  0.3597872426443137  0.4582452918857564  0.4278232753388968   T   T   T
  0.5534979765348091  0.7157151050972339  0.5805824039238119   T   T   T
  0.5915029568994470  0.5209714444905416  0.5841479689498996   F   F   F
  0.6405123160874447  0.6793161560413474  0.4448010775733464   T   T   T
  0.6961352611134909  0.5183339766244005  0.6537924910578609   T   T   T
  0.4876692881190865  0.7014372522738190  0.4978733502471279   T   T   T
  0.5004839460855024  0.5502791173970252  0.5477141156400123   F   F   F
  0.3284315729566598  0.4852047556357399  0.5787943972005102   T   T   T
  0.3835029031678808  0.6086203874297542  0.5382042401514796   T   T   T
  0.6667129484492236  0.4827404655721850  0.5105018184570156   F   F   F
  0.5763997220267569  0.4263140504383500  0.5448328182496311   F   F   F
  0.6680137657655231  0.3736330381450474  0.5064784062853463   T   T   T
  0.4605963934705455  0.3377071943488686  0.4948185451895533   T   T   T
  0.6484934028780529  0.5775373212088155  0.4602701624361103   F   F   F
  0.5548921126483487  0.4355891009078219  0.7497984367412225   T   T   T
  0.5912700656811014  0.3482492923618603  0.6662844802900252   T   T   T
  0.4922453434894249  0.3000543802014091  0.4053027748570209   T   T   T
  0.6629596087883466  0.6134627172427209  0.6688657932631842   T   T   T
  0.4912226796924621  0.4103438651233118  0.3042219015263932   T   T   T
  0.6190767548681220  0.3161825180391902  0.5717972472870185   T   T   T
  0.5396527836637374  0.6831151150841197  0.4025791370297501   T   T   T
  0.3898078311890723  0.4157300093034829  0.5255987121984222   T   T   T
  0.6280613748957554  0.5503532437895839  0.2828003801487047   T   T   T
  0.4735926209441952  0.4808331822325629  0.6929520645796099   T   T   T
  0.5683115009887700  0.5094300495444983  0.4784716241115703   F   F   F
  0.4203210565129183  0.5084107200613417  0.5018573595042781   F   F   F
  0.4524841919756845  0.4018902981888201  0.4046198997432869   T   T   T
  0.5634890827978233  0.3501628417947928  0.3519687183905439   T   T   T
  0.4137125245534454  0.5392102433629397  0.6125905502660757   T   T   T
  0.5982721665983594  0.4423194010181071  0.3033326682980733   T   T   T
  0.4543572545792890  0.5993683609699976  0.3634721401639629   T   T   T
  0.4182473550262522  0.4877009269900669  0.3397817151215506   T   T   T
  0.6603033114661125  0.4262150887061999  0.6045060290627199   T   T   T
  0.6748283656125851  0.5784530142683122  0.5639989371079601   T   T   T
  0.5257767068041737  0.5088916312213453  0.3281321963489820   T   T   T
  0.5648839826776001  0.3566967007574621  0.4687789688069212   T   T   T
  0.3163449138881211  0.5402930151972689  0.4943559408100205   T   T   T
  0.6599217238279244  0.4294530769890267  0.4156088449232496   T   T   T
  0.5660841929594156  0.6261437171197244  0.5094829013827464   F   F   F
  0.5964120008044778  0.5266162617229984  0.6901069489203394   T   T   T
  0.4716961075814419  0.6448068833504594  0.5894477413713315   T   T   T
  0.4620899784965432  0.6031756401255477  0.4634907146324467   T   T   T
  0.7158008434998853  0.5720225308461860  0.3821356926349563   T   T   T
  0.5499310510395361  0.5822218838566187  0.4076968008106903   F   F   F
  0.4794126430662260  0.5072205383607624  0.4190535757241776   F   F   F
  0.6948333274717234  0.4781143272717397  0.3239681795321936   T   T   T
  0.7513380787601527  0.4280984384330315  0.4861388321727307   T   T   T
  0.7486315597396472  0.5359259043407821  0.4835990446676248   T   T   T
  0.7492165531833265  0.4887844471299806  0.5710819891970206   T   T   T
  0.6441451343337320  0.4296878017317770  0.7087443488834475   T   T   T
  0.5772537168685561  0.7444285803897374  0.4892609611465397   T   T   T
  0.6192554540844384  0.5183157687966542  0.3801816896793397   F   F   F
  0.5094859101768537  0.5640976593048365  0.6483725745838002   T   T   T
  0.4922009500451665  0.4366758245867572  0.4933013002826740   F   F   F
  0.5608844484509063  0.4404139570509003  0.6454865549417619   F   F   F
  0.5812518852100228  0.6178337952472607  0.6130357659122108   T   T   T
  0.5432768703774750  0.6161799514691192  0.3115971196954346   T   T   T
  0.6267955824512386  0.6244665706850825  0.3592892840083226   T   T   T
  0.3757110339063029  0.5569463167477722  0.4136758725567153   T   T   T
  0.4723078164089713  0.4557257050327763  0.5877273803360978   F   F   F
  0.7285737710193698  0.6329660094347982  0.4824016259926975   T   T   T
  0.4917409865269272  0.3779983115095667  0.6770974756962964   T   T   T
  0.3880280476731711  0.4364825593395656  0.6407320076368445   T   T   T
  0.5544592502646992  0.4379899399457940  0.4037542370104745   F   F   F
  0.4295476448660560  0.3550834549611948  0.6016298551327827   T   T   T
  0.5243403520660790  0.3500264577520346  0.5751505289447589   T   T   T
  0.5601620264209920  0.6808925679204203  0.6812323116378041   T   T   T
  0.4839789092804737  0.6817122648094838  0.6623036569566799   T   T   T
  0.5183323283579461  0.6882004561373207  0.6900072522189822   T   T   T
  0.5090780354517114  0.7021023470868830  0.7248149189079186   T   T   T
 
  0.00000000E+00  0.00000000E+00  0.00000000E+00
  0.00000000E+00  0.00000000E+00  0.00000000E+00
  0.00000000E+00  0.00000000E+00  0.00000000E+00
  0.00000000E+00  0.00000000E+00  0.00000000E+00
  0.00000000E+00  0.00000000E+00  0.00000000E+00
  0.00000000E+00  0.00000000E+00  0.00000000E+00
  0.00000000E+00  0.00000000E+00  0.00000000E+00
  0.00000000E+00  0.00000000E+00  0.00000000E+00
  0.00000000E+00  0.00000000E+00  0.00000000E+00
  0.00000000E+00  0.00000000E+00  0.00000000E+00
  0.00000000E+00  0.00000000E+00  0.00000000E+00
  0.00000000E+00  0.00000000E+00  0.00000000E+00
  0.00000000E+00  0.00000000E+00  0.00000000E+00
  0.00000000E+00  0.00000000E+00  0.00000000E+00
  0.00000000E+00  0.00000000E+00  0.00000000E+00
  0.00000000E+00  0.00000000E+00  0.00000000E+00
  0.00000000E+00  0.00000000E+00  0.00000000E+00
  0.00000000E+00  0.00000000E+00  0.00000000E+00
  0.00000000E+00  0.00000000E+00  0.00000000E+00
  0.00000000E+00  0.00000000E+00  0.00000000E+00
  0.00000000E+00  0.00000000E+00  0.00000000E+00
  0.00000000E+00  0.00000000E+00  0.00000000E+00
  0.00000000E+00  0.00000000E+00  0.00000000E+00
  0.00000000E+00  0.00000000E+00  0.00000000E+00
  0.00000000E+00  0.00000000E+00  0.00000000E+00
  0.00000000E+00  0.00000000E+00  0.00000000E+00
  0.00000000E+00  0.00000000E+00  0.00000000E+00
  0.00000000E+00  0.00000000E+00  0.00000000E+00
  0.00000000E+00  0.00000000E+00  0.00000000E+00
  0.00000000E+00  0.00000000E+00  0.00000000E+00
  0.00000000E+00  0.00000000E+00  0.00000000E+00
  0.00000000E+00  0.00000000E+00  0.00000000E+00
  0.00000000E+00  0.00000000E+00  0.00000000E+00
  0.00000000E+00  0.00000000E+00  0.00000000E+00
  0.00000000E+00  0.00000000E+00  0.00000000E+00
  0.00000000E+00  0.00000000E+00  0.00000000E+00
  0.00000000E+00  0.00000000E+00  0.00000000E+00
  0.00000000E+00  0.00000000E+00  0.00000000E+00
  0.00000000E+00  0.00000000E+00  0.00000000E+00
  0.00000000E+00  0.00000000E+00  0.00000000E+00
  0.00000000E+00  0.00000000E+00  0.00000000E+00
  0.00000000E+00  0.00000000E+00  0.00000000E+00
  0.00000000E+00  0.00000000E+00  0.00000000E+00
  0.00000000E+00  0.00000000E+00  0.00000000E+00
  0.00000000E+00  0.00000000E+00  0.00000000E+00
  0.00000000E+00  0.00000000E+00  0.00000000E+00
  0.00000000E+00  0.00000000E+00  0.00000000E+00
  0.00000000E+00  0.00000000E+00  0.00000000E+00
  0.00000000E+00  0.00000000E+00  0.00000000E+00
  0.00000000E+00  0.00000000E+00  0.00000000E+00
  0.00000000E+00  0.00000000E+00  0.00000000E+00
  0.00000000E+00  0.00000000E+00  0.00000000E+00
  0.00000000E+00  0.00000000E+00  0.00000000E+00
  0.00000000E+00  0.00000000E+00  0.00000000E+00
  0.00000000E+00  0.00000000E+00  0.00000000E+00
  0.00000000E+00  0.00000000E+00  0.00000000E+00
  0.00000000E+00  0.00000000E+00  0.00000000E+00
  0.00000000E+00  0.00000000E+00  0.00000000E+00
  0.00000000E+00  0.00000000E+00  0.00000000E+00
  0.00000000E+00  0.00000000E+00  0.00000000E+00
  0.00000000E+00  0.00000000E+00  0.00000000E+00
  0.00000000E+00  0.00000000E+00  0.00000000E+00
  0.00000000E+00  0.00000000E+00  0.00000000E+00
  0.00000000E+00  0.00000000E+00  0.00000000E+00
  0.00000000E+00  0.00000000E+00  0.00000000E+00
  0.00000000E+00  0.00000000E+00  0.00000000E+00
  0.00000000E+00  0.00000000E+00  0.00000000E+00
  0.00000000E+00  0.00000000E+00  0.00000000E+00
  0.00000000E+00  0.00000000E+00  0.00000000E+00
  0.00000000E+00  0.00000000E+00  0.00000000E+00
  0.00000000E+00  0.00000000E+00  0.00000000E+00
  0.00000000E+00  0.00000000E+00  0.00000000E+00
