Bi La Sn O  C  H                        
   1.00000000000000     
    29.0000000000000000    0.0000000000000000    0.0000000000000000
     0.2488180851000000   28.9989325590000000    0.0000000000000000
    -0.0631677343000000   -0.4515975666000000   28.9964147692999994
   Bi   La   Sn   O    C    H 
    22    23    23     2     1     1
Selective dynamics
Direct
  0.7605047382711158  0.4787067300046502  0.3999715436861347   T   T   T
  0.6461472557622978  0.6843106129355442  0.5533949128646367   T   T   T
  0.3565834933076922  0.4600362519864085  0.4309105939960793   T   T   T
  0.5500182561526750  0.7131135544340624  0.5852298104302430   T   T   T
  0.5915029568994470  0.5209714444905416  0.5841479689498996   F   F   F
  0.6402122521492998  0.6813324297336609  0.4467798940702910   T   T   T
  0.6956767294728579  0.5230206003620216  0.6549901954309220   T   T   T
  0.4856701396153967  0.7006308287879411  0.5003292685642345   T   T   T
  0.5004839460855024  0.5502791173970252  0.5477141156400123   F   F   F
  0.3244582017446365  0.4861883787205533  0.5723983754754913   T   T   T
  0.3828072286053012  0.6115620757877258  0.5346036410683951   T   T   T
  0.6667129484492236  0.4827404655721850  0.5105018184570156   F   F   F
  0.5763997220267569  0.4263140504383500  0.5448328182496311   F   F   F
  0.6695851339783796  0.3744548760202897  0.5058064051466915   T   T   T
  0.4641130827378830  0.3376738176613232  0.5006175551511670   T   T   T
  0.6484934028780529  0.5775373212088155  0.4602701624361103   F   F   F
  0.5579065339797256  0.4372387517942957  0.7497694098403574   T   T   T
  0.6065672434113790  0.3518993688739017  0.6690063923403715   T   T   T
  0.4938731821085950  0.2990245192404213  0.4107670772427728   T   T   T
  0.6592235713759124  0.6190807586135809  0.6660420761370747   T   T   T
  0.4992505665954519  0.4091575474556204  0.3128019476132748   T   T   T
  0.6222254065646533  0.3172183160432794  0.5724025799323796   T   T   T
  0.5389295791465526  0.6837579073813664  0.4053085789898667   T   T   T
  0.3912488234037317  0.4148194193337786  0.5279272123132677   T   T   T
  0.6316846041097048  0.5540022101435570  0.2834242009785564   T   T   T
  0.4705575347108229  0.4691279734727933  0.6911475565302454   T   T   T
  0.5683115009887700  0.5094300495444983  0.4784716241115703   F   F   F
  0.4203210565129183  0.5084107200613417  0.5018573595042781   F   F   F
  0.4495144303064431  0.3990706176936897  0.4079059872907578   T   T   T
  0.5689797160890904  0.3461576511490145  0.3581363242652678   T   T   T
  0.4099827391454822  0.5405072457866750  0.6088149663939745   T   T   T
  0.6012474858756933  0.4438010271074647  0.3046969156984695   T   T   T
  0.4558708933598047  0.5995369747244740  0.3617789781276069   T   T   T
  0.4149382501305919  0.4821823501226250  0.3405329400807048   T   T   T
  0.6611495684027859  0.4288267397984206  0.6043067767743981   T   T   T
  0.6729032740199085  0.5786254252589842  0.5641090501366648   T   T   T
  0.5269959972931401  0.5106013998097466  0.3274334712822896   T   T   T
  0.5666806357968557  0.3582667941051329  0.4690416665503582   T   T   T
  0.3152545630379102  0.5445624238808784  0.4910603364599188   T   T   T
  0.6610024793120726  0.4300066908538593  0.4152468085328088   T   T   T
  0.5660841929594156  0.6261437171197244  0.5094829013827464   F   F   F
  0.5949608266781861  0.5293712396603814  0.6898045067087381   T   T   T
  0.4699640734629512  0.6413161657023805  0.5889586867600539   T   T   T
  0.4631183258138502  0.6033937353001093  0.4631931812608422   T   T   T
  0.7173344788442175  0.5744875323803502  0.3840859251300044   T   T   T
  0.5499310510395361  0.5822218838566187  0.4076968008106903   F   F   F
  0.4794126430662260  0.5072205383607624  0.4190535757241776   F   F   F
  0.6970203272453328  0.4812918881835321  0.3253327342453390   T   T   T
  0.7527453541642123  0.4303086535422836  0.4891948094372937   T   T   T
  0.7485102917574759  0.5385018683131124  0.4861541671909232   T   T   T
  0.7485510281997462  0.4919244692948149  0.5734998462604471   T   T   T
  0.6483381278484702  0.4386275481925205  0.7093403233176978   T   T   T
  0.5757546059071885  0.7430152002913085  0.4938854174216430   T   T   T
  0.6192554540844384  0.5183157687966542  0.3801816896793397   F   F   F
  0.5037348192491496  0.5585427688661602  0.6502023304171568   T   T   T
  0.4922009500451665  0.4366758245867572  0.4933013002826740   F   F   F
  0.5608844484509063  0.4404139570509003  0.6454865549417619   F   F   F
  0.5762900827012168  0.6156620389077126  0.6138151251303794   T   T   T
  0.5464879825401111  0.6181534766352695  0.3124921904144661   T   T   T
  0.6282290244251566  0.6257460116488475  0.3622884101144041   T   T   T
  0.3776501832881473  0.5564551258739184  0.4117732752097312   T   T   T
  0.4723078164089713  0.4557257050327763  0.5877273803360978   F   F   F
  0.7267677740228330  0.6354361300803488  0.4854115651035659   T   T   T
  0.5068412855561539  0.3674946457426204  0.6856336268691747   T   T   T
  0.3792307683057669  0.4425699175062388  0.6397538307860808   T   T   T
  0.5544592502646992  0.4379899399457940  0.4037542370104745   F   F   F
  0.4353918023064092  0.3660570890643061  0.6136838241368148   T   T   T
  0.5284359545008708  0.3493882791733393  0.5805270512979929   T   T   T
  0.3778945361931298  0.4317220622136023  0.2802742770418492   T   T   T
  0.3907029944171850  0.3918317913931132  0.3450439912201566   T   T   T
  0.3760271561951567  0.3949252745624200  0.3033925695474742   T   T   T
  0.3610581553131461  0.3635804274704886  0.2872572895933510   T   T   T
 
  0.00000000E+00  0.00000000E+00  0.00000000E+00
  0.00000000E+00  0.00000000E+00  0.00000000E+00
  0.00000000E+00  0.00000000E+00  0.00000000E+00
  0.00000000E+00  0.00000000E+00  0.00000000E+00
  0.00000000E+00  0.00000000E+00  0.00000000E+00
  0.00000000E+00  0.00000000E+00  0.00000000E+00
  0.00000000E+00  0.00000000E+00  0.00000000E+00
  0.00000000E+00  0.00000000E+00  0.00000000E+00
  0.00000000E+00  0.00000000E+00  0.00000000E+00
  0.00000000E+00  0.00000000E+00  0.00000000E+00
  0.00000000E+00  0.00000000E+00  0.00000000E+00
  0.00000000E+00  0.00000000E+00  0.00000000E+00
  0.00000000E+00  0.00000000E+00  0.00000000E+00
  0.00000000E+00  0.00000000E+00  0.00000000E+00
  0.00000000E+00  0.00000000E+00  0.00000000E+00
  0.00000000E+00  0.00000000E+00  0.00000000E+00
  0.00000000E+00  0.00000000E+00  0.00000000E+00
  0.00000000E+00  0.00000000E+00  0.00000000E+00
  0.00000000E+00  0.00000000E+00  0.00000000E+00
  0.00000000E+00  0.00000000E+00  0.00000000E+00
  0.00000000E+00  0.00000000E+00  0.00000000E+00
  0.00000000E+00  0.00000000E+00  0.00000000E+00
  0.00000000E+00  0.00000000E+00  0.00000000E+00
  0.00000000E+00  0.00000000E+00  0.00000000E+00
  0.00000000E+00  0.00000000E+00  0.00000000E+00
  0.00000000E+00  0.00000000E+00  0.00000000E+00
  0.00000000E+00  0.00000000E+00  0.00000000E+00
  0.00000000E+00  0.00000000E+00  0.00000000E+00
  0.00000000E+00  0.00000000E+00  0.00000000E+00
  0.00000000E+00  0.00000000E+00  0.00000000E+00
  0.00000000E+00  0.00000000E+00  0.00000000E+00
  0.00000000E+00  0.00000000E+00  0.00000000E+00
  0.00000000E+00  0.00000000E+00  0.00000000E+00
  0.00000000E+00  0.00000000E+00  0.00000000E+00
  0.00000000E+00  0.00000000E+00  0.00000000E+00
  0.00000000E+00  0.00000000E+00  0.00000000E+00
  0.00000000E+00  0.00000000E+00  0.00000000E+00
  0.00000000E+00  0.00000000E+00  0.00000000E+00
  0.00000000E+00  0.00000000E+00  0.00000000E+00
  0.00000000E+00  0.00000000E+00  0.00000000E+00
  0.00000000E+00  0.00000000E+00  0.00000000E+00
  0.00000000E+00  0.00000000E+00  0.00000000E+00
  0.00000000E+00  0.00000000E+00  0.00000000E+00
  0.00000000E+00  0.00000000E+00  0.00000000E+00
  0.00000000E+00  0.00000000E+00  0.00000000E+00
  0.00000000E+00  0.00000000E+00  0.00000000E+00
  0.00000000E+00  0.00000000E+00  0.00000000E+00
  0.00000000E+00  0.00000000E+00  0.00000000E+00
  0.00000000E+00  0.00000000E+00  0.00000000E+00
  0.00000000E+00  0.00000000E+00  0.00000000E+00
  0.00000000E+00  0.00000000E+00  0.00000000E+00
  0.00000000E+00  0.00000000E+00  0.00000000E+00
  0.00000000E+00  0.00000000E+00  0.00000000E+00
  0.00000000E+00  0.00000000E+00  0.00000000E+00
  0.00000000E+00  0.00000000E+00  0.00000000E+00
  0.00000000E+00  0.00000000E+00  0.00000000E+00
  0.00000000E+00  0.00000000E+00  0.00000000E+00
  0.00000000E+00  0.00000000E+00  0.00000000E+00
  0.00000000E+00  0.00000000E+00  0.00000000E+00
  0.00000000E+00  0.00000000E+00  0.00000000E+00
  0.00000000E+00  0.00000000E+00  0.00000000E+00
  0.00000000E+00  0.00000000E+00  0.00000000E+00
  0.00000000E+00  0.00000000E+00  0.00000000E+00
  0.00000000E+00  0.00000000E+00  0.00000000E+00
  0.00000000E+00  0.00000000E+00  0.00000000E+00
  0.00000000E+00  0.00000000E+00  0.00000000E+00
  0.00000000E+00  0.00000000E+00  0.00000000E+00
  0.00000000E+00  0.00000000E+00  0.00000000E+00
  0.00000000E+00  0.00000000E+00  0.00000000E+00
  0.00000000E+00  0.00000000E+00  0.00000000E+00
  0.00000000E+00  0.00000000E+00  0.00000000E+00
  0.00000000E+00  0.00000000E+00  0.00000000E+00
