Bi La Sn O  C  H                        
   1.00000000000000     
    29.0000000000000000    0.0000000000000000    0.0000000000000000
     0.2488180851000000   28.9989325590000000    0.0000000000000000
    -0.0631677343000000   -0.4515975666000000   28.9964147692999994
   Bi   La   Sn   O    C    H 
    22    23    23     2     1     1
Selective dynamics
Direct
  0.7593349559644403  0.4792979670531859  0.3988813253209534   T   T   T
  0.6469154026936155  0.6848160730035160  0.5509215881293140   T   T   T
  0.3606179733653114  0.4578749032533043  0.4285955366404936   T   T   T
  0.5499725305983665  0.7130478079435861  0.5842675063286760   T   T   T
  0.5915029568994470  0.5209714444905416  0.5841479689498996   F   F   F
  0.6397651663385950  0.6798269024373766  0.4451487023383091   T   T   T
  0.6954281336247238  0.5208297006253354  0.6540196824408847   T   T   T
  0.4866812557122833  0.7011791303941558  0.4994528054736322   T   T   T
  0.5004839460855024  0.5502791173970252  0.5477141156400123   F   F   F
  0.3254132623022447  0.4852723950705319  0.5743278005720356   T   T   T
  0.3814871703307145  0.6101853070636525  0.5351203161222615   T   T   T
  0.6667129484492236  0.4827404655721850  0.5105018184570156   F   F   F
  0.5763997220267569  0.4263140504383500  0.5448328182496311   F   F   F
  0.6691936397621047  0.3742289845234216  0.5060518351857052   T   T   T
  0.4633258785313248  0.3382846951261422  0.4992772799534065   T   T   T
  0.6484934028780529  0.5775373212088155  0.4602701624361103   F   F   F
  0.5581239792851940  0.4343851442565426  0.7500356551500476   T   T   T
  0.5995074359954023  0.3492761708247530  0.6666527379533553   T   T   T
  0.4926068443239692  0.2980856886937538  0.4103520953986712   T   T   T
  0.6594810406004498  0.6166818380541127  0.6674096871042853   T   T   T
  0.4912700747456647  0.4100580184618977  0.3052628358114141   T   T   T
  0.6225239875067577  0.3155655591838424  0.5714575419235431   T   T   T
  0.5386614106538855  0.6835002112601130  0.4044044395792440   T   T   T
  0.3907642795932849  0.4142653603193096  0.5273191903931266   T   T   T
  0.6266694500894202  0.5515650469331459  0.2820586257744060   T   T   T
  0.4708794114657175  0.4714439027031589  0.6939835710953508   T   T   T
  0.5683115009887700  0.5094300495444983  0.4784716241115703   F   F   F
  0.4203210565129183  0.5084107200613417  0.5018573595042781   F   F   F
  0.4527560342209944  0.4004664637872574  0.4060942068449591   T   T   T
  0.5615845821622553  0.3491399687804927  0.3535056398661818   T   T   T
  0.4109455612705052  0.5398753314672190  0.6095848614802167   T   T   T
  0.6001541501573482  0.4399808235629926  0.3054250506455297   T   T   T
  0.4546650810378889  0.5995596707223717  0.3635467110351990   T   T   T
  0.4183059859553797  0.4871490274774047  0.3398332222502127   T   T   T
  0.6617348748056877  0.4265756607569967  0.6035204779876086   T   T   T
  0.6733736063113613  0.5789043289991643  0.5642505683363399   T   T   T
  0.5256884686265308  0.5090389911260202  0.3280803065275191   T   T   T
  0.5662010657997968  0.3573544667800396  0.4690663829221565   T   T   T
  0.3151958583067460  0.5411962276564812  0.4912534194527406   T   T   T
  0.6608671059292659  0.4296726416207475  0.4149808319677553   T   T   T
  0.5660841929594156  0.6261437171197244  0.5094829013827464   F   F   F
  0.5956371563062598  0.5271752398044532  0.6900182514527710   T   T   T
  0.4692987712672131  0.6416242678790289  0.5879940219503025   T   T   T
  0.4626182681696800  0.6033019995812891  0.4639881475912850   T   T   T
  0.7161902230971835  0.5746959853629194  0.3834265416423563   T   T   T
  0.5499310510395361  0.5822218838566187  0.4076968008106903   F   F   F
  0.4794126430662260  0.5072205383607624  0.4190535757241776   F   F   F
  0.6950695242152168  0.4822451818850080  0.3239007271065102   T   T   T
  0.7521374624758874  0.4300424884035046  0.4875760605442438   T   T   T
  0.7481942613533886  0.5386072220581147  0.4856439712666288   T   T   T
  0.7486168620110720  0.4904393749892757  0.5725248326389178   T   T   T
  0.6466629496963500  0.4335084770651302  0.7075441231266276   T   T   T
  0.5772300247922600  0.7435536931751795  0.4931427017998737   T   T   T
  0.6192554540844384  0.5183157687966542  0.3801816896793397   F   F   F
  0.5055064013806349  0.5598615298892938  0.6496761163684188   T   T   T
  0.4922009500451665  0.4366758245867572  0.4933013002826740   F   F   F
  0.5608844484509063  0.4404139570509003  0.6454865549417619   F   F   F
  0.5771223907077755  0.6163783528427815  0.6138290368534391   T   T   T
  0.5432472386394247  0.6169803453726689  0.3118149678527189   T   T   T
  0.6263403414431461  0.6250563282156312  0.3598614370162283   T   T   T
  0.3763420130915832  0.5567903207091049  0.4126384333049416   T   T   T
  0.4723078164089713  0.4557257050327763  0.5877273803360978   F   F   F
  0.7270399854866155  0.6355691267521435  0.4847573915477772   T   T   T
  0.5008337501739873  0.3695729771053328  0.6865318567654211   T   T   T
  0.3815359974989857  0.4407587619556313  0.6399021831584941   T   T   T
  0.5544592502646992  0.4379899399457940  0.4037542370104745   F   F   F
  0.4356390731439628  0.3630067465954887  0.6109380707993468   T   T   T
  0.5285936158271050  0.3493056904405328  0.5789586027024129   T   T   T
  0.4327683554893076  0.4308132608864355  0.7542198227662663   T   T   T
  0.4506422523179209  0.3540498133282179  0.7528724913444456   T   T   T
  0.4297055190593115  0.3892836248273017  0.7685701382810763   T   T   T
  0.4060007202126098  0.3840403798396507  0.7981045117456526   T   T   T
 
  0.00000000E+00  0.00000000E+00  0.00000000E+00
  0.00000000E+00  0.00000000E+00  0.00000000E+00
  0.00000000E+00  0.00000000E+00  0.00000000E+00
  0.00000000E+00  0.00000000E+00  0.00000000E+00
  0.00000000E+00  0.00000000E+00  0.00000000E+00
  0.00000000E+00  0.00000000E+00  0.00000000E+00
  0.00000000E+00  0.00000000E+00  0.00000000E+00
  0.00000000E+00  0.00000000E+00  0.00000000E+00
  0.00000000E+00  0.00000000E+00  0.00000000E+00
  0.00000000E+00  0.00000000E+00  0.00000000E+00
  0.00000000E+00  0.00000000E+00  0.00000000E+00
  0.00000000E+00  0.00000000E+00  0.00000000E+00
  0.00000000E+00  0.00000000E+00  0.00000000E+00
  0.00000000E+00  0.00000000E+00  0.00000000E+00
  0.00000000E+00  0.00000000E+00  0.00000000E+00
  0.00000000E+00  0.00000000E+00  0.00000000E+00
  0.00000000E+00  0.00000000E+00  0.00000000E+00
  0.00000000E+00  0.00000000E+00  0.00000000E+00
  0.00000000E+00  0.00000000E+00  0.00000000E+00
  0.00000000E+00  0.00000000E+00  0.00000000E+00
  0.00000000E+00  0.00000000E+00  0.00000000E+00
  0.00000000E+00  0.00000000E+00  0.00000000E+00
  0.00000000E+00  0.00000000E+00  0.00000000E+00
  0.00000000E+00  0.00000000E+00  0.00000000E+00
  0.00000000E+00  0.00000000E+00  0.00000000E+00
  0.00000000E+00  0.00000000E+00  0.00000000E+00
  0.00000000E+00  0.00000000E+00  0.00000000E+00
  0.00000000E+00  0.00000000E+00  0.00000000E+00
  0.00000000E+00  0.00000000E+00  0.00000000E+00
  0.00000000E+00  0.00000000E+00  0.00000000E+00
  0.00000000E+00  0.00000000E+00  0.00000000E+00
  0.00000000E+00  0.00000000E+00  0.00000000E+00
  0.00000000E+00  0.00000000E+00  0.00000000E+00
  0.00000000E+00  0.00000000E+00  0.00000000E+00
  0.00000000E+00  0.00000000E+00  0.00000000E+00
  0.00000000E+00  0.00000000E+00  0.00000000E+00
  0.00000000E+00  0.00000000E+00  0.00000000E+00
  0.00000000E+00  0.00000000E+00  0.00000000E+00
  0.00000000E+00  0.00000000E+00  0.00000000E+00
  0.00000000E+00  0.00000000E+00  0.00000000E+00
  0.00000000E+00  0.00000000E+00  0.00000000E+00
  0.00000000E+00  0.00000000E+00  0.00000000E+00
  0.00000000E+00  0.00000000E+00  0.00000000E+00
  0.00000000E+00  0.00000000E+00  0.00000000E+00
  0.00000000E+00  0.00000000E+00  0.00000000E+00
  0.00000000E+00  0.00000000E+00  0.00000000E+00
  0.00000000E+00  0.00000000E+00  0.00000000E+00
  0.00000000E+00  0.00000000E+00  0.00000000E+00
  0.00000000E+00  0.00000000E+00  0.00000000E+00
  0.00000000E+00  0.00000000E+00  0.00000000E+00
  0.00000000E+00  0.00000000E+00  0.00000000E+00
  0.00000000E+00  0.00000000E+00  0.00000000E+00
  0.00000000E+00  0.00000000E+00  0.00000000E+00
  0.00000000E+00  0.00000000E+00  0.00000000E+00
  0.00000000E+00  0.00000000E+00  0.00000000E+00
  0.00000000E+00  0.00000000E+00  0.00000000E+00
  0.00000000E+00  0.00000000E+00  0.00000000E+00
  0.00000000E+00  0.00000000E+00  0.00000000E+00
  0.00000000E+00  0.00000000E+00  0.00000000E+00
  0.00000000E+00  0.00000000E+00  0.00000000E+00
  0.00000000E+00  0.00000000E+00  0.00000000E+00
  0.00000000E+00  0.00000000E+00  0.00000000E+00
  0.00000000E+00  0.00000000E+00  0.00000000E+00
  0.00000000E+00  0.00000000E+00  0.00000000E+00
  0.00000000E+00  0.00000000E+00  0.00000000E+00
  0.00000000E+00  0.00000000E+00  0.00000000E+00
  0.00000000E+00  0.00000000E+00  0.00000000E+00
  0.00000000E+00  0.00000000E+00  0.00000000E+00
  0.00000000E+00  0.00000000E+00  0.00000000E+00
  0.00000000E+00  0.00000000E+00  0.00000000E+00
  0.00000000E+00  0.00000000E+00  0.00000000E+00
  0.00000000E+00  0.00000000E+00  0.00000000E+00
