Bi La Sn O  C  H                        
   1.00000000000000     
    29.0000000000000000    0.0000000000000000    0.0000000000000000
     0.2488180851000000   28.9989325590000000    0.0000000000000000
    -0.0631677343000000   -0.4515975666000000   28.9964147692999994
   Bi   La   Sn   O    C    H 
    22    23    23     2     1     1
Selective dynamics
Direct
  0.7592355570628889  0.4797370829581123  0.3995490634812425   T   T   T
  0.6474352183992591  0.6850629107810465  0.5503403358703022   T   T   T
  0.3604018139263540  0.4582441739427096  0.4281003845462338   T   T   T
  0.5505739193482596  0.7134889052772204  0.5839403532140510   T   T   T
  0.5915029568994470  0.5209714444905416  0.5841479689498996   F   F   F
  0.6402841490254938  0.6797048231643850  0.4441284394353013   T   T   T
  0.6951916146869603  0.5210804114667679  0.6536906327939350   T   T   T
  0.4870091208858331  0.7019101713000975  0.4989029778375888   T   T   T
  0.5004839460855024  0.5502791173970252  0.5477141156400123   F   F   F
  0.3268757088480556  0.4852323992299387  0.5773573862349604   T   T   T
  0.3821514874385976  0.6089490960318821  0.5366852362363991   T   T   T
  0.6667129484492236  0.4827404655721850  0.5105018184570156   F   F   F
  0.5763997220267569  0.4263140504383500  0.5448328182496311   F   F   F
  0.6683479146510839  0.3742503247082400  0.5065251982205017   T   T   T
  0.4615518781930363  0.3378322564790047  0.4964589070352510   T   T   T
  0.6484934028780529  0.5775373212088155  0.4602701624361103   F   F   F
  0.5560373800077519  0.4356857070141495  0.7500198901184199   T   T   T
  0.5960250686232245  0.3490867219787465  0.6677834561657265   T   T   T
  0.4928488319369064  0.2996080028612529  0.4067994681055065   T   T   T
  0.6600038407635356  0.6169496227912182  0.6675976058221936   T   T   T
  0.4916857480148645  0.4102777263486300  0.3050354958400676   T   T   T
  0.6217574720409229  0.3161079177766893  0.5730355563438752   T   T   T
  0.5392465005118441  0.6836454617449479  0.4040518199271462   T   T   T
  0.3899685583914079  0.4153093323026160  0.5260777869641762   T   T   T
  0.6290079403655924  0.5535711692110235  0.2800092090735106   T   T   T
  0.4728400675178870  0.4777765593165715  0.6926142731561593   T   T   T
  0.5683115009887700  0.5094300495444983  0.4784716241115703   F   F   F
  0.4203210565129183  0.5084107200613417  0.5018573595042781   F   F   F
  0.4526394854697594  0.4011440695173820  0.4051883162190051   T   T   T
  0.5641282293690528  0.3500402585045898  0.3530493409059565   T   T   T
  0.4125825972209115  0.5394820467256820  0.6115202508517285   T   T   T
  0.5998280282615867  0.4402783441459024  0.3056300663864747   T   T   T
  0.4545631344398951  0.5994420479784316  0.3633220486215358   T   T   T
  0.4182579736782487  0.4872376935814210  0.3396130606228510   T   T   T
  0.6610083139205352  0.4264697026791670  0.6045140521109575   T   T   T
  0.6733229595518240  0.5790241396709045  0.5642301250843892   T   T   T
  0.5261195274159156  0.5087910626171303  0.3283068510329622   T   T   T
  0.5653243934079496  0.3568311624375222  0.4691490166652361   T   T   T
  0.3157798127935559  0.5398697979391796  0.4929590246824486   T   T   T
  0.6605435456221108  0.4299008312448784  0.4151777859971350   T   T   T
  0.5660841929594156  0.6261437171197244  0.5094829013827464   F   F   F
  0.5957243634362810  0.5273472324244162  0.6900308899307763   T   T   T
  0.4700196798104619  0.6424716890163685  0.5875775260640868   T   T   T
  0.4629687135362965  0.6035911324425993  0.4643342254785148   T   T   T
  0.7170402864229454  0.5754319157637183  0.3840809768345861   T   T   T
  0.5499310510395361  0.5822218838566187  0.4076968008106903   F   F   F
  0.4794126430662260  0.5072205383607624  0.4190535757241776   F   F   F
  0.6953712107274247  0.4829070646163504  0.3246285149096379   T   T   T
  0.7515610862811045  0.4292915248164625  0.4873334300044120   T   T   T
  0.7484235726942278  0.5391821584357507  0.4863473106374821   T   T   T
  0.7484143429354894  0.4894590768229697  0.5722564303669196   T   T   T
  0.6453646038021270  0.4324889492522462  0.7084509406008568   T   T   T
  0.5779677994879575  0.7432929936540505  0.4927921199672618   T   T   T
  0.6192554540844384  0.5183157687966542  0.3801816896793397   F   F   F
  0.5066684852139933  0.5638644051693722  0.6502862067839421   T   T   T
  0.4922009500451665  0.4366758245867572  0.4933013002826740   F   F   F
  0.5608844484509063  0.4404139570509003  0.6454865549417619   F   F   F
  0.5785119530128929  0.6172864706099949  0.6131893284811984   T   T   T
  0.5440824124488440  0.6164612773141664  0.3130685894070212   T   T   T
  0.6278459839676397  0.6259853874614441  0.3588590030229855   T   T   T
  0.3760448684920011  0.5570497539205300  0.4133374388514495   T   T   T
  0.4723078164089713  0.4557257050327763  0.5877273803360978   F   F   F
  0.7270486733127858  0.6360849900250882  0.4851425941535511   T   T   T
  0.4967984347684292  0.3744865750355091  0.6798183607336830   T   T   T
  0.3853142862233256  0.4381817590043431  0.6404447203329772   T   T   T
  0.5544592502646992  0.4379899399457940  0.4037542370104745   F   F   F
  0.4327339344505854  0.3586844720863881  0.6042004532602280   T   T   T
  0.5271447711390080  0.3484875960553967  0.5761931683777597   T   T   T
  0.6562338386777821  0.6189844569484108  0.2432854312303916   T   T   T
  0.6593324639126393  0.6815754289456601  0.2918731351744045   T   T   T
  0.6621110889594626  0.6625183707632667  0.2530432193641481   T   T   T
  0.6703484071866760  0.6839662231897594  0.2226103139604806   T   T   T
 
  0.00000000E+00  0.00000000E+00  0.00000000E+00
  0.00000000E+00  0.00000000E+00  0.00000000E+00
  0.00000000E+00  0.00000000E+00  0.00000000E+00
  0.00000000E+00  0.00000000E+00  0.00000000E+00
  0.00000000E+00  0.00000000E+00  0.00000000E+00
  0.00000000E+00  0.00000000E+00  0.00000000E+00
  0.00000000E+00  0.00000000E+00  0.00000000E+00
  0.00000000E+00  0.00000000E+00  0.00000000E+00
  0.00000000E+00  0.00000000E+00  0.00000000E+00
  0.00000000E+00  0.00000000E+00  0.00000000E+00
  0.00000000E+00  0.00000000E+00  0.00000000E+00
  0.00000000E+00  0.00000000E+00  0.00000000E+00
  0.00000000E+00  0.00000000E+00  0.00000000E+00
  0.00000000E+00  0.00000000E+00  0.00000000E+00
  0.00000000E+00  0.00000000E+00  0.00000000E+00
  0.00000000E+00  0.00000000E+00  0.00000000E+00
  0.00000000E+00  0.00000000E+00  0.00000000E+00
  0.00000000E+00  0.00000000E+00  0.00000000E+00
  0.00000000E+00  0.00000000E+00  0.00000000E+00
  0.00000000E+00  0.00000000E+00  0.00000000E+00
  0.00000000E+00  0.00000000E+00  0.00000000E+00
  0.00000000E+00  0.00000000E+00  0.00000000E+00
  0.00000000E+00  0.00000000E+00  0.00000000E+00
  0.00000000E+00  0.00000000E+00  0.00000000E+00
  0.00000000E+00  0.00000000E+00  0.00000000E+00
  0.00000000E+00  0.00000000E+00  0.00000000E+00
  0.00000000E+00  0.00000000E+00  0.00000000E+00
  0.00000000E+00  0.00000000E+00  0.00000000E+00
  0.00000000E+00  0.00000000E+00  0.00000000E+00
  0.00000000E+00  0.00000000E+00  0.00000000E+00
  0.00000000E+00  0.00000000E+00  0.00000000E+00
  0.00000000E+00  0.00000000E+00  0.00000000E+00
  0.00000000E+00  0.00000000E+00  0.00000000E+00
  0.00000000E+00  0.00000000E+00  0.00000000E+00
  0.00000000E+00  0.00000000E+00  0.00000000E+00
  0.00000000E+00  0.00000000E+00  0.00000000E+00
  0.00000000E+00  0.00000000E+00  0.00000000E+00
  0.00000000E+00  0.00000000E+00  0.00000000E+00
  0.00000000E+00  0.00000000E+00  0.00000000E+00
  0.00000000E+00  0.00000000E+00  0.00000000E+00
  0.00000000E+00  0.00000000E+00  0.00000000E+00
  0.00000000E+00  0.00000000E+00  0.00000000E+00
  0.00000000E+00  0.00000000E+00  0.00000000E+00
  0.00000000E+00  0.00000000E+00  0.00000000E+00
  0.00000000E+00  0.00000000E+00  0.00000000E+00
  0.00000000E+00  0.00000000E+00  0.00000000E+00
  0.00000000E+00  0.00000000E+00  0.00000000E+00
  0.00000000E+00  0.00000000E+00  0.00000000E+00
  0.00000000E+00  0.00000000E+00  0.00000000E+00
  0.00000000E+00  0.00000000E+00  0.00000000E+00
  0.00000000E+00  0.00000000E+00  0.00000000E+00
  0.00000000E+00  0.00000000E+00  0.00000000E+00
  0.00000000E+00  0.00000000E+00  0.00000000E+00
  0.00000000E+00  0.00000000E+00  0.00000000E+00
  0.00000000E+00  0.00000000E+00  0.00000000E+00
  0.00000000E+00  0.00000000E+00  0.00000000E+00
  0.00000000E+00  0.00000000E+00  0.00000000E+00
  0.00000000E+00  0.00000000E+00  0.00000000E+00
  0.00000000E+00  0.00000000E+00  0.00000000E+00
  0.00000000E+00  0.00000000E+00  0.00000000E+00
  0.00000000E+00  0.00000000E+00  0.00000000E+00
  0.00000000E+00  0.00000000E+00  0.00000000E+00
  0.00000000E+00  0.00000000E+00  0.00000000E+00
  0.00000000E+00  0.00000000E+00  0.00000000E+00
  0.00000000E+00  0.00000000E+00  0.00000000E+00
  0.00000000E+00  0.00000000E+00  0.00000000E+00
  0.00000000E+00  0.00000000E+00  0.00000000E+00
  0.00000000E+00  0.00000000E+00  0.00000000E+00
  0.00000000E+00  0.00000000E+00  0.00000000E+00
  0.00000000E+00  0.00000000E+00  0.00000000E+00
  0.00000000E+00  0.00000000E+00  0.00000000E+00
  0.00000000E+00  0.00000000E+00  0.00000000E+00
