Bi La Sn O  C  H                        
   1.00000000000000     
    29.0000000000000000    0.0000000000000000    0.0000000000000000
     0.2488180851000000   28.9989325590000000    0.0000000000000000
    -0.0631677343000000   -0.4515975666000000   28.9964147692999994
   Bi   La   Sn   O    C    H 
    22    23    23     2     1     1
Selective dynamics
Direct
  0.7594437018496774  0.4788508872871869  0.3988292129915796   T   T   T
  0.6482324922773394  0.6846510419019789  0.5496470795659444   T   T   T
  0.3599419290267156  0.4582275529560833  0.4280783940982508   T   T   T
  0.5515393574236308  0.7138978422103218  0.5828806933495253   T   T   T
  0.5915029568994470  0.5209714444905416  0.5841479689498996   F   F   F
  0.6405461883875748  0.6794755281598344  0.4445485110730039   T   T   T
  0.6934390972307022  0.5177707045450488  0.6544162626526179   T   T   T
  0.4872593134851555  0.7017901082050868  0.4975712629614006   T   T   T
  0.5004839460855024  0.5502791173970252  0.5477141156400123   F   F   F
  0.3272336413762512  0.4845225532866124  0.5781117850269780   T   T   T
  0.3819939139755952  0.6095580712254567  0.5364330777778851   T   T   T
  0.6667129484492236  0.4827404655721850  0.5105018184570156   F   F   F
  0.5763997220267569  0.4263140504383500  0.5448328182496311   F   F   F
  0.6689635586628460  0.3734581730916728  0.5052962872120463   T   T   T
  0.4615125890901892  0.3379900356867116  0.4954834103145171   T   T   T
  0.6484934028780529  0.5775373212088155  0.4602701624361103   F   F   F
  0.5556821846143974  0.4291084274699739  0.7492621571970137   T   T   T
  0.5922215145907661  0.3483799378643947  0.6666809114171959   T   T   T
  0.4926499309239657  0.2998616174012206  0.4061450178386344   T   T   T
  0.6609527990431463  0.6138574272042946  0.6685109646159034   T   T   T
  0.4908617563869462  0.4108545471212989  0.3039556719341027   T   T   T
  0.6209770105888834  0.3158967927295421  0.5711191561092082   T   T   T
  0.5396219115515010  0.6834753121784204  0.4034993614872798   T   T   T
  0.3899378376769121  0.4152496851698807  0.5260283215070802   T   T   T
  0.6267291481698063  0.5514944206589673  0.2816588548646504   T   T   T
  0.4737264849662287  0.4813250635404341  0.6949937100818863   T   T   T
  0.5683115009887700  0.5094300495444983  0.4784716241115703   F   F   F
  0.4203210565129183  0.5084107200613417  0.5018573595042781   F   F   F
  0.4525065284553788  0.4016797526032284  0.4047910867127192   T   T   T
  0.5626229842722925  0.3504583110016859  0.3513217872528451   T   T   T
  0.4124447666894275  0.5396115027464483  0.6110355133769023   T   T   T
  0.5995935135391283  0.4414859020798577  0.3047607134741943   T   T   T
  0.4543668726125425  0.5997655869701379  0.3638496216318004   T   T   T
  0.4180566034116099  0.4878881916111332  0.3399795553674729   T   T   T
  0.6610569835760025  0.4241795916125346  0.6033777121874215   T   T   T
  0.6741921006355239  0.5784999677815830  0.5643898214737565   T   T   T
  0.5254611865153034  0.5092573476747573  0.3280561370953944   T   T   T
  0.5654627640275233  0.3567886639348400  0.4687114394506877   T   T   T
  0.3155714281507193  0.5398024731104818  0.4939084350334708   T   T   T
  0.6604736255251701  0.4298230195321402  0.4150747234351785   T   T   T
  0.5660841929594156  0.6261437171197244  0.5094829013827464   F   F   F
  0.5928378435766954  0.5278206103111532  0.6929898284723313   T   T   T
  0.4703639481836625  0.6433120257004510  0.5865407536617238   T   T   T
  0.4626138470478269  0.6033801830733534  0.4641687059366930   T   T   T
  0.7162987924277341  0.5743447019028304  0.3833321610090724   T   T   T
  0.5499310510395361  0.5822218838566187  0.4076968008106903   F   F   F
  0.4794126430662260  0.5072205383607624  0.4190535757241776   F   F   F
  0.6949988573938972  0.4820140003033939  0.3238478114531819   T   T   T
  0.7520492131399298  0.4290474169613695  0.4872774993535939   T   T   T
  0.7485577907529544  0.5374698007945842  0.4852600929232894   T   T   T
  0.7479947574548607  0.4894974365131839  0.5724942106679479   T   T   T
  0.6447704243078928  0.4318943046802303  0.7072015061419474   T   T   T
  0.5778836847817148  0.7436217470753708  0.4917664778146179   T   T   T
  0.6192554540844384  0.5183157687966542  0.3801816896793397   F   F   F
  0.5077384391334300  0.5641086572756387  0.6468850095993945   T   T   T
  0.4922009500451665  0.4366758245867572  0.4933013002826740   F   F   F
  0.5608844484509063  0.4404139570509003  0.6454865549417619   F   F   F
  0.5802278260622070  0.6180170318997608  0.6129474323026426   T   T   T
  0.5431836357689073  0.6167227609360373  0.3117949358564770   T   T   T
  0.6266285213144596  0.6244204952597835  0.3595432126465838   T   T   T
  0.3757232310129033  0.5572124440403035  0.4139707375943072   T   T   T
  0.4723078164089713  0.4557257050327763  0.5877273803360978   F   F   F
  0.7278663842204508  0.6346007939437955  0.4840987757948219   T   T   T
  0.4938074955300141  0.3770808267029338  0.6785107122517098   T   T   T
  0.3876511470093149  0.4375309870808117  0.6405925796937132   T   T   T
  0.5544592502646992  0.4379899399457940  0.4037542370104745   F   F   F
  0.4326920555718179  0.3569397807434616  0.6025877371237235   T   T   T
  0.5268353874305586  0.3483158281995798  0.5752410509837370   T   T   T
  0.5499890694740224  0.5644562388070361  0.7562212553536206   T   T   T
  0.4763499873495370  0.5390078139459946  0.7571837628948263   T   T   T
  0.5088745804060525  0.5649650336056961  0.7712815161498895   T   T   T
  0.5003803020063960  0.5905924091123188  0.7988974424043186   T   T   T
 
  0.00000000E+00  0.00000000E+00  0.00000000E+00
  0.00000000E+00  0.00000000E+00  0.00000000E+00
  0.00000000E+00  0.00000000E+00  0.00000000E+00
  0.00000000E+00  0.00000000E+00  0.00000000E+00
  0.00000000E+00  0.00000000E+00  0.00000000E+00
  0.00000000E+00  0.00000000E+00  0.00000000E+00
  0.00000000E+00  0.00000000E+00  0.00000000E+00
  0.00000000E+00  0.00000000E+00  0.00000000E+00
  0.00000000E+00  0.00000000E+00  0.00000000E+00
  0.00000000E+00  0.00000000E+00  0.00000000E+00
  0.00000000E+00  0.00000000E+00  0.00000000E+00
  0.00000000E+00  0.00000000E+00  0.00000000E+00
  0.00000000E+00  0.00000000E+00  0.00000000E+00
  0.00000000E+00  0.00000000E+00  0.00000000E+00
  0.00000000E+00  0.00000000E+00  0.00000000E+00
  0.00000000E+00  0.00000000E+00  0.00000000E+00
  0.00000000E+00  0.00000000E+00  0.00000000E+00
  0.00000000E+00  0.00000000E+00  0.00000000E+00
  0.00000000E+00  0.00000000E+00  0.00000000E+00
  0.00000000E+00  0.00000000E+00  0.00000000E+00
  0.00000000E+00  0.00000000E+00  0.00000000E+00
  0.00000000E+00  0.00000000E+00  0.00000000E+00
  0.00000000E+00  0.00000000E+00  0.00000000E+00
  0.00000000E+00  0.00000000E+00  0.00000000E+00
  0.00000000E+00  0.00000000E+00  0.00000000E+00
  0.00000000E+00  0.00000000E+00  0.00000000E+00
  0.00000000E+00  0.00000000E+00  0.00000000E+00
  0.00000000E+00  0.00000000E+00  0.00000000E+00
  0.00000000E+00  0.00000000E+00  0.00000000E+00
  0.00000000E+00  0.00000000E+00  0.00000000E+00
  0.00000000E+00  0.00000000E+00  0.00000000E+00
  0.00000000E+00  0.00000000E+00  0.00000000E+00
  0.00000000E+00  0.00000000E+00  0.00000000E+00
  0.00000000E+00  0.00000000E+00  0.00000000E+00
  0.00000000E+00  0.00000000E+00  0.00000000E+00
  0.00000000E+00  0.00000000E+00  0.00000000E+00
  0.00000000E+00  0.00000000E+00  0.00000000E+00
  0.00000000E+00  0.00000000E+00  0.00000000E+00
  0.00000000E+00  0.00000000E+00  0.00000000E+00
  0.00000000E+00  0.00000000E+00  0.00000000E+00
  0.00000000E+00  0.00000000E+00  0.00000000E+00
  0.00000000E+00  0.00000000E+00  0.00000000E+00
  0.00000000E+00  0.00000000E+00  0.00000000E+00
  0.00000000E+00  0.00000000E+00  0.00000000E+00
  0.00000000E+00  0.00000000E+00  0.00000000E+00
  0.00000000E+00  0.00000000E+00  0.00000000E+00
  0.00000000E+00  0.00000000E+00  0.00000000E+00
  0.00000000E+00  0.00000000E+00  0.00000000E+00
  0.00000000E+00  0.00000000E+00  0.00000000E+00
  0.00000000E+00  0.00000000E+00  0.00000000E+00
  0.00000000E+00  0.00000000E+00  0.00000000E+00
  0.00000000E+00  0.00000000E+00  0.00000000E+00
  0.00000000E+00  0.00000000E+00  0.00000000E+00
  0.00000000E+00  0.00000000E+00  0.00000000E+00
  0.00000000E+00  0.00000000E+00  0.00000000E+00
  0.00000000E+00  0.00000000E+00  0.00000000E+00
  0.00000000E+00  0.00000000E+00  0.00000000E+00
  0.00000000E+00  0.00000000E+00  0.00000000E+00
  0.00000000E+00  0.00000000E+00  0.00000000E+00
  0.00000000E+00  0.00000000E+00  0.00000000E+00
  0.00000000E+00  0.00000000E+00  0.00000000E+00
  0.00000000E+00  0.00000000E+00  0.00000000E+00
  0.00000000E+00  0.00000000E+00  0.00000000E+00
  0.00000000E+00  0.00000000E+00  0.00000000E+00
  0.00000000E+00  0.00000000E+00  0.00000000E+00
  0.00000000E+00  0.00000000E+00  0.00000000E+00
  0.00000000E+00  0.00000000E+00  0.00000000E+00
  0.00000000E+00  0.00000000E+00  0.00000000E+00
  0.00000000E+00  0.00000000E+00  0.00000000E+00
  0.00000000E+00  0.00000000E+00  0.00000000E+00
  0.00000000E+00  0.00000000E+00  0.00000000E+00
  0.00000000E+00  0.00000000E+00  0.00000000E+00
