Bi La Sn O  C  H                        
   1.00000000000000     
    29.0000000000000000    0.0000000000000000    0.0000000000000000
     0.2488180851000000   28.9989325590000000    0.0000000000000000
    -0.0631677343000000   -0.4515975666000000   28.9964147692999994
   Bi   La   Sn   O    C    H 
    22    23    23     2     1     1
Selective dynamics
Direct
  0.7596137864471864  0.4794963982017966  0.3996117380952682   T   T   T
  0.6468217947865630  0.6841913509780729  0.5518373039637526   T   T   T
  0.3598123194811151  0.4581044722923105  0.4284140405238551   T   T   T
  0.5500420710557324  0.7129565134395089  0.5846163589979727   T   T   T
  0.5915029568994470  0.5209714444905416  0.5841479689498996   F   F   F
  0.6406409533983557  0.6801111049568894  0.4454650983029937   T   T   T
  0.6954464820064322  0.5222785668669534  0.6542398178822169   T   T   T
  0.4869534713702364  0.7013803538522686  0.4993613897093169   T   T   T
  0.5004839460855024  0.5502791173970252  0.5477141156400123   F   F   F
  0.3247957157570770  0.4858485175000469  0.5746154137676683   T   T   T
  0.3814643897765244  0.6102620581129883  0.5350397540717856   T   T   T
  0.6667129484492236  0.4827404655721850  0.5105018184570156   F   F   F
  0.5763997220267569  0.4263140504383500  0.5448328182496311   F   F   F
  0.6684871902709709  0.3744052080885839  0.5070963273167636   T   T   T
  0.4628553145700941  0.3384362750793162  0.4999108368977716   T   T   T
  0.6484934028780529  0.5775373212088155  0.4602701624361103   F   F   F
  0.5577117955227856  0.4375580824977742  0.7500717643069865   T   T   T
  0.6038559143043476  0.3509179911894076  0.6689868354504082   T   T   T
  0.4923197973889857  0.2984494935268926  0.4104374178446271   T   T   T
  0.6597864016828787  0.6184972582605384  0.6661986876624916   T   T   T
  0.4929586731553502  0.4103166334738762  0.3073570881533552   T   T   T
  0.6221056991010766  0.3156873616529444  0.5732442726899331   T   T   T
  0.5394863351682817  0.6832828318792760  0.4045619627037062   T   T   T
  0.3903793251302935  0.4152972508742030  0.5272418771645222   T   T   T
  0.6285489016212107  0.5533769734879370  0.2799962478493896   T   T   T
  0.4715489952761812  0.4712739777759536  0.6918435203834140   T   T   T
  0.5683115009887700  0.5094300495444983  0.4784716241115703   F   F   F
  0.4203210565129183  0.5084107200613417  0.5018573595042781   F   F   F
  0.4523126321889511  0.4004898727732405  0.4069025122515175   T   T   T
  0.5636238118017874  0.3485390084174425  0.3550088730810908   T   T   T
  0.4106975293813888  0.5399769996563871  0.6094148216787698   T   T   T
  0.6011163759326427  0.4394266157402892  0.3061026116263646   T   T   T
  0.4554971481747109  0.5992782651845125  0.3628990487697460   T   T   T
  0.4184209440721816  0.4865974522196231  0.3397604209075851   T   T   T
  0.6614320772788097  0.4275233249018019  0.6044592915772101   T   T   T
  0.6733884138583875  0.5785338367956882  0.5640764223497120   T   T   T
  0.5262724381223040  0.5102852437388969  0.3277848066296125   T   T   T
  0.5655863771884881  0.3574715817616828  0.4691379510820021   T   T   T
  0.3154483891694438  0.5411064835815835  0.4909727955092144   T   T   T
  0.6606024011981417  0.4295398764967202  0.4152890795051883   T   T   T
  0.5660841929594156  0.6261437171197244  0.5094829013827464   F   F   F
  0.5953915827632477  0.5287957380863675  0.6896716944045524   T   T   T
  0.4693299187428999  0.6416206229237447  0.5880399798432224   T   T   T
  0.4626629981604333  0.6033871869879726  0.4642446024720841   T   T   T
  0.7168874672797042  0.5754637732616951  0.3840852763973978   T   T   T
  0.5499310510395361  0.5822218838566187  0.4076968008106903   F   F   F
  0.4794126430662260  0.5072205383607624  0.4190535757241776   F   F   F
  0.6958616780396960  0.4825693178837513  0.3250730976927424   T   T   T
  0.7518544011520076  0.4296715297651079  0.4878930326252222   T   T   T
  0.7484178432660713  0.5388524729225490  0.4860825529461252   T   T   T
  0.7485307447600106  0.4902373828396077  0.5726172904483673   T   T   T
  0.6473918752057277  0.4368383246996452  0.7088240720264378   T   T   T
  0.5776412135713772  0.7432710377313152  0.4935712088470994   T   T   T
  0.6192554540844384  0.5183157687966542  0.3801816896793397   F   F   F
  0.5045577577193642  0.5600957623230700  0.6500225689992548   T   T   T
  0.4922009500451665  0.4366758245867572  0.4933013002826740   F   F   F
  0.5608844484509063  0.4404139570509003  0.6454865549417619   F   F   F
  0.5769300908600951  0.6161351154257197  0.6135981420735844   T   T   T
  0.5441571708385092  0.6182647777781098  0.3104922659632158   T   T   T
  0.6261643313346564  0.6250262114757376  0.3604232084702008   T   T   T
  0.3771607914511798  0.5564941003780980  0.4123310693015754   T   T   T
  0.4723078164089713  0.4557257050327763  0.5877273803360978   F   F   F
  0.7273908551220953  0.6355393154758665  0.4853103492282021   T   T   T
  0.5042208970510195  0.3690155235687326  0.6838311389495545   T   T   T
  0.3813881344477401  0.4409947546480501  0.6400112570598576   T   T   T
  0.5544592502646992  0.4379899399457940  0.4037542370104745   F   F   F
  0.4345842755664309  0.3633649770709035  0.6102808158621709   T   T   T
  0.5284743775195199  0.3489405574621354  0.5791240681482787   T   T   T
  0.6072169031757003  0.5978685518601614  0.2157168642515226   T   T   T
  0.5521286377284219  0.6525872380763162  0.2306568928193146   T   T   T
  0.5814049739557253  0.6327566861270610  0.2052401085859172   T   T   T
  0.5861677567401963  0.6461722116306517  0.1698214148446296   T   T   T
 
  0.00000000E+00  0.00000000E+00  0.00000000E+00
  0.00000000E+00  0.00000000E+00  0.00000000E+00
  0.00000000E+00  0.00000000E+00  0.00000000E+00
  0.00000000E+00  0.00000000E+00  0.00000000E+00
  0.00000000E+00  0.00000000E+00  0.00000000E+00
  0.00000000E+00  0.00000000E+00  0.00000000E+00
  0.00000000E+00  0.00000000E+00  0.00000000E+00
  0.00000000E+00  0.00000000E+00  0.00000000E+00
  0.00000000E+00  0.00000000E+00  0.00000000E+00
  0.00000000E+00  0.00000000E+00  0.00000000E+00
  0.00000000E+00  0.00000000E+00  0.00000000E+00
  0.00000000E+00  0.00000000E+00  0.00000000E+00
  0.00000000E+00  0.00000000E+00  0.00000000E+00
  0.00000000E+00  0.00000000E+00  0.00000000E+00
  0.00000000E+00  0.00000000E+00  0.00000000E+00
  0.00000000E+00  0.00000000E+00  0.00000000E+00
  0.00000000E+00  0.00000000E+00  0.00000000E+00
  0.00000000E+00  0.00000000E+00  0.00000000E+00
  0.00000000E+00  0.00000000E+00  0.00000000E+00
  0.00000000E+00  0.00000000E+00  0.00000000E+00
  0.00000000E+00  0.00000000E+00  0.00000000E+00
  0.00000000E+00  0.00000000E+00  0.00000000E+00
  0.00000000E+00  0.00000000E+00  0.00000000E+00
  0.00000000E+00  0.00000000E+00  0.00000000E+00
  0.00000000E+00  0.00000000E+00  0.00000000E+00
  0.00000000E+00  0.00000000E+00  0.00000000E+00
  0.00000000E+00  0.00000000E+00  0.00000000E+00
  0.00000000E+00  0.00000000E+00  0.00000000E+00
  0.00000000E+00  0.00000000E+00  0.00000000E+00
  0.00000000E+00  0.00000000E+00  0.00000000E+00
  0.00000000E+00  0.00000000E+00  0.00000000E+00
  0.00000000E+00  0.00000000E+00  0.00000000E+00
  0.00000000E+00  0.00000000E+00  0.00000000E+00
  0.00000000E+00  0.00000000E+00  0.00000000E+00
  0.00000000E+00  0.00000000E+00  0.00000000E+00
  0.00000000E+00  0.00000000E+00  0.00000000E+00
  0.00000000E+00  0.00000000E+00  0.00000000E+00
  0.00000000E+00  0.00000000E+00  0.00000000E+00
  0.00000000E+00  0.00000000E+00  0.00000000E+00
  0.00000000E+00  0.00000000E+00  0.00000000E+00
  0.00000000E+00  0.00000000E+00  0.00000000E+00
  0.00000000E+00  0.00000000E+00  0.00000000E+00
  0.00000000E+00  0.00000000E+00  0.00000000E+00
  0.00000000E+00  0.00000000E+00  0.00000000E+00
  0.00000000E+00  0.00000000E+00  0.00000000E+00
  0.00000000E+00  0.00000000E+00  0.00000000E+00
  0.00000000E+00  0.00000000E+00  0.00000000E+00
  0.00000000E+00  0.00000000E+00  0.00000000E+00
  0.00000000E+00  0.00000000E+00  0.00000000E+00
  0.00000000E+00  0.00000000E+00  0.00000000E+00
  0.00000000E+00  0.00000000E+00  0.00000000E+00
  0.00000000E+00  0.00000000E+00  0.00000000E+00
  0.00000000E+00  0.00000000E+00  0.00000000E+00
  0.00000000E+00  0.00000000E+00  0.00000000E+00
  0.00000000E+00  0.00000000E+00  0.00000000E+00
  0.00000000E+00  0.00000000E+00  0.00000000E+00
  0.00000000E+00  0.00000000E+00  0.00000000E+00
  0.00000000E+00  0.00000000E+00  0.00000000E+00
  0.00000000E+00  0.00000000E+00  0.00000000E+00
  0.00000000E+00  0.00000000E+00  0.00000000E+00
  0.00000000E+00  0.00000000E+00  0.00000000E+00
  0.00000000E+00  0.00000000E+00  0.00000000E+00
  0.00000000E+00  0.00000000E+00  0.00000000E+00
  0.00000000E+00  0.00000000E+00  0.00000000E+00
  0.00000000E+00  0.00000000E+00  0.00000000E+00
  0.00000000E+00  0.00000000E+00  0.00000000E+00
  0.00000000E+00  0.00000000E+00  0.00000000E+00
  0.00000000E+00  0.00000000E+00  0.00000000E+00
  0.00000000E+00  0.00000000E+00  0.00000000E+00
  0.00000000E+00  0.00000000E+00  0.00000000E+00
  0.00000000E+00  0.00000000E+00  0.00000000E+00
  0.00000000E+00  0.00000000E+00  0.00000000E+00
