Bi La Sn O  C  H                        
   1.00000000000000     
    29.0000000000000000    0.0000000000000000    0.0000000000000000
     0.2488180851000000   28.9989325590000000    0.0000000000000000
    -0.0631677343000000   -0.4515975666000000   28.9964147692999994
   Bi   La   Sn   O    C    H 
    22    23    23     2     1     1
Selective dynamics
Direct
  0.7605430460132784  0.4769984691130522  0.3972538480642509   T   T   T
  0.6481717802744917  0.6852621438462128  0.5493850063384331   T   T   T
  0.3600544333320532  0.4585114560969905  0.4275290184349501   T   T   T
  0.5511339598617361  0.7152846264888156  0.5821338687726177   T   T   T
  0.5915029568994470  0.5209714444905416  0.5841479689498996   F   F   F
  0.6406831101455561  0.6793875037092723  0.4445596498141833   T   T   T
  0.6928464512419569  0.5166331984810257  0.6528672961378762   T   T   T
  0.4882726339698782  0.7026999589097844  0.4978186492430966   T   T   T
  0.5004839460855024  0.5502791173970252  0.5477141156400123   F   F   F
  0.3278516641166307  0.4850754859721339  0.5782524083190600   T   T   T
  0.3823004724853860  0.6083768548163994  0.5373607501205421   T   T   T
  0.6667129484492236  0.4827404655721850  0.5105018184570156   F   F   F
  0.5763997220267569  0.4263140504383500  0.5448328182496311   F   F   F
  0.6681936222466272  0.3739968728544165  0.5060348824141565   T   T   T
  0.4605170857489310  0.3376158721333176  0.4941998058607746   T   T   T
  0.6484934028780529  0.5775373212088155  0.4602701624361103   F   F   F
  0.5541973198510852  0.4352848689349358  0.7494728464198911   T   T   T
  0.5910284352940153  0.3480796207672169  0.6658092023912219   T   T   T
  0.4927378367071859  0.3005084142323503  0.4045723960607713   T   T   T
  0.6635930538990988  0.6150754217675217  0.6690180627593536   T   T   T
  0.4907165806042173  0.4109253345052759  0.3036932258883919   T   T   T
  0.6200324462823318  0.3156457480756873  0.5715235623367809   T   T   T
  0.5396000214463983  0.6831597859893845  0.4028425280449970   T   T   T
  0.3895882811657724  0.4154045206286064  0.5253126800416852   T   T   T
  0.6280054095021937  0.5510087363517537  0.2826487269571412   T   T   T
  0.4732388315378965  0.4816345718368096  0.6921957013535227   T   T   T
  0.5683115009887700  0.5094300495444983  0.4784716241115703   F   F   F
  0.4203210565129183  0.5084107200613417  0.5018573595042781   F   F   F
  0.4525167637187503  0.4020693045627831  0.4042530154517035   T   T   T
  0.5637044216853209  0.3508336494311602  0.3511082610134695   T   T   T
  0.4133833382996387  0.5391718504585078  0.6121325321112606   T   T   T
  0.5981257424790778  0.4426643123565762  0.3034420698363637   T   T   T
  0.4545718688536342  0.6000375932955312  0.3637700746416417   T   T   T
  0.4182585218944849  0.4883282576235286  0.3396174505769454   T   T   T
  0.6608238753384102  0.4247810307576620  0.6039225178011282   T   T   T
  0.6741694608897957  0.5793669350016887  0.5644460124810698   T   T   T
  0.5257106796350177  0.5093369493461056  0.3282209374901203   T   T   T
  0.5649026671766949  0.3564495752230264  0.4689824955304623   T   T   T
  0.3155543566334804  0.5394005024930907  0.4935259312635516   T   T   T
  0.6601118588487189  0.4296619407657607  0.4152661911613483   T   T   T
  0.5660841929594156  0.6261437171197244  0.5094829013827464   F   F   F
  0.5946504992774014  0.5279121343564857  0.6901366652571156   T   T   T
  0.4705855147256737  0.6436115676610757  0.5859794366592528   T   T   T
  0.4628090146734782  0.6037878247506864  0.4639884406581304   T   T   T
  0.7160677655847989  0.5729051703340716  0.3825893539908171   T   T   T
  0.5499310510395361  0.5822218838566187  0.4076968008106903   F   F   F
  0.4794126430662260  0.5072205383607624  0.4190535757241776   F   F   F
  0.6946978909791851  0.4796713824263458  0.3240069245407995   T   T   T
  0.7518734049410705  0.4292891879856757  0.4863596824006970   T   T   T
  0.7484940401309651  0.5364008379424171  0.4833838046549361   T   T   T
  0.7483992698837060  0.4901097807943667  0.5719174759453022   T   T   T
  0.6436576777944665  0.4307429133158659  0.7080642771932460   T   T   T
  0.5785202327517691  0.7440764961979167  0.4907688960672222   T   T   T
  0.6192554540844384  0.5183157687966542  0.3801816896793397   F   F   F
  0.5074831922539689  0.5671058470856103  0.6494771351684896   T   T   T
  0.4922009500451665  0.4366758245867572  0.4933013002826740   F   F   F
  0.5608844484509063  0.4404139570509003  0.6454865549417619   F   F   F
  0.5812472015782816  0.6178777406375660  0.6130728250970193   T   T   T
  0.5436580531627693  0.6168269632489937  0.3119156472548102   T   T   T
  0.6272657835340386  0.6248211511130679  0.3592590903264104   T   T   T
  0.3763072522190940  0.5575255994976624  0.4141636798539239   T   T   T
  0.4723078164089713  0.4557257050327763  0.5877273803360978   F   F   F
  0.7280303993561905  0.6340863652663600  0.4830369126945580   T   T   T
  0.4919951111465223  0.3783336953827615  0.6772414100371944   T   T   T
  0.3876526168734247  0.4367601527256849  0.6404072539675254   T   T   T
  0.5544592502646992  0.4379899399457940  0.4037542370104745   F   F   F
  0.4311050144886679  0.3559262630952701  0.6012317678956376   T   T   T
  0.5252075121536629  0.3491664698437436  0.5743148014130900   T   T   T
  0.6739603675504340  0.7063897291123257  0.6789447072226162   T   T   T
  0.5975355399030250  0.6955451926313195  0.6648526667922461   T   T   T
  0.6335395882416784  0.7204959541015452  0.6713000777520201   T   T   T
  0.6279729588427223  0.7585889530192867  0.6699261002444454   T   T   T
 
  0.00000000E+00  0.00000000E+00  0.00000000E+00
  0.00000000E+00  0.00000000E+00  0.00000000E+00
  0.00000000E+00  0.00000000E+00  0.00000000E+00
  0.00000000E+00  0.00000000E+00  0.00000000E+00
  0.00000000E+00  0.00000000E+00  0.00000000E+00
  0.00000000E+00  0.00000000E+00  0.00000000E+00
  0.00000000E+00  0.00000000E+00  0.00000000E+00
  0.00000000E+00  0.00000000E+00  0.00000000E+00
  0.00000000E+00  0.00000000E+00  0.00000000E+00
  0.00000000E+00  0.00000000E+00  0.00000000E+00
  0.00000000E+00  0.00000000E+00  0.00000000E+00
  0.00000000E+00  0.00000000E+00  0.00000000E+00
  0.00000000E+00  0.00000000E+00  0.00000000E+00
  0.00000000E+00  0.00000000E+00  0.00000000E+00
  0.00000000E+00  0.00000000E+00  0.00000000E+00
  0.00000000E+00  0.00000000E+00  0.00000000E+00
  0.00000000E+00  0.00000000E+00  0.00000000E+00
  0.00000000E+00  0.00000000E+00  0.00000000E+00
  0.00000000E+00  0.00000000E+00  0.00000000E+00
  0.00000000E+00  0.00000000E+00  0.00000000E+00
  0.00000000E+00  0.00000000E+00  0.00000000E+00
  0.00000000E+00  0.00000000E+00  0.00000000E+00
  0.00000000E+00  0.00000000E+00  0.00000000E+00
  0.00000000E+00  0.00000000E+00  0.00000000E+00
  0.00000000E+00  0.00000000E+00  0.00000000E+00
  0.00000000E+00  0.00000000E+00  0.00000000E+00
  0.00000000E+00  0.00000000E+00  0.00000000E+00
  0.00000000E+00  0.00000000E+00  0.00000000E+00
  0.00000000E+00  0.00000000E+00  0.00000000E+00
  0.00000000E+00  0.00000000E+00  0.00000000E+00
  0.00000000E+00  0.00000000E+00  0.00000000E+00
  0.00000000E+00  0.00000000E+00  0.00000000E+00
  0.00000000E+00  0.00000000E+00  0.00000000E+00
  0.00000000E+00  0.00000000E+00  0.00000000E+00
  0.00000000E+00  0.00000000E+00  0.00000000E+00
  0.00000000E+00  0.00000000E+00  0.00000000E+00
  0.00000000E+00  0.00000000E+00  0.00000000E+00
  0.00000000E+00  0.00000000E+00  0.00000000E+00
  0.00000000E+00  0.00000000E+00  0.00000000E+00
  0.00000000E+00  0.00000000E+00  0.00000000E+00
  0.00000000E+00  0.00000000E+00  0.00000000E+00
  0.00000000E+00  0.00000000E+00  0.00000000E+00
  0.00000000E+00  0.00000000E+00  0.00000000E+00
  0.00000000E+00  0.00000000E+00  0.00000000E+00
  0.00000000E+00  0.00000000E+00  0.00000000E+00
  0.00000000E+00  0.00000000E+00  0.00000000E+00
  0.00000000E+00  0.00000000E+00  0.00000000E+00
  0.00000000E+00  0.00000000E+00  0.00000000E+00
  0.00000000E+00  0.00000000E+00  0.00000000E+00
  0.00000000E+00  0.00000000E+00  0.00000000E+00
  0.00000000E+00  0.00000000E+00  0.00000000E+00
  0.00000000E+00  0.00000000E+00  0.00000000E+00
  0.00000000E+00  0.00000000E+00  0.00000000E+00
  0.00000000E+00  0.00000000E+00  0.00000000E+00
  0.00000000E+00  0.00000000E+00  0.00000000E+00
  0.00000000E+00  0.00000000E+00  0.00000000E+00
  0.00000000E+00  0.00000000E+00  0.00000000E+00
  0.00000000E+00  0.00000000E+00  0.00000000E+00
  0.00000000E+00  0.00000000E+00  0.00000000E+00
  0.00000000E+00  0.00000000E+00  0.00000000E+00
  0.00000000E+00  0.00000000E+00  0.00000000E+00
  0.00000000E+00  0.00000000E+00  0.00000000E+00
  0.00000000E+00  0.00000000E+00  0.00000000E+00
  0.00000000E+00  0.00000000E+00  0.00000000E+00
  0.00000000E+00  0.00000000E+00  0.00000000E+00
  0.00000000E+00  0.00000000E+00  0.00000000E+00
  0.00000000E+00  0.00000000E+00  0.00000000E+00
  0.00000000E+00  0.00000000E+00  0.00000000E+00
  0.00000000E+00  0.00000000E+00  0.00000000E+00
  0.00000000E+00  0.00000000E+00  0.00000000E+00
  0.00000000E+00  0.00000000E+00  0.00000000E+00
  0.00000000E+00  0.00000000E+00  0.00000000E+00
