Bi La Sn O  C  H                        
   1.00000000000000     
    29.0000000000000000    0.0000000000000000    0.0000000000000000
     0.2488180851000000   28.9989325590000000    0.0000000000000000
    -0.0631677343000000   -0.4515975666000000   28.9964147692999994
   Bi   La   Sn   O    C    H 
    22    23    23     2     1     1
Selective dynamics
Direct
  0.7630649722430672  0.4747418559657743  0.4010877271932855   T   T   T
  0.6480102263307720  0.6839796687546087  0.5502576052425661   T   T   T
  0.3616604399759276  0.4565530708888333  0.4271893426163008   T   T   T
  0.5522673222156895  0.7136688552245117  0.5846775472814743   T   T   T
  0.5915029568994470  0.5209714444905416  0.5841479689498996   F   F   F
  0.6399924813441639  0.6795627123305364  0.4434559450054885   T   T   T
  0.6954903182576820  0.5221724681890924  0.6543114155209908   T   T   T
  0.4887069225271256  0.7040315809281443  0.5005537366059223   T   T   T
  0.5004839460855024  0.5502791173970252  0.5477141156400123   F   F   F
  0.3260242795709480  0.4873117067670867  0.5726904626579087   T   T   T
  0.3824050386347479  0.6099419043219407  0.5361658584384227   T   T   T
  0.6667129484492236  0.4827404655721850  0.5105018184570156   F   F   F
  0.5763997220267569  0.4263140504383500  0.5448328182496311   F   F   F
  0.6684837106233676  0.3741955041339795  0.5074916638341334   T   T   T
  0.4637979270694265  0.3383643169815284  0.4995434901560505   T   T   T
  0.6484934028780529  0.5775373212088155  0.4602701624361103   F   F   F
  0.5562821283262722  0.4366254378589890  0.7501385769249573   T   T   T
  0.6015660599459435  0.3504758376078967  0.6696534034925912   T   T   T
  0.4939199179179023  0.2990763707320475  0.4095298042850379   T   T   T
  0.6598051108494883  0.6174853611043140  0.6674071055826253   T   T   T
  0.4985080913222038  0.4061227052121251  0.3090022134777156   T   T   T
  0.6220631768592914  0.3161021967469145  0.5739960718620182   T   T   T
  0.5361107802457696  0.6845938953191949  0.4021717221356750   T   T   T
  0.3901307094183646  0.4139927142905043  0.5267133965166525   T   T   T
  0.6327615223834713  0.5484805010128957  0.2821708228273544   T   T   T
  0.4708685526719802  0.4725620581701581  0.6913783247306101   T   T   T
  0.5683115009887700  0.5094300495444983  0.4784716241115703   F   F   F
  0.4203210565129183  0.5084107200613417  0.5018573595042781   F   F   F
  0.4539368827657458  0.4001108221623457  0.4066293876403672   T   T   T
  0.5703170641971768  0.3459387949698526  0.3588767273895462   T   T   T
  0.4115923861387162  0.5401686631647464  0.6107251956789609   T   T   T
  0.6038279821940180  0.4375916045074170  0.3079178193780616   T   T   T
  0.4551793204778181  0.6025064948174681  0.3506644019321718   T   T   T
  0.4227173479522439  0.4819539212289234  0.3373381654823437   T   T   T
  0.6607218001107330  0.4280411920172720  0.6048710052201712   T   T   T
  0.6736973504302349  0.5793288133861999  0.5643023723877758   T   T   T
  0.5275440779790028  0.5081338318665050  0.3278251311896666   T   T   T
  0.5663971172537341  0.3575361137104281  0.4693947949852432   T   T   T
  0.3183208540371014  0.5419414323635249  0.4879033848160189   T   T   T
  0.6608708986844480  0.4293369599777506  0.4160537164829041   T   T   T
  0.5660841929594156  0.6261437171197244  0.5094829013827464   F   F   F
  0.5954926276404239  0.5280907052088692  0.6900967692456441   T   T   T
  0.4709114619001911  0.6422309276671316  0.5879242773310446   T   T   T
  0.4637889613525585  0.6060362177784510  0.4648393148171657   T   T   T
  0.7188309370518716  0.5705486961253512  0.3849389630439632   T   T   T
  0.5499310510395361  0.5822218838566187  0.4076968008106903   F   F   F
  0.4794126430662260  0.5072205383607624  0.4190535757241776   F   F   F
  0.6989086551958191  0.4791374193250294  0.3266200170172736   T   T   T
  0.7518611173451891  0.4275053648004371  0.4897265461744235   T   T   T
  0.7487054947302655  0.5369398155686183  0.4861202670955455   T   T   T
  0.7482368225016413  0.4896871243163486  0.5730497218115967   T   T   T
  0.6463445127548105  0.4354128087645516  0.7093502303417634   T   T   T
  0.5799997916381325  0.7433702310867627  0.4928296173429002   T   T   T
  0.6192554540844384  0.5183157687966542  0.3801816896793397   F   F   F
  0.5052771837283634  0.5611404184032673  0.6504008679552659   T   T   T
  0.4922009500451665  0.4366758245867572  0.4933013002826740   F   F   F
  0.5608844484509063  0.4404139570509003  0.6454865549417619   F   F   F
  0.5778256238908771  0.6163145145887405  0.6135927162535594   T   T   T
  0.5513764939963030  0.6150811271208730  0.3119940182417310   T   T   T
  0.6327676640496146  0.6230136423754251  0.3594256263547333   T   T   T
  0.3819090466394896  0.5524294847025921  0.4089548385449661   T   T   T
  0.4723078164089713  0.4557257050327763  0.5877273803360978   F   F   F
  0.7268338329570134  0.6348948590143152  0.4826564553906858   T   T   T
  0.5021271110619745  0.3697315919930476  0.6849919911860810   T   T   T
  0.3804078076422427  0.4411530405158086  0.6388352038086293   T   T   T
  0.5544592502646992  0.4379899399457940  0.4037542370104745   F   F   F
  0.4343723391224275  0.3634752900385048  0.6101630545253084   T   T   T
  0.5280822027557337  0.3494703477423295  0.5797584678029408   T   T   T
  0.4640297203441742  0.6864430698976309  0.3672929147325535   T   T   T
  0.4145222723624507  0.6432445054878306  0.4112412386113873   T   T   T
  0.4428539040913809  0.6813500923891987  0.4101233236454563   T   T   T
  0.4250451087141153  0.7128992565402857  0.4221601521581329   T   T   T
 
  0.00000000E+00  0.00000000E+00  0.00000000E+00
  0.00000000E+00  0.00000000E+00  0.00000000E+00
  0.00000000E+00  0.00000000E+00  0.00000000E+00
  0.00000000E+00  0.00000000E+00  0.00000000E+00
  0.00000000E+00  0.00000000E+00  0.00000000E+00
  0.00000000E+00  0.00000000E+00  0.00000000E+00
  0.00000000E+00  0.00000000E+00  0.00000000E+00
  0.00000000E+00  0.00000000E+00  0.00000000E+00
  0.00000000E+00  0.00000000E+00  0.00000000E+00
  0.00000000E+00  0.00000000E+00  0.00000000E+00
  0.00000000E+00  0.00000000E+00  0.00000000E+00
  0.00000000E+00  0.00000000E+00  0.00000000E+00
  0.00000000E+00  0.00000000E+00  0.00000000E+00
  0.00000000E+00  0.00000000E+00  0.00000000E+00
  0.00000000E+00  0.00000000E+00  0.00000000E+00
  0.00000000E+00  0.00000000E+00  0.00000000E+00
  0.00000000E+00  0.00000000E+00  0.00000000E+00
  0.00000000E+00  0.00000000E+00  0.00000000E+00
  0.00000000E+00  0.00000000E+00  0.00000000E+00
  0.00000000E+00  0.00000000E+00  0.00000000E+00
  0.00000000E+00  0.00000000E+00  0.00000000E+00
  0.00000000E+00  0.00000000E+00  0.00000000E+00
  0.00000000E+00  0.00000000E+00  0.00000000E+00
  0.00000000E+00  0.00000000E+00  0.00000000E+00
  0.00000000E+00  0.00000000E+00  0.00000000E+00
  0.00000000E+00  0.00000000E+00  0.00000000E+00
  0.00000000E+00  0.00000000E+00  0.00000000E+00
  0.00000000E+00  0.00000000E+00  0.00000000E+00
  0.00000000E+00  0.00000000E+00  0.00000000E+00
  0.00000000E+00  0.00000000E+00  0.00000000E+00
  0.00000000E+00  0.00000000E+00  0.00000000E+00
  0.00000000E+00  0.00000000E+00  0.00000000E+00
  0.00000000E+00  0.00000000E+00  0.00000000E+00
  0.00000000E+00  0.00000000E+00  0.00000000E+00
  0.00000000E+00  0.00000000E+00  0.00000000E+00
  0.00000000E+00  0.00000000E+00  0.00000000E+00
  0.00000000E+00  0.00000000E+00  0.00000000E+00
  0.00000000E+00  0.00000000E+00  0.00000000E+00
  0.00000000E+00  0.00000000E+00  0.00000000E+00
  0.00000000E+00  0.00000000E+00  0.00000000E+00
  0.00000000E+00  0.00000000E+00  0.00000000E+00
  0.00000000E+00  0.00000000E+00  0.00000000E+00
  0.00000000E+00  0.00000000E+00  0.00000000E+00
  0.00000000E+00  0.00000000E+00  0.00000000E+00
  0.00000000E+00  0.00000000E+00  0.00000000E+00
  0.00000000E+00  0.00000000E+00  0.00000000E+00
  0.00000000E+00  0.00000000E+00  0.00000000E+00
  0.00000000E+00  0.00000000E+00  0.00000000E+00
  0.00000000E+00  0.00000000E+00  0.00000000E+00
  0.00000000E+00  0.00000000E+00  0.00000000E+00
  0.00000000E+00  0.00000000E+00  0.00000000E+00
  0.00000000E+00  0.00000000E+00  0.00000000E+00
  0.00000000E+00  0.00000000E+00  0.00000000E+00
  0.00000000E+00  0.00000000E+00  0.00000000E+00
  0.00000000E+00  0.00000000E+00  0.00000000E+00
  0.00000000E+00  0.00000000E+00  0.00000000E+00
  0.00000000E+00  0.00000000E+00  0.00000000E+00
  0.00000000E+00  0.00000000E+00  0.00000000E+00
  0.00000000E+00  0.00000000E+00  0.00000000E+00
  0.00000000E+00  0.00000000E+00  0.00000000E+00
  0.00000000E+00  0.00000000E+00  0.00000000E+00
  0.00000000E+00  0.00000000E+00  0.00000000E+00
  0.00000000E+00  0.00000000E+00  0.00000000E+00
  0.00000000E+00  0.00000000E+00  0.00000000E+00
  0.00000000E+00  0.00000000E+00  0.00000000E+00
  0.00000000E+00  0.00000000E+00  0.00000000E+00
  0.00000000E+00  0.00000000E+00  0.00000000E+00
  0.00000000E+00  0.00000000E+00  0.00000000E+00
  0.00000000E+00  0.00000000E+00  0.00000000E+00
  0.00000000E+00  0.00000000E+00  0.00000000E+00
  0.00000000E+00  0.00000000E+00  0.00000000E+00
  0.00000000E+00  0.00000000E+00  0.00000000E+00
