Bi La Sn O  C  H                        
   1.00000000000000     
    29.0000000000000000    0.0000000000000000    0.0000000000000000
     0.2488180851000000   28.9989325590000000    0.0000000000000000
    -0.0631677343000000   -0.4515975666000000   28.9964147692999994
   Bi   La   Sn   O    C    H 
    22    23    23     2     1     1
Selective dynamics
Direct
  0.7589213288098452  0.4768429963760801  0.3992577227808935   T   T   T
  0.6463658014353374  0.6843111054604240  0.5529188332532496   T   T   T
  0.3602271000934400  0.4591495582696479  0.4281593734345059   T   T   T
  0.5501199506840738  0.7129787656877042  0.5850593317997063   T   T   T
  0.5915029568994470  0.5209714444905416  0.5841479689498996   F   F   F
  0.6402762095234285  0.6807606203125535  0.4464201141294121   T   T   T
  0.6978015000283467  0.5242161497193750  0.6558348147286711   T   T   T
  0.4865758367701981  0.7013766597163886  0.5000010301835546   T   T   T
  0.5004839460855024  0.5502791173970252  0.5477141156400123   F   F   F
  0.3249638531117353  0.4860183250261958  0.5746985836014007   T   T   T
  0.3817413607634473  0.6102310014806095  0.5350960894099160   T   T   T
  0.6667129484492236  0.4827404655721850  0.5105018184570156   F   F   F
  0.5763997220267569  0.4263140504383500  0.5448328182496311   F   F   F
  0.6697004464549321  0.3764375518484619  0.5121042972382712   T   T   T
  0.4644409256788318  0.3392976014054578  0.5001723511488640   T   T   T
  0.6484934028780529  0.5775373212088155  0.4602701624361103   F   F   F
  0.5587334020363042  0.4387588759389849  0.7498567675884527   T   T   T
  0.6046474617233858  0.3530305614634843  0.6712571980305841   T   T   T
  0.4939924665321869  0.2995518091998673  0.4108285975042502   T   T   T
  0.6600573392517707  0.6194993786261765  0.6659221200185563   T   T   T
  0.4911741700590951  0.4123261611286005  0.3064620486947094   T   T   T
  0.6224205934114516  0.3166298128625081  0.5756294604945436   T   T   T
  0.5394181794171896  0.6838972207125277  0.4052135445358861   T   T   T
  0.3905675348263178  0.4154899137127528  0.5273409511666753   T   T   T
  0.6292369999765590  0.5531398101171289  0.2827966973095462   T   T   T
  0.4714484006114473  0.4707511199327983  0.6922599165348887   T   T   T
  0.5683115009887700  0.5094300495444983  0.4784716241115703   F   F   F
  0.4203210565129183  0.5084107200613417  0.5018573595042781   F   F   F
  0.4522612957279041  0.4009195631013927  0.4062965757535607   T   T   T
  0.5635348048876229  0.3471044352639820  0.3512036242790174   T   T   T
  0.4106398607267584  0.5400382571563227  0.6094973926114042   T   T   T
  0.5972161249669001  0.4444552818408670  0.3038588718570871   T   T   T
  0.4553795690009571  0.6012556109480798  0.3633702253640539   T   T   T
  0.4178528016189502  0.4887181958923787  0.3398982663666714   T   T   T
  0.6610909745590859  0.4309016501640135  0.6067955056525028   T   T   T
  0.6734513201629940  0.5782232037802182  0.5643261041176136   T   T   T
  0.5259655386164047  0.5110269703519345  0.3279647632966557   T   T   T
  0.5679149970833105  0.3575551412108442  0.4692182783385416   T   T   T
  0.3153152291324027  0.5415325094879460  0.4910263628524770   T   T   T
  0.6597051519539016  0.4266335564589446  0.4158770113223355   T   T   T
  0.5660841929594156  0.6261437171197244  0.5094829013827464   F   F   F
  0.5963897620902920  0.5290858185174456  0.6893026166073084   T   T   T
  0.4697178996775708  0.6412736975451450  0.5882818531611667   T   T   T
  0.4632749053788480  0.6036873856746536  0.4640479759963528   T   T   T
  0.7169876780829677  0.5731226318791607  0.3836825813643753   T   T   T
  0.5499310510395361  0.5822218838566187  0.4076968008106903   F   F   F
  0.4794126430662260  0.5072205383607624  0.4190535757241776   F   F   F
  0.6943154518796968  0.4799031467989424  0.3252257482681923   T   T   T
  0.7526836079021729  0.4301735412791994  0.4889684457121572   T   T   T
  0.7485524340201430  0.5381794129657087  0.4854161161550950   T   T   T
  0.7488601651961557  0.4916005412724739  0.5730848112679492   T   T   T
  0.6490755461744981  0.4382333304551057  0.7110505993506234   T   T   T
  0.5770475448565172  0.7434569666905690  0.4938365349945053   T   T   T
  0.6192554540844384  0.5183157687966542  0.3801816896793397   F   F   F
  0.5049974615773066  0.5589714626073444  0.6500211286111710   T   T   T
  0.4922009500451665  0.4366758245867572  0.4933013002826740   F   F   F
  0.5608844484509063  0.4404139570509003  0.6454865549417619   F   F   F
  0.5768566349803372  0.6160524314748443  0.6137938353091157   T   T   T
  0.5458319278778728  0.6187198556321118  0.3130978007699209   T   T   T
  0.6286202585468210  0.6252654063321011  0.3616145789020250   T   T   T
  0.3772147891913479  0.5585460621635727  0.4132412385644718   T   T   T
  0.4723078164089713  0.4557257050327763  0.5877273803360978   F   F   F
  0.7271005787291833  0.6352031087461686  0.4850547586992722   T   T   T
  0.5037654366746824  0.3687704230613436  0.6845926681873981   T   T   T
  0.3813547483603651  0.4410052483557046  0.6401956106582435   T   T   T
  0.5544592502646992  0.4379899399457940  0.4037542370104745   F   F   F
  0.4339924900802982  0.3635329583018533  0.6104878105066842   T   T   T
  0.5286714117339234  0.3491980062679459  0.5807219849043456   T   T   T
  0.6268139657279327  0.2828706073460842  0.3580182107695335   T   T   T
  0.6324483581094920  0.3447678963927325  0.4050397137452755   T   T   T
  0.6384955228773712  0.3003841150763916  0.3960004201258958   T   T   T
  0.6533885186927934  0.2795960847177674  0.4242066262004459   T   T   T
 
  0.00000000E+00  0.00000000E+00  0.00000000E+00
  0.00000000E+00  0.00000000E+00  0.00000000E+00
  0.00000000E+00  0.00000000E+00  0.00000000E+00
  0.00000000E+00  0.00000000E+00  0.00000000E+00
  0.00000000E+00  0.00000000E+00  0.00000000E+00
  0.00000000E+00  0.00000000E+00  0.00000000E+00
  0.00000000E+00  0.00000000E+00  0.00000000E+00
  0.00000000E+00  0.00000000E+00  0.00000000E+00
  0.00000000E+00  0.00000000E+00  0.00000000E+00
  0.00000000E+00  0.00000000E+00  0.00000000E+00
  0.00000000E+00  0.00000000E+00  0.00000000E+00
  0.00000000E+00  0.00000000E+00  0.00000000E+00
  0.00000000E+00  0.00000000E+00  0.00000000E+00
  0.00000000E+00  0.00000000E+00  0.00000000E+00
  0.00000000E+00  0.00000000E+00  0.00000000E+00
  0.00000000E+00  0.00000000E+00  0.00000000E+00
  0.00000000E+00  0.00000000E+00  0.00000000E+00
  0.00000000E+00  0.00000000E+00  0.00000000E+00
  0.00000000E+00  0.00000000E+00  0.00000000E+00
  0.00000000E+00  0.00000000E+00  0.00000000E+00
  0.00000000E+00  0.00000000E+00  0.00000000E+00
  0.00000000E+00  0.00000000E+00  0.00000000E+00
  0.00000000E+00  0.00000000E+00  0.00000000E+00
  0.00000000E+00  0.00000000E+00  0.00000000E+00
  0.00000000E+00  0.00000000E+00  0.00000000E+00
  0.00000000E+00  0.00000000E+00  0.00000000E+00
  0.00000000E+00  0.00000000E+00  0.00000000E+00
  0.00000000E+00  0.00000000E+00  0.00000000E+00
  0.00000000E+00  0.00000000E+00  0.00000000E+00
  0.00000000E+00  0.00000000E+00  0.00000000E+00
  0.00000000E+00  0.00000000E+00  0.00000000E+00
  0.00000000E+00  0.00000000E+00  0.00000000E+00
  0.00000000E+00  0.00000000E+00  0.00000000E+00
  0.00000000E+00  0.00000000E+00  0.00000000E+00
  0.00000000E+00  0.00000000E+00  0.00000000E+00
  0.00000000E+00  0.00000000E+00  0.00000000E+00
  0.00000000E+00  0.00000000E+00  0.00000000E+00
  0.00000000E+00  0.00000000E+00  0.00000000E+00
  0.00000000E+00  0.00000000E+00  0.00000000E+00
  0.00000000E+00  0.00000000E+00  0.00000000E+00
  0.00000000E+00  0.00000000E+00  0.00000000E+00
  0.00000000E+00  0.00000000E+00  0.00000000E+00
  0.00000000E+00  0.00000000E+00  0.00000000E+00
  0.00000000E+00  0.00000000E+00  0.00000000E+00
  0.00000000E+00  0.00000000E+00  0.00000000E+00
  0.00000000E+00  0.00000000E+00  0.00000000E+00
  0.00000000E+00  0.00000000E+00  0.00000000E+00
  0.00000000E+00  0.00000000E+00  0.00000000E+00
  0.00000000E+00  0.00000000E+00  0.00000000E+00
  0.00000000E+00  0.00000000E+00  0.00000000E+00
  0.00000000E+00  0.00000000E+00  0.00000000E+00
  0.00000000E+00  0.00000000E+00  0.00000000E+00
  0.00000000E+00  0.00000000E+00  0.00000000E+00
  0.00000000E+00  0.00000000E+00  0.00000000E+00
  0.00000000E+00  0.00000000E+00  0.00000000E+00
  0.00000000E+00  0.00000000E+00  0.00000000E+00
  0.00000000E+00  0.00000000E+00  0.00000000E+00
  0.00000000E+00  0.00000000E+00  0.00000000E+00
  0.00000000E+00  0.00000000E+00  0.00000000E+00
  0.00000000E+00  0.00000000E+00  0.00000000E+00
  0.00000000E+00  0.00000000E+00  0.00000000E+00
  0.00000000E+00  0.00000000E+00  0.00000000E+00
  0.00000000E+00  0.00000000E+00  0.00000000E+00
  0.00000000E+00  0.00000000E+00  0.00000000E+00
  0.00000000E+00  0.00000000E+00  0.00000000E+00
  0.00000000E+00  0.00000000E+00  0.00000000E+00
  0.00000000E+00  0.00000000E+00  0.00000000E+00
  0.00000000E+00  0.00000000E+00  0.00000000E+00
  0.00000000E+00  0.00000000E+00  0.00000000E+00
  0.00000000E+00  0.00000000E+00  0.00000000E+00
  0.00000000E+00  0.00000000E+00  0.00000000E+00
  0.00000000E+00  0.00000000E+00  0.00000000E+00
