Bi La Sn O  C  H                        
   1.00000000000000     
    29.0000000000000000    0.0000000000000000    0.0000000000000000
     0.2488180851000000   28.9989325590000000    0.0000000000000000
    -0.0631677343000000   -0.4515975666000000   28.9964147692999994
   Bi   La   Sn   O    C    H 
    22    23    23     2     1     1
Selective dynamics
Direct
  0.7604831561948936  0.4755255684029303  0.4001441406090102   T   T   T
  0.6481408961099991  0.6838909914509969  0.5515040037247103   T   T   T
  0.3604838165519187  0.4581379285102301  0.4284516369937938   T   T   T
  0.5522710159628482  0.7136850427437778  0.5855274614915049   T   T   T
  0.5915029568994470  0.5209714444905416  0.5841479689498996   F   F   F
  0.6418285258609789  0.6802226814121035  0.4451508614429244   T   T   T
  0.6953412448191756  0.5204093291430789  0.6537342162157467   T   T   T
  0.4892791755626087  0.7039406240377623  0.5022089381276755   T   T   T
  0.5004839460855024  0.5502791173970252  0.5477141156400123   F   F   F
  0.3270294579152889  0.4864509362290071  0.5752527498230668   T   T   T
  0.3834266228064438  0.6097943393991984  0.5371470023653778   T   T   T
  0.6667129484492236  0.4827404655721850  0.5105018184570156   F   F   F
  0.5763997220267569  0.4263140504383500  0.5448328182496311   F   F   F
  0.6685755203257859  0.3734563457558443  0.5062256422141862   T   T   T
  0.4623396607845798  0.3381664911960909  0.4968787741964915   T   T   T
  0.6484934028780529  0.5775373212088155  0.4602701624361103   F   F   F
  0.5571747109151383  0.4353888422875465  0.7496740716172658   T   T   T
  0.5973683388641963  0.3498155523093871  0.6685987249970022   T   T   T
  0.4933657962004999  0.3003263875538111  0.4068882665363707   T   T   T
  0.6605104125919854  0.6169898045893474  0.6668540748174823   T   T   T
  0.4934116117716212  0.4089117775567998  0.3046125714663646   T   T   T
  0.6222897037373911  0.3163454582963262  0.5734744548014074   T   T   T
  0.5396060813071829  0.6842578426443459  0.4050680184135586   T   T   T
  0.3899735451138292  0.4144274024512977  0.5264988160720134   T   T   T
  0.6310173768312433  0.5516184452471784  0.2828837211045652   T   T   T
  0.4721685765450506  0.4759684273800724  0.6924014245029912   T   T   T
  0.5683115009887700  0.5094300495444983  0.4784716241115703   F   F   F
  0.4203210565129183  0.5084107200613417  0.5018573595042781   F   F   F
  0.4532885375230153  0.4014310743593429  0.4050032126565470   T   T   T
  0.5657989592328265  0.3492607697236365  0.3532749995913269   T   T   T
  0.4125528815180319  0.5396897225426338  0.6115960329967014   T   T   T
  0.6010269755823219  0.4405443211729693  0.3054217830030736   T   T   T
  0.4544383647728888  0.5981181252590591  0.3552773435460254   T   T   T
  0.4189927166891675  0.4834818791121200  0.3393942332360193   T   T   T
  0.6610177391373396  0.4264461113676383  0.6038275888336596   T   T   T
  0.6736279878169060  0.5781748213745906  0.5640979385749179   T   T   T
  0.5273017241755661  0.5080651844939941  0.3277530756488689   T   T   T
  0.5657806981380314  0.3569735726678200  0.4691685415258695   T   T   T
  0.3177690364531521  0.5420032191774121  0.4911034143192538   T   T   T
  0.6602547811554459  0.4291927047754024  0.4157010778272682   T   T   T
  0.5660841929594156  0.6261437171197244  0.5094829013827464   F   F   F
  0.5960673389412664  0.5274789457462947  0.6900741919939524   T   T   T
  0.4715137039352894  0.6422983876758132  0.5887303307818174   T   T   T
  0.4638152222014784  0.6056318006618444  0.4650899436114088   T   T   T
  0.7178824634042649  0.5715827429993878  0.3847814106064874   T   T   T
  0.5499310510395361  0.5822218838566187  0.4076968008106903   F   F   F
  0.4794126430662260  0.5072205383607624  0.4190535757241776   F   F   F
  0.6962609604209266  0.4800962469936170  0.3250977200446566   T   T   T
  0.7517121030965912  0.4276420372290167  0.4894135187223593   T   T   T
  0.7494600547189921  0.5367267110721985  0.4861330984518927   T   T   T
  0.7491107766524210  0.4886890135614078  0.5729572584465080   T   T   T
  0.6467968227412554  0.4335212018066192  0.7080378412272699   T   T   T
  0.5804229918019923  0.7437872774630098  0.4937801987439805   T   T   T
  0.6192554540844384  0.5183157687966542  0.3801816896793397   F   F   F
  0.5064287703787053  0.5625987853601067  0.6508128706952296   T   T   T
  0.4922009500451665  0.4366758245867572  0.4933013002826740   F   F   F
  0.5608844484509063  0.4404139570509003  0.6454865549417619   F   F   F
  0.5784591028919308  0.6167833537193330  0.6137339556167642   T   T   T
  0.5479403887978522  0.6172267574540978  0.3133990867793692   T   T   T
  0.6305357101006225  0.6246218408647215  0.3610814453945336   T   T   T
  0.3801811332300175  0.5560805849339617  0.4119341607718790   T   T   T
  0.4723078164089713  0.4557257050327763  0.5877273803360978   F   F   F
  0.7277520520948578  0.6343041659771450  0.4848662768232801   T   T   T
  0.4981021019635221  0.3731732085963765  0.6823422073488048   T   T   T
  0.3835301760749928  0.4389302996052268  0.6397592605748466   T   T   T
  0.5544592502646992  0.4379899399457940  0.4037542370104745   F   F   F
  0.4339596391010652  0.3604858434779700  0.6059877927250893   T   T   T
  0.5277053827825900  0.3487320254784173  0.5770013171695496   T   T   T
  0.4536638073730135  0.6778937597502864  0.3965027867875044   T   T   T
  0.4040293901858327  0.6700626790136635  0.3370812171140219   T   T   T
  0.4231561465579851  0.6943213711898641  0.3674828639158419   T   T   T
  0.4149354334335029  0.7316370385791627  0.3710679886485680   T   T   T
 
  0.00000000E+00  0.00000000E+00  0.00000000E+00
  0.00000000E+00  0.00000000E+00  0.00000000E+00
  0.00000000E+00  0.00000000E+00  0.00000000E+00
  0.00000000E+00  0.00000000E+00  0.00000000E+00
  0.00000000E+00  0.00000000E+00  0.00000000E+00
  0.00000000E+00  0.00000000E+00  0.00000000E+00
  0.00000000E+00  0.00000000E+00  0.00000000E+00
  0.00000000E+00  0.00000000E+00  0.00000000E+00
  0.00000000E+00  0.00000000E+00  0.00000000E+00
  0.00000000E+00  0.00000000E+00  0.00000000E+00
  0.00000000E+00  0.00000000E+00  0.00000000E+00
  0.00000000E+00  0.00000000E+00  0.00000000E+00
  0.00000000E+00  0.00000000E+00  0.00000000E+00
  0.00000000E+00  0.00000000E+00  0.00000000E+00
  0.00000000E+00  0.00000000E+00  0.00000000E+00
  0.00000000E+00  0.00000000E+00  0.00000000E+00
  0.00000000E+00  0.00000000E+00  0.00000000E+00
  0.00000000E+00  0.00000000E+00  0.00000000E+00
  0.00000000E+00  0.00000000E+00  0.00000000E+00
  0.00000000E+00  0.00000000E+00  0.00000000E+00
  0.00000000E+00  0.00000000E+00  0.00000000E+00
  0.00000000E+00  0.00000000E+00  0.00000000E+00
  0.00000000E+00  0.00000000E+00  0.00000000E+00
  0.00000000E+00  0.00000000E+00  0.00000000E+00
  0.00000000E+00  0.00000000E+00  0.00000000E+00
  0.00000000E+00  0.00000000E+00  0.00000000E+00
  0.00000000E+00  0.00000000E+00  0.00000000E+00
  0.00000000E+00  0.00000000E+00  0.00000000E+00
  0.00000000E+00  0.00000000E+00  0.00000000E+00
  0.00000000E+00  0.00000000E+00  0.00000000E+00
  0.00000000E+00  0.00000000E+00  0.00000000E+00
  0.00000000E+00  0.00000000E+00  0.00000000E+00
  0.00000000E+00  0.00000000E+00  0.00000000E+00
  0.00000000E+00  0.00000000E+00  0.00000000E+00
  0.00000000E+00  0.00000000E+00  0.00000000E+00
  0.00000000E+00  0.00000000E+00  0.00000000E+00
  0.00000000E+00  0.00000000E+00  0.00000000E+00
  0.00000000E+00  0.00000000E+00  0.00000000E+00
  0.00000000E+00  0.00000000E+00  0.00000000E+00
  0.00000000E+00  0.00000000E+00  0.00000000E+00
  0.00000000E+00  0.00000000E+00  0.00000000E+00
  0.00000000E+00  0.00000000E+00  0.00000000E+00
  0.00000000E+00  0.00000000E+00  0.00000000E+00
  0.00000000E+00  0.00000000E+00  0.00000000E+00
  0.00000000E+00  0.00000000E+00  0.00000000E+00
  0.00000000E+00  0.00000000E+00  0.00000000E+00
  0.00000000E+00  0.00000000E+00  0.00000000E+00
  0.00000000E+00  0.00000000E+00  0.00000000E+00
  0.00000000E+00  0.00000000E+00  0.00000000E+00
  0.00000000E+00  0.00000000E+00  0.00000000E+00
  0.00000000E+00  0.00000000E+00  0.00000000E+00
  0.00000000E+00  0.00000000E+00  0.00000000E+00
  0.00000000E+00  0.00000000E+00  0.00000000E+00
  0.00000000E+00  0.00000000E+00  0.00000000E+00
  0.00000000E+00  0.00000000E+00  0.00000000E+00
  0.00000000E+00  0.00000000E+00  0.00000000E+00
  0.00000000E+00  0.00000000E+00  0.00000000E+00
  0.00000000E+00  0.00000000E+00  0.00000000E+00
  0.00000000E+00  0.00000000E+00  0.00000000E+00
  0.00000000E+00  0.00000000E+00  0.00000000E+00
  0.00000000E+00  0.00000000E+00  0.00000000E+00
  0.00000000E+00  0.00000000E+00  0.00000000E+00
  0.00000000E+00  0.00000000E+00  0.00000000E+00
  0.00000000E+00  0.00000000E+00  0.00000000E+00
  0.00000000E+00  0.00000000E+00  0.00000000E+00
  0.00000000E+00  0.00000000E+00  0.00000000E+00
  0.00000000E+00  0.00000000E+00  0.00000000E+00
  0.00000000E+00  0.00000000E+00  0.00000000E+00
  0.00000000E+00  0.00000000E+00  0.00000000E+00
  0.00000000E+00  0.00000000E+00  0.00000000E+00
  0.00000000E+00  0.00000000E+00  0.00000000E+00
  0.00000000E+00  0.00000000E+00  0.00000000E+00
