Bi La Sn O  C  H                        
   1.00000000000000     
    29.0000000000000000    0.0000000000000000    0.0000000000000000
     0.2488180851000000   28.9989325590000000    0.0000000000000000
    -0.0631677343000000   -0.4515975666000000   28.9964147692999994
   Bi   La   Sn   O    C    H 
    22    23    23     2     1     1
Selective dynamics
Direct
  0.7606094331680826  0.4802931138076371  0.4004739342305527   T   T   T
  0.6461185505554322  0.6846650530075068  0.5520915902021677   T   T   T
  0.3602751608914587  0.4583908453837619  0.4279955979064661   T   T   T
  0.5495652273299899  0.7128589780468556  0.5854088627337282   T   T   T
  0.5915029568994470  0.5209714444905416  0.5841479689498996   F   F   F
  0.6400608489156677  0.6801826918721867  0.4450407543965597   T   T   T
  0.6954766375458297  0.5227194520235224  0.6546775300429351   T   T   T
  0.4859819030108663  0.7007807109250290  0.5003324367765418   T   T   T
  0.5004839460855024  0.5502791173970252  0.5477141156400123   F   F   F
  0.3243827180537521  0.4860464115414390  0.5738052663992798   T   T   T
  0.3815944291438182  0.6105791769472053  0.5344772970162227   T   T   T
  0.6667129484492236  0.4827404655721850  0.5105018184570156   F   F   F
  0.5763997220267569  0.4263140504383500  0.5448328182496311   F   F   F
  0.6696819434412508  0.3741509454828714  0.5069677395010600   T   T   T
  0.4641889052077698  0.3390906296783018  0.5003497801094212   T   T   T
  0.6484934028780529  0.5775373212088155  0.4602701624361103   F   F   F
  0.5574116912337919  0.4372028601080610  0.7497035181694376   T   T   T
  0.6045214535523800  0.3513862116071323  0.6689847537807718   T   T   T
  0.4921702360112699  0.2983149878383891  0.4108116208382216   T   T   T
  0.6591989338072328  0.6187162265205852  0.6664007678827035   T   T   T
  0.4931047726134448  0.4098344061089841  0.3070178571019966   T   T   T
  0.6223267603075771  0.3163510619782111  0.5729420314706176   T   T   T
  0.5385392269225843  0.6836810401208001  0.4049934968499905   T   T   T
  0.3906731900733254  0.4154319541332192  0.5273757999608749   T   T   T
  0.6287123963157580  0.5520597921819551  0.2807728523495908   T   T   T
  0.4710204224951240  0.4702079620595558  0.6916086222284368   T   T   T
  0.5683115009887700  0.5094300495444983  0.4784716241115703   F   F   F
  0.4203210565129183  0.5084107200613417  0.5018573595042781   F   F   F
  0.4523151619130051  0.4004939512279432  0.4068423643141246   T   T   T
  0.5627675345912307  0.3479658951776088  0.3554217178329718   T   T   T
  0.4102033931728259  0.5402126512563515  0.6090204799975972   T   T   T
  0.6013539683957357  0.4408927998812178  0.3024793814476759   T   T   T
  0.4553258798493227  0.6003548153439866  0.3631622721289883   T   T   T
  0.4192161447077892  0.4872767649836844  0.3390692393394766   T   T   T
  0.6611710703059582  0.4283466637724448  0.6045710258069827   T   T   T
  0.6729385296971441  0.5788941386302353  0.5641985520481506   T   T   T
  0.5257776944836685  0.5095858947640758  0.3282591215417717   T   T   T
  0.5666833118783514  0.3577644152393604  0.4684554792341781   T   T   T
  0.3154735878714274  0.5416635741990784  0.4904560629884358   T   T   T
  0.6609792621321141  0.4299230484525018  0.4160175602477339   T   T   T
  0.5660841929594156  0.6261437171197244  0.5094829013827464   F   F   F
  0.5951867721817913  0.5289026812609930  0.6897070624824285   T   T   T
  0.4691396408593626  0.6411678026886958  0.5885899619847238   T   T   T
  0.4631447215903015  0.6030070418226090  0.4638278242133654   T   T   T
  0.7171384551630947  0.5763781564509430  0.3844464603441271   T   T   T
  0.5499310510395361  0.5822218838566187  0.4076968008106903   F   F   F
  0.4794126430662260  0.5072205383607624  0.4190535757241776   F   F   F
  0.6959261787313643  0.4832218100593846  0.3272115413136623   T   T   T
  0.7523354736482053  0.4300876671154565  0.4885267108330107   T   T   T
  0.7481930458972424  0.5393042700874643  0.4864706259531976   T   T   T
  0.7482581379493054  0.4910444001136439  0.5731554788799165   T   T   T
  0.6476791250769246  0.4373012653956005  0.7091949686497159   T   T   T
  0.5768258860514451  0.7424003156281259  0.4939687575583477   T   T   T
  0.6192554540844384  0.5183157687966542  0.3801816896793397   F   F   F
  0.5042785668235930  0.5589995391990483  0.6500318919096754   T   T   T
  0.4922009500451665  0.4366758245867572  0.4933013002826740   F   F   F
  0.5608844484509063  0.4404139570509003  0.6454865549417619   F   F   F
  0.5763527738382230  0.6159667516204710  0.6137111543102376   T   T   T
  0.5440972958755349  0.6178887845897948  0.3119053899230114   T   T   T
  0.6268602450731259  0.6253288523239102  0.3604136068102455   T   T   T
  0.3774518766702997  0.5564276826042088  0.4119056266026113   T   T   T
  0.4723078164089713  0.4557257050327763  0.5877273803360978   F   F   F
  0.7266928222825810  0.6361227529154998  0.4855694975967322   T   T   T
  0.5046472488421168  0.3679422644486312  0.6844383138732347   T   T   T
  0.3806795898663609  0.4417073755251050  0.6397846737430984   T   T   T
  0.5544592502646992  0.4379899399457940  0.4037542370104745   F   F   F
  0.4346577470349529  0.3641998429842263  0.6110553666820155   T   T   T
  0.5287580076571279  0.3490788338174842  0.5802565066172537   T   T   T
  0.6598492979573072  0.5207802426866238  0.2087607919630215   T   T   T
  0.6321266295213047  0.4500618135290650  0.2247645488790568   T   T   T
  0.6626575866095125  0.4768349267045018  0.2085986486536444   T   T   T
  0.6938828942781032  0.4606420407037302  0.1930666907761888   T   T   T
 
  0.00000000E+00  0.00000000E+00  0.00000000E+00
  0.00000000E+00  0.00000000E+00  0.00000000E+00
  0.00000000E+00  0.00000000E+00  0.00000000E+00
  0.00000000E+00  0.00000000E+00  0.00000000E+00
  0.00000000E+00  0.00000000E+00  0.00000000E+00
  0.00000000E+00  0.00000000E+00  0.00000000E+00
  0.00000000E+00  0.00000000E+00  0.00000000E+00
  0.00000000E+00  0.00000000E+00  0.00000000E+00
  0.00000000E+00  0.00000000E+00  0.00000000E+00
  0.00000000E+00  0.00000000E+00  0.00000000E+00
  0.00000000E+00  0.00000000E+00  0.00000000E+00
  0.00000000E+00  0.00000000E+00  0.00000000E+00
  0.00000000E+00  0.00000000E+00  0.00000000E+00
  0.00000000E+00  0.00000000E+00  0.00000000E+00
  0.00000000E+00  0.00000000E+00  0.00000000E+00
  0.00000000E+00  0.00000000E+00  0.00000000E+00
  0.00000000E+00  0.00000000E+00  0.00000000E+00
  0.00000000E+00  0.00000000E+00  0.00000000E+00
  0.00000000E+00  0.00000000E+00  0.00000000E+00
  0.00000000E+00  0.00000000E+00  0.00000000E+00
  0.00000000E+00  0.00000000E+00  0.00000000E+00
  0.00000000E+00  0.00000000E+00  0.00000000E+00
  0.00000000E+00  0.00000000E+00  0.00000000E+00
  0.00000000E+00  0.00000000E+00  0.00000000E+00
  0.00000000E+00  0.00000000E+00  0.00000000E+00
  0.00000000E+00  0.00000000E+00  0.00000000E+00
  0.00000000E+00  0.00000000E+00  0.00000000E+00
  0.00000000E+00  0.00000000E+00  0.00000000E+00
  0.00000000E+00  0.00000000E+00  0.00000000E+00
  0.00000000E+00  0.00000000E+00  0.00000000E+00
  0.00000000E+00  0.00000000E+00  0.00000000E+00
  0.00000000E+00  0.00000000E+00  0.00000000E+00
  0.00000000E+00  0.00000000E+00  0.00000000E+00
  0.00000000E+00  0.00000000E+00  0.00000000E+00
  0.00000000E+00  0.00000000E+00  0.00000000E+00
  0.00000000E+00  0.00000000E+00  0.00000000E+00
  0.00000000E+00  0.00000000E+00  0.00000000E+00
  0.00000000E+00  0.00000000E+00  0.00000000E+00
  0.00000000E+00  0.00000000E+00  0.00000000E+00
  0.00000000E+00  0.00000000E+00  0.00000000E+00
  0.00000000E+00  0.00000000E+00  0.00000000E+00
  0.00000000E+00  0.00000000E+00  0.00000000E+00
  0.00000000E+00  0.00000000E+00  0.00000000E+00
  0.00000000E+00  0.00000000E+00  0.00000000E+00
  0.00000000E+00  0.00000000E+00  0.00000000E+00
  0.00000000E+00  0.00000000E+00  0.00000000E+00
  0.00000000E+00  0.00000000E+00  0.00000000E+00
  0.00000000E+00  0.00000000E+00  0.00000000E+00
  0.00000000E+00  0.00000000E+00  0.00000000E+00
  0.00000000E+00  0.00000000E+00  0.00000000E+00
  0.00000000E+00  0.00000000E+00  0.00000000E+00
  0.00000000E+00  0.00000000E+00  0.00000000E+00
  0.00000000E+00  0.00000000E+00  0.00000000E+00
  0.00000000E+00  0.00000000E+00  0.00000000E+00
  0.00000000E+00  0.00000000E+00  0.00000000E+00
  0.00000000E+00  0.00000000E+00  0.00000000E+00
  0.00000000E+00  0.00000000E+00  0.00000000E+00
  0.00000000E+00  0.00000000E+00  0.00000000E+00
  0.00000000E+00  0.00000000E+00  0.00000000E+00
  0.00000000E+00  0.00000000E+00  0.00000000E+00
  0.00000000E+00  0.00000000E+00  0.00000000E+00
  0.00000000E+00  0.00000000E+00  0.00000000E+00
  0.00000000E+00  0.00000000E+00  0.00000000E+00
  0.00000000E+00  0.00000000E+00  0.00000000E+00
  0.00000000E+00  0.00000000E+00  0.00000000E+00
  0.00000000E+00  0.00000000E+00  0.00000000E+00
  0.00000000E+00  0.00000000E+00  0.00000000E+00
  0.00000000E+00  0.00000000E+00  0.00000000E+00
  0.00000000E+00  0.00000000E+00  0.00000000E+00
  0.00000000E+00  0.00000000E+00  0.00000000E+00
  0.00000000E+00  0.00000000E+00  0.00000000E+00
  0.00000000E+00  0.00000000E+00  0.00000000E+00
