Bi La Sn O  C  H                        
   1.00000000000000     
    29.0000000000000000    0.0000000000000000    0.0000000000000000
     0.2488180851000000   28.9989325590000000    0.0000000000000000
    -0.0631677343000000   -0.4515975666000000   28.9964147692999994
   Bi   La   Sn   O    C    H 
    22    23    23     2     1     1
Selective dynamics
Direct
  0.7590651414129745  0.4792359383443666  0.3987480052915327   T   T   T
  0.6484247008878138  0.6846398112871164  0.5494380455469973   T   T   T
  0.3601948731961495  0.4583677288702658  0.4278773885144582   T   T   T
  0.5522200543253794  0.7138774532543060  0.5837090315403671   T   T   T
  0.5915029568994470  0.5209714444905416  0.5841479689498996   F   F   F
  0.6400266785371729  0.6794539405065650  0.4443092459902541   T   T   T
  0.6960081280393347  0.5184557096773341  0.6534604544978636   T   T   T
  0.4869008108337682  0.7016025061457847  0.4991320899234034   T   T   T
  0.5004839460855024  0.5502791173970252  0.5477141156400123   F   F   F
  0.3289246902918969  0.4831849818830696  0.5786269404246804   T   T   T
  0.3833365324218729  0.6100198084074239  0.5379146170238623   T   T   T
  0.6667129484492236  0.4827404655721850  0.5105018184570156   F   F   F
  0.5763997220267569  0.4263140504383500  0.5448328182496311   F   F   F
  0.6687065869023234  0.3739326558418976  0.5056252855649077   T   T   T
  0.4615988430141285  0.3372802688389397  0.4941960154237036   T   T   T
  0.6484934028780529  0.5775373212088155  0.4602701624361103   F   F   F
  0.5563194650343792  0.4317201922782706  0.7494337513100664   T   T   T
  0.5908953945047317  0.3478786291858045  0.6666331327741228   T   T   T
  0.4932891987645278  0.3002118004601461  0.4046699342958699   T   T   T
  0.6619130958400472  0.6141538513097029  0.6691102023737886   T   T   T
  0.4913982561841638  0.4113452843536843  0.3039468685590165   T   T   T
  0.6211821150318366  0.3165106673478590  0.5718571943204591   T   T   T
  0.5388005855636070  0.6835318225191971  0.4041777969168449   T   T   T
  0.3903848790994112  0.4144750353489375  0.5250379571693308   T   T   T
  0.6262026499192617  0.5517272505674421  0.2814244035149963   T   T   T
  0.4728922682933401  0.4816392694012774  0.6967567250368186   T   T   T
  0.5683115009887700  0.5094300495444983  0.4784716241115703   F   F   F
  0.4203210565129183  0.5084107200613417  0.5018573595042781   F   F   F
  0.4526593351014871  0.4018015402543657  0.4044244396371753   T   T   T
  0.5635854661539347  0.3507908882215114  0.3506932646876175   T   T   T
  0.4122121926174860  0.5396519015583259  0.6137972702087556   T   T   T
  0.5996950953170922  0.4414939471098484  0.3048897341831565   T   T   T
  0.4543209399465006  0.5995414197346798  0.3638057387869455   T   T   T
  0.4182666002739251  0.4879790567243406  0.3399470306091767   T   T   T
  0.6608460270905213  0.4247641742908581  0.6039080603308529   T   T   T
  0.6745721410279786  0.5786175980024474  0.5644745853885982   T   T   T
  0.5254944007009857  0.5098204169520909  0.3280714059471615   T   T   T
  0.5654733280399356  0.3568035419786068  0.4685852503833238   T   T   T
  0.3173452899899897  0.5402588703628426  0.4952487700782671   T   T   T
  0.6604592105875474  0.4296989196506694  0.4147159539741120   T   T   T
  0.5660841929594156  0.6261437171197244  0.5094829013827464   F   F   F
  0.5969648970482972  0.5253101726261196  0.6907420657791984   T   T   T
  0.4717282262788057  0.6428056854612618  0.5881946300852986   T   T   T
  0.4623260155255919  0.6035105664126856  0.4642958241056102   T   T   T
  0.7162260622854292  0.5748574251575503  0.3833324405653989   T   T   T
  0.5499310510395361  0.5822218838566187  0.4076968008106903   F   F   F
  0.4794126430662260  0.5072205383607624  0.4190535757241776   F   F   F
  0.6950063040086516  0.4828005828953936  0.3236124107099249   T   T   T
  0.7522261688888581  0.4287846203117281  0.4865454589291780   T   T   T
  0.7484942645935151  0.5379474608944903  0.4853053494722142   T   T   T
  0.7490565561228875  0.4887561509055676  0.5715118943479800   T   T   T
  0.6448391362511262  0.4285365073826619  0.7077755200580388   T   T   T
  0.5775664876262092  0.7434960020919472  0.4922246576219877   T   T   T
  0.6192554540844384  0.5183157687966542  0.3801816896793397   F   F   F
  0.5105547651386424  0.5622914026706107  0.6473702335810193   T   T   T
  0.4922009500451665  0.4366758245867572  0.4933013002826740   F   F   F
  0.5608844484509063  0.4404139570509003  0.6454865549417619   F   F   F
  0.5814112327245488  0.6182982726824373  0.6131135120745121   T   T   T
  0.5430187154947779  0.6172541281352304  0.3120535432017506   T   T   T
  0.6266250169337975  0.6245945730741870  0.3592049123589203   T   T   T
  0.3755370034939792  0.5572563720964600  0.4137302965780608   T   T   T
  0.4723078164089713  0.4557257050327763  0.5877273803360978   F   F   F
  0.7276395899839649  0.6349066408354485  0.4837496018308719   T   T   T
  0.4917721674588888  0.3786119272889565  0.6766393687340102   T   T   T
  0.3895267578580728  0.4349121264014839  0.6407247255349233   T   T   T
  0.5544592502646992  0.4379899399457940  0.4037542370104745   F   F   F
  0.4320492916035196  0.3543733168968141  0.6005172250171708   T   T   T
  0.5262580783094233  0.3486563955141991  0.5743764245434378   T   T   T
  0.4031528732001680  0.5478947409901133  0.6976788623668745   T   T   T
  0.4362535427843852  0.5252609757151471  0.7639385304843480   T   T   T
  0.4080390630590697  0.5500561388955560  0.7418233467247946   T   T   T
  0.3862355637327480  0.5754966860278159  0.7608545079162513   T   T   T
 
  0.00000000E+00  0.00000000E+00  0.00000000E+00
  0.00000000E+00  0.00000000E+00  0.00000000E+00
  0.00000000E+00  0.00000000E+00  0.00000000E+00
  0.00000000E+00  0.00000000E+00  0.00000000E+00
  0.00000000E+00  0.00000000E+00  0.00000000E+00
  0.00000000E+00  0.00000000E+00  0.00000000E+00
  0.00000000E+00  0.00000000E+00  0.00000000E+00
  0.00000000E+00  0.00000000E+00  0.00000000E+00
  0.00000000E+00  0.00000000E+00  0.00000000E+00
  0.00000000E+00  0.00000000E+00  0.00000000E+00
  0.00000000E+00  0.00000000E+00  0.00000000E+00
  0.00000000E+00  0.00000000E+00  0.00000000E+00
  0.00000000E+00  0.00000000E+00  0.00000000E+00
  0.00000000E+00  0.00000000E+00  0.00000000E+00
  0.00000000E+00  0.00000000E+00  0.00000000E+00
  0.00000000E+00  0.00000000E+00  0.00000000E+00
  0.00000000E+00  0.00000000E+00  0.00000000E+00
  0.00000000E+00  0.00000000E+00  0.00000000E+00
  0.00000000E+00  0.00000000E+00  0.00000000E+00
  0.00000000E+00  0.00000000E+00  0.00000000E+00
  0.00000000E+00  0.00000000E+00  0.00000000E+00
  0.00000000E+00  0.00000000E+00  0.00000000E+00
  0.00000000E+00  0.00000000E+00  0.00000000E+00
  0.00000000E+00  0.00000000E+00  0.00000000E+00
  0.00000000E+00  0.00000000E+00  0.00000000E+00
  0.00000000E+00  0.00000000E+00  0.00000000E+00
  0.00000000E+00  0.00000000E+00  0.00000000E+00
  0.00000000E+00  0.00000000E+00  0.00000000E+00
  0.00000000E+00  0.00000000E+00  0.00000000E+00
  0.00000000E+00  0.00000000E+00  0.00000000E+00
  0.00000000E+00  0.00000000E+00  0.00000000E+00
  0.00000000E+00  0.00000000E+00  0.00000000E+00
  0.00000000E+00  0.00000000E+00  0.00000000E+00
  0.00000000E+00  0.00000000E+00  0.00000000E+00
  0.00000000E+00  0.00000000E+00  0.00000000E+00
  0.00000000E+00  0.00000000E+00  0.00000000E+00
  0.00000000E+00  0.00000000E+00  0.00000000E+00
  0.00000000E+00  0.00000000E+00  0.00000000E+00
  0.00000000E+00  0.00000000E+00  0.00000000E+00
  0.00000000E+00  0.00000000E+00  0.00000000E+00
  0.00000000E+00  0.00000000E+00  0.00000000E+00
  0.00000000E+00  0.00000000E+00  0.00000000E+00
  0.00000000E+00  0.00000000E+00  0.00000000E+00
  0.00000000E+00  0.00000000E+00  0.00000000E+00
  0.00000000E+00  0.00000000E+00  0.00000000E+00
  0.00000000E+00  0.00000000E+00  0.00000000E+00
  0.00000000E+00  0.00000000E+00  0.00000000E+00
  0.00000000E+00  0.00000000E+00  0.00000000E+00
  0.00000000E+00  0.00000000E+00  0.00000000E+00
  0.00000000E+00  0.00000000E+00  0.00000000E+00
  0.00000000E+00  0.00000000E+00  0.00000000E+00
  0.00000000E+00  0.00000000E+00  0.00000000E+00
  0.00000000E+00  0.00000000E+00  0.00000000E+00
  0.00000000E+00  0.00000000E+00  0.00000000E+00
  0.00000000E+00  0.00000000E+00  0.00000000E+00
  0.00000000E+00  0.00000000E+00  0.00000000E+00
  0.00000000E+00  0.00000000E+00  0.00000000E+00
  0.00000000E+00  0.00000000E+00  0.00000000E+00
  0.00000000E+00  0.00000000E+00  0.00000000E+00
  0.00000000E+00  0.00000000E+00  0.00000000E+00
  0.00000000E+00  0.00000000E+00  0.00000000E+00
  0.00000000E+00  0.00000000E+00  0.00000000E+00
  0.00000000E+00  0.00000000E+00  0.00000000E+00
  0.00000000E+00  0.00000000E+00  0.00000000E+00
  0.00000000E+00  0.00000000E+00  0.00000000E+00
  0.00000000E+00  0.00000000E+00  0.00000000E+00
  0.00000000E+00  0.00000000E+00  0.00000000E+00
  0.00000000E+00  0.00000000E+00  0.00000000E+00
  0.00000000E+00  0.00000000E+00  0.00000000E+00
  0.00000000E+00  0.00000000E+00  0.00000000E+00
  0.00000000E+00  0.00000000E+00  0.00000000E+00
  0.00000000E+00  0.00000000E+00  0.00000000E+00
