Bi La Sn O  C  H                        
   1.00000000000000     
    29.0000000000000000    0.0000000000000000    0.0000000000000000
     0.2488180851000000   28.9989325590000000    0.0000000000000000
    -0.0631677343000000   -0.4515975666000000   28.9964147692999994
   Bi   La   Sn   O    C    H 
    22    23    23     2     1     1
Selective dynamics
Direct
  0.7605024597282392  0.4760739339089051  0.3996511049346537   T   T   T
  0.6466794849301478  0.6848130962556609  0.5511982219264959   T   T   T
  0.3606277381764941  0.4593721907249342  0.4268697520215365   T   T   T
  0.5509893036522919  0.7134270962952630  0.5849260732737407   T   T   T
  0.5915029568994470  0.5209714444905416  0.5841479689498996   F   F   F
  0.6394304098804131  0.6807188709244468  0.4446302060177853   T   T   T
  0.6960307006340790  0.5222151959675314  0.6534985134022084   T   T   T
  0.4868393256182106  0.7010690242516818  0.5006578540091345   T   T   T
  0.5004839460855024  0.5502791173970252  0.5477141156400123   F   F   F
  0.3258797406649937  0.4868283834672777  0.5751605172147225   T   T   T
  0.3832943530963759  0.6103564779012873  0.5365514295291502   T   T   T
  0.6667129484492236  0.4827404655721850  0.5105018184570156   F   F   F
  0.5763997220267569  0.4263140504383500  0.5448328182496311   F   F   F
  0.6682140126996173  0.3737372096623510  0.5065170560192440   T   T   T
  0.4622450015455531  0.3383053769149015  0.4983748957359186   T   T   T
  0.6484934028780529  0.5775373212088155  0.4602701624361103   F   F   F
  0.5577083268889467  0.4357797701191903  0.7494820539677006   T   T   T
  0.6007622267256542  0.3510841592922989  0.6692429726632135   T   T   T
  0.4925743053921554  0.2992903003010730  0.4086597639768527   T   T   T
  0.6604803947471354  0.6182973804165117  0.6662820747939401   T   T   T
  0.4940298167685874  0.4094479879684314  0.3071160267000377   T   T   T
  0.6218938344934820  0.3162961994238868  0.5735948857432390   T   T   T
  0.5368532147993843  0.6856058547155960  0.4029547029960340   T   T   T
  0.3901968189566575  0.4158846922560519  0.5262515582326808   T   T   T
  0.6304032273488031  0.5514673455880205  0.2830873198921551   T   T   T
  0.4718627370724057  0.4734682674357404  0.6922279913091266   T   T   T
  0.5683115009887700  0.5094300495444983  0.4784716241115703   F   F   F
  0.4203210565129183  0.5084107200613417  0.5018573595042781   F   F   F
  0.4526496569385406  0.4008794080070160  0.4063075215157138   T   T   T
  0.5654083353559115  0.3480036012386077  0.3550134364198653   T   T   T
  0.4118291372901401  0.5399353637102589  0.6108818732235501   T   T   T
  0.6003345927296150  0.4408548853106988  0.3054232794988712   T   T   T
  0.4553664774940548  0.6047444798634990  0.3630604110828862   T   T   T
  0.4202569094673300  0.4870981873520205  0.3383238163640482   T   T   T
  0.6611611055944588  0.4277210072139758  0.6043541327080330   T   T   T
  0.6737852883876898  0.5788802060036654  0.5637454340790438   T   T   T
  0.5264394291121404  0.5096335419561521  0.3276558199824740   T   T   T
  0.5653588636586236  0.3571574789654844  0.4692550538900653   T   T   T
  0.3175177028854743  0.5425178746234062  0.4911024838303247   T   T   T
  0.6601206186096472  0.4291250545609082  0.4155061867615942   T   T   T
  0.5660841929594156  0.6261437171197244  0.5094829013827464   F   F   F
  0.5964386416214291  0.5282541656127874  0.6900139245590245   T   T   T
  0.4709131587988142  0.6417915572710010  0.5892117640170679   T   T   T
  0.4632266275292514  0.6034027038865460  0.4645574523958447   T   T   T
  0.7174045847584165  0.5720452428581043  0.3837940358438258   T   T   T
  0.5499310510395361  0.5822218838566187  0.4076968008106903   F   F   F
  0.4794126430662260  0.5072205383607624  0.4190535757241776   F   F   F
  0.6961390413769416  0.4794862404979485  0.3250778666846048   T   T   T
  0.7513862298106773  0.4281669566426343  0.4887733828133856   T   T   T
  0.7486900253442765  0.5376527407081431  0.4853909476445202   T   T   T
  0.7492595619278091  0.4897672453176437  0.5721744395072241   T   T   T
  0.6475563093573922  0.4359025204153642  0.7083628553493522   T   T   T
  0.5770759327540731  0.7434123782233587  0.4930418400192849   T   T   T
  0.6192554540844384  0.5183157687966542  0.3801816896793397   F   F   F
  0.5061435155841484  0.5609073116464982  0.6505924545021128   T   T   T
  0.4922009500451665  0.4366758245867572  0.4933013002826740   F   F   F
  0.5608844484509063  0.4404139570509003  0.6454865549417619   F   F   F
  0.5779320179425287  0.6166724224297433  0.6135203659372678   T   T   T
  0.5473487332507320  0.6165687317687982  0.3131143932145864   T   T   T
  0.6299940072939433  0.6250197316016913  0.3609318629369814   T   T   T
  0.3787501018591715  0.5565384401560298  0.4112273674318396   T   T   T
  0.4723078164089713  0.4557257050327763  0.5877273803360978   F   F   F
  0.7267326129514835  0.6352456272085826  0.4832882159605530   T   T   T
  0.5005952175511762  0.3705889213136430  0.6829694668120165   T   T   T
  0.3822947725775192  0.4400191170755549  0.6396395383114988   T   T   T
  0.5544592502646992  0.4379899399457940  0.4037542370104745   F   F   F
  0.4337741533380677  0.3619955442595899  0.6074870312516160   T   T   T
  0.5278201624960942  0.3486935143328904  0.5782195826567749   T   T   T
  0.4503501331072249  0.6892843327619843  0.3596781622932119   T   T   T
  0.4903590412430490  0.7536032023755495  0.3762890072764662   T   T   T
  0.4545563822514433  0.7334497019887455  0.3615652537438730   T   T   T
  0.4247112812590345  0.7544929217543385  0.3499013670255819   T   T   T
 
  0.00000000E+00  0.00000000E+00  0.00000000E+00
  0.00000000E+00  0.00000000E+00  0.00000000E+00
  0.00000000E+00  0.00000000E+00  0.00000000E+00
  0.00000000E+00  0.00000000E+00  0.00000000E+00
  0.00000000E+00  0.00000000E+00  0.00000000E+00
  0.00000000E+00  0.00000000E+00  0.00000000E+00
  0.00000000E+00  0.00000000E+00  0.00000000E+00
  0.00000000E+00  0.00000000E+00  0.00000000E+00
  0.00000000E+00  0.00000000E+00  0.00000000E+00
  0.00000000E+00  0.00000000E+00  0.00000000E+00
  0.00000000E+00  0.00000000E+00  0.00000000E+00
  0.00000000E+00  0.00000000E+00  0.00000000E+00
  0.00000000E+00  0.00000000E+00  0.00000000E+00
  0.00000000E+00  0.00000000E+00  0.00000000E+00
  0.00000000E+00  0.00000000E+00  0.00000000E+00
  0.00000000E+00  0.00000000E+00  0.00000000E+00
  0.00000000E+00  0.00000000E+00  0.00000000E+00
  0.00000000E+00  0.00000000E+00  0.00000000E+00
  0.00000000E+00  0.00000000E+00  0.00000000E+00
  0.00000000E+00  0.00000000E+00  0.00000000E+00
  0.00000000E+00  0.00000000E+00  0.00000000E+00
  0.00000000E+00  0.00000000E+00  0.00000000E+00
  0.00000000E+00  0.00000000E+00  0.00000000E+00
  0.00000000E+00  0.00000000E+00  0.00000000E+00
  0.00000000E+00  0.00000000E+00  0.00000000E+00
  0.00000000E+00  0.00000000E+00  0.00000000E+00
  0.00000000E+00  0.00000000E+00  0.00000000E+00
  0.00000000E+00  0.00000000E+00  0.00000000E+00
  0.00000000E+00  0.00000000E+00  0.00000000E+00
  0.00000000E+00  0.00000000E+00  0.00000000E+00
  0.00000000E+00  0.00000000E+00  0.00000000E+00
  0.00000000E+00  0.00000000E+00  0.00000000E+00
  0.00000000E+00  0.00000000E+00  0.00000000E+00
  0.00000000E+00  0.00000000E+00  0.00000000E+00
  0.00000000E+00  0.00000000E+00  0.00000000E+00
  0.00000000E+00  0.00000000E+00  0.00000000E+00
  0.00000000E+00  0.00000000E+00  0.00000000E+00
  0.00000000E+00  0.00000000E+00  0.00000000E+00
  0.00000000E+00  0.00000000E+00  0.00000000E+00
  0.00000000E+00  0.00000000E+00  0.00000000E+00
  0.00000000E+00  0.00000000E+00  0.00000000E+00
  0.00000000E+00  0.00000000E+00  0.00000000E+00
  0.00000000E+00  0.00000000E+00  0.00000000E+00
  0.00000000E+00  0.00000000E+00  0.00000000E+00
  0.00000000E+00  0.00000000E+00  0.00000000E+00
  0.00000000E+00  0.00000000E+00  0.00000000E+00
  0.00000000E+00  0.00000000E+00  0.00000000E+00
  0.00000000E+00  0.00000000E+00  0.00000000E+00
  0.00000000E+00  0.00000000E+00  0.00000000E+00
  0.00000000E+00  0.00000000E+00  0.00000000E+00
  0.00000000E+00  0.00000000E+00  0.00000000E+00
  0.00000000E+00  0.00000000E+00  0.00000000E+00
  0.00000000E+00  0.00000000E+00  0.00000000E+00
  0.00000000E+00  0.00000000E+00  0.00000000E+00
  0.00000000E+00  0.00000000E+00  0.00000000E+00
  0.00000000E+00  0.00000000E+00  0.00000000E+00
  0.00000000E+00  0.00000000E+00  0.00000000E+00
  0.00000000E+00  0.00000000E+00  0.00000000E+00
  0.00000000E+00  0.00000000E+00  0.00000000E+00
  0.00000000E+00  0.00000000E+00  0.00000000E+00
  0.00000000E+00  0.00000000E+00  0.00000000E+00
  0.00000000E+00  0.00000000E+00  0.00000000E+00
  0.00000000E+00  0.00000000E+00  0.00000000E+00
  0.00000000E+00  0.00000000E+00  0.00000000E+00
  0.00000000E+00  0.00000000E+00  0.00000000E+00
  0.00000000E+00  0.00000000E+00  0.00000000E+00
  0.00000000E+00  0.00000000E+00  0.00000000E+00
  0.00000000E+00  0.00000000E+00  0.00000000E+00
  0.00000000E+00  0.00000000E+00  0.00000000E+00
  0.00000000E+00  0.00000000E+00  0.00000000E+00
  0.00000000E+00  0.00000000E+00  0.00000000E+00
  0.00000000E+00  0.00000000E+00  0.00000000E+00
