Bi La Sn O  C  H                        
   1.00000000000000     
    29.0000000000000000    0.0000000000000000    0.0000000000000000
     0.2488180851000000   28.9989325590000000    0.0000000000000000
    -0.0631677343000000   -0.4515975666000000   28.9964147692999994
   Bi   La   Sn   O    C    H 
    22    23    23     2     1     1
Selective dynamics
Direct
  0.7605431006966319  0.4764907329600380  0.3992415454520208   T   T   T
  0.6482246360918859  0.6844107457526272  0.5509917377690660   T   T   T
  0.3620168934374514  0.4578893712867965  0.4268243084581696   T   T   T
  0.5524171766528495  0.7137410847386910  0.5840050490139276   T   T   T
  0.5915029568994470  0.5209714444905416  0.5841479689498996   F   F   F
  0.6408814600983511  0.6804151454168517  0.4457319433958878   T   T   T
  0.6955826908095588  0.5204107846385114  0.6536501992169130   T   T   T
  0.4872793545403846  0.7017033980161690  0.4986778125672451   T   T   T
  0.5004839460855024  0.5502791173970252  0.5477141156400123   F   F   F
  0.3287987937720815  0.4863956908978147  0.5762067008668209   T   T   T
  0.3842536465259768  0.6082198386748942  0.5376756603347042   T   T   T
  0.6667129484492236  0.4827404655721850  0.5105018184570156   F   F   F
  0.5763997220267569  0.4263140504383500  0.5448328182496311   F   F   F
  0.6688358764477731  0.3736029288606583  0.5067905560433236   T   T   T
  0.4621206128304396  0.3380057721066557  0.4954037870976598   T   T   T
  0.6484934028780529  0.5775373212088155  0.4602701624361103   F   F   F
  0.5552830972907354  0.4351637975277924  0.7496649827152461   T   T   T
  0.5931705753077453  0.3490202365094249  0.6677684973928258   T   T   T
  0.4941031618335652  0.2998204401711979  0.4061640482310068   T   T   T
  0.6610929917054329  0.6163847438530525  0.6674708448998480   T   T   T
  0.4933858146980000  0.4102060033088110  0.3046513939189048   T   T   T
  0.6211474175093172  0.3164628646024212  0.5731542103235964   T   T   T
  0.5404243983871755  0.6839198556468979  0.4043178640189715   T   T   T
  0.3901229010684136  0.4151016984918751  0.5255169312465537   T   T   T
  0.6296713250648770  0.5518829625373635  0.2827925953658849   T   T   T
  0.4729249997727319  0.4801830884847432  0.6925589231343785   T   T   T
  0.5683115009887700  0.5094300495444983  0.4784716241115703   F   F   F
  0.4203210565129183  0.5084107200613417  0.5018573595042781   F   F   F
  0.4536315959807338  0.4012316410203012  0.4042412261092423   T   T   T
  0.5657247750998536  0.3494286083585750  0.3525018842889687   T   T   T
  0.4137285718521198  0.5397830915153194  0.6127340032549109   T   T   T
  0.5997052605456459  0.4422151952647982  0.3045880662176961   T   T   T
  0.4554885081223654  0.6001897124955708  0.3624914924787537   T   T   T
  0.4199498176242202  0.4873089176192190  0.3383243458914842   T   T   T
  0.6606808569431032  0.4264487216424958  0.6045149110563809   T   T   T
  0.6741648338355303  0.5783453218721615  0.5640112429749545   T   T   T
  0.5263732985291084  0.5095512804370486  0.3279827202002136   T   T   T
  0.5661343526206309  0.3567415211065011  0.4690875210269690   T   T   T
  0.3124589433052065  0.5422204991426985  0.4904260009214578   T   T   T
  0.6600950563027984  0.4292445791224701  0.4157719471701193   T   T   T
  0.5660841929594156  0.6261437171197244  0.5094829013827464   F   F   F
  0.5959989860889375  0.5271684467368327  0.6900935270673492   T   T   T
  0.4713846495567773  0.6431158796855675  0.5876789132798622   T   T   T
  0.4626212688792458  0.6038515795991822  0.4636553572950312   T   T   T
  0.7172791013472518  0.5722673284306785  0.3838932071245308   T   T   T
  0.5499310510395361  0.5822218838566187  0.4076968008106903   F   F   F
  0.4794126430662260  0.5072205383607624  0.4190535757241776   F   F   F
  0.6956701901125845  0.4797990779762591  0.3249463205986082   T   T   T
  0.7515471599276410  0.4280280201735810  0.4879494180951964   T   T   T
  0.7489417139357774  0.5370125299377272  0.4855659242291245   T   T   T
  0.7491198519172096  0.4888011933800872  0.5722086753587857   T   T   T
  0.6447425106714217  0.4317064123733930  0.7085114479608777   T   T   T
  0.5777102732550470  0.7437056503757518  0.4927512240530982   T   T   T
  0.6192554540844384  0.5183157687966542  0.3801816896793397   F   F   F
  0.5077626467490551  0.5651941207145621  0.6506448709196023   T   T   T
  0.4922009500451665  0.4366758245867572  0.4933013002826740   F   F   F
  0.5608844484509063  0.4404139570509003  0.6454865549417619   F   F   F
  0.5797066174318576  0.6174081918251469  0.6129460683691365   T   T   T
  0.5460833573938907  0.6174951147208900  0.3129903368966260   T   T   T
  0.6292373876193872  0.6245017809883561  0.3610799817248748   T   T   T
  0.3782531431938921  0.5557385866097870  0.4121415150903766   T   T   T
  0.4723078164089713  0.4557257050327763  0.5877273803360978   F   F   F
  0.7281334779378258  0.6340099141907796  0.4840405293319346   T   T   T
  0.4933948464022366  0.3769157345984087  0.6788251911955896   T   T   T
  0.3862206843029292  0.4379786490922191  0.6400008562062574   T   T   T
  0.5544592502646992  0.4379899399457940  0.4037542370104745   F   F   F
  0.4313708570204349  0.3573441103007077  0.6026777529150160   T   T   T
  0.5262029391630743  0.3491722814450410  0.5762388236290452   T   T   T
  0.2324332336755723  0.5379658589060473  0.4621654167372883   T   T   T
  0.2590774172957201  0.6087251042712682  0.4797479375641683   T   T   T
  0.2280015227384971  0.5820314250402778  0.4634489839373341   T   T   T
  0.1958577877474268  0.5975973850669114  0.4493160964276630   T   T   T
 
  0.00000000E+00  0.00000000E+00  0.00000000E+00
  0.00000000E+00  0.00000000E+00  0.00000000E+00
  0.00000000E+00  0.00000000E+00  0.00000000E+00
  0.00000000E+00  0.00000000E+00  0.00000000E+00
  0.00000000E+00  0.00000000E+00  0.00000000E+00
  0.00000000E+00  0.00000000E+00  0.00000000E+00
  0.00000000E+00  0.00000000E+00  0.00000000E+00
  0.00000000E+00  0.00000000E+00  0.00000000E+00
  0.00000000E+00  0.00000000E+00  0.00000000E+00
  0.00000000E+00  0.00000000E+00  0.00000000E+00
  0.00000000E+00  0.00000000E+00  0.00000000E+00
  0.00000000E+00  0.00000000E+00  0.00000000E+00
  0.00000000E+00  0.00000000E+00  0.00000000E+00
  0.00000000E+00  0.00000000E+00  0.00000000E+00
  0.00000000E+00  0.00000000E+00  0.00000000E+00
  0.00000000E+00  0.00000000E+00  0.00000000E+00
  0.00000000E+00  0.00000000E+00  0.00000000E+00
  0.00000000E+00  0.00000000E+00  0.00000000E+00
  0.00000000E+00  0.00000000E+00  0.00000000E+00
  0.00000000E+00  0.00000000E+00  0.00000000E+00
  0.00000000E+00  0.00000000E+00  0.00000000E+00
  0.00000000E+00  0.00000000E+00  0.00000000E+00
  0.00000000E+00  0.00000000E+00  0.00000000E+00
  0.00000000E+00  0.00000000E+00  0.00000000E+00
  0.00000000E+00  0.00000000E+00  0.00000000E+00
  0.00000000E+00  0.00000000E+00  0.00000000E+00
  0.00000000E+00  0.00000000E+00  0.00000000E+00
  0.00000000E+00  0.00000000E+00  0.00000000E+00
  0.00000000E+00  0.00000000E+00  0.00000000E+00
  0.00000000E+00  0.00000000E+00  0.00000000E+00
  0.00000000E+00  0.00000000E+00  0.00000000E+00
  0.00000000E+00  0.00000000E+00  0.00000000E+00
  0.00000000E+00  0.00000000E+00  0.00000000E+00
  0.00000000E+00  0.00000000E+00  0.00000000E+00
  0.00000000E+00  0.00000000E+00  0.00000000E+00
  0.00000000E+00  0.00000000E+00  0.00000000E+00
  0.00000000E+00  0.00000000E+00  0.00000000E+00
  0.00000000E+00  0.00000000E+00  0.00000000E+00
  0.00000000E+00  0.00000000E+00  0.00000000E+00
  0.00000000E+00  0.00000000E+00  0.00000000E+00
  0.00000000E+00  0.00000000E+00  0.00000000E+00
  0.00000000E+00  0.00000000E+00  0.00000000E+00
  0.00000000E+00  0.00000000E+00  0.00000000E+00
  0.00000000E+00  0.00000000E+00  0.00000000E+00
  0.00000000E+00  0.00000000E+00  0.00000000E+00
  0.00000000E+00  0.00000000E+00  0.00000000E+00
  0.00000000E+00  0.00000000E+00  0.00000000E+00
  0.00000000E+00  0.00000000E+00  0.00000000E+00
  0.00000000E+00  0.00000000E+00  0.00000000E+00
  0.00000000E+00  0.00000000E+00  0.00000000E+00
  0.00000000E+00  0.00000000E+00  0.00000000E+00
  0.00000000E+00  0.00000000E+00  0.00000000E+00
  0.00000000E+00  0.00000000E+00  0.00000000E+00
  0.00000000E+00  0.00000000E+00  0.00000000E+00
  0.00000000E+00  0.00000000E+00  0.00000000E+00
  0.00000000E+00  0.00000000E+00  0.00000000E+00
  0.00000000E+00  0.00000000E+00  0.00000000E+00
  0.00000000E+00  0.00000000E+00  0.00000000E+00
  0.00000000E+00  0.00000000E+00  0.00000000E+00
  0.00000000E+00  0.00000000E+00  0.00000000E+00
  0.00000000E+00  0.00000000E+00  0.00000000E+00
  0.00000000E+00  0.00000000E+00  0.00000000E+00
  0.00000000E+00  0.00000000E+00  0.00000000E+00
  0.00000000E+00  0.00000000E+00  0.00000000E+00
  0.00000000E+00  0.00000000E+00  0.00000000E+00
  0.00000000E+00  0.00000000E+00  0.00000000E+00
  0.00000000E+00  0.00000000E+00  0.00000000E+00
  0.00000000E+00  0.00000000E+00  0.00000000E+00
  0.00000000E+00  0.00000000E+00  0.00000000E+00
  0.00000000E+00  0.00000000E+00  0.00000000E+00
  0.00000000E+00  0.00000000E+00  0.00000000E+00
  0.00000000E+00  0.00000000E+00  0.00000000E+00
