Bi La Sn O  C  H                        
   1.00000000000000     
    29.0000000000000000    0.0000000000000000    0.0000000000000000
     0.2488180851000000   28.9989325590000000    0.0000000000000000
    -0.0631677343000000   -0.4515975666000000   28.9964147692999994
   Bi   La   Sn   O    C    H 
    22    23    23     2     1     1
Selective dynamics
Direct
  0.7570651921705892  0.4776665758207907  0.3965575150380866   T   T   T
  0.6448540527724346  0.6847457976575456  0.5545618052962604   T   T   T
  0.3573901905417052  0.4554964285410631  0.4329278337420771   T   T   T
  0.5461509994017892  0.7120321508161255  0.5865149011714504   T   T   T
  0.5915029568994470  0.5209714444905416  0.5841479689498996   F   F   F
  0.6387812793521769  0.6806990448195778  0.4454578208251980   T   T   T
  0.6959943838371203  0.5251959711144971  0.6544683848951351   T   T   T
  0.4854709942058486  0.7022655991425466  0.5011305283549614   T   T   T
  0.5004839460855024  0.5502791173970252  0.5477141156400123   F   F   F
  0.3227596608508267  0.4820164108971481  0.5739573211414927   T   T   T
  0.3751698303371107  0.6074250167310328  0.5220755557390014   T   T   T
  0.6667129484492236  0.4827404655721850  0.5105018184570156   F   F   F
  0.5763997220267569  0.4263140504383500  0.5448328182496311   F   F   F
  0.6703530827778067  0.3751319074957269  0.5078739227158379   T   T   T
  0.4653044040841932  0.3392475548876721  0.5013629656388892   T   T   T
  0.6484934028780529  0.5775373212088155  0.4602701624361103   F   F   F
  0.5605054795047589  0.4391371114693399  0.7495721731838073   T   T   T
  0.6089997862608837  0.3531278912197681  0.6688279301131819   T   T   T
  0.4913585958478051  0.3000418064082033  0.4106810778181209   T   T   T
  0.6577247639822932  0.6207790242636173  0.6649402594119762   T   T   T
  0.4814039247769002  0.4182645907139561  0.3059304077930556   T   T   T
  0.6217387774814308  0.3170277039529399  0.5723198931473913   T   T   T
  0.5370183783929131  0.6842571771961100  0.4058964740368929   T   T   T
  0.3912046865946613  0.4136297797614832  0.5299649119343173   T   T   T
  0.6277107597007535  0.5537858244037019  0.2833771295771025   T   T   T
  0.4711348188778385  0.4665507707237104  0.6921862028552271   T   T   T
  0.5683115009887700  0.5094300495444983  0.4784716241115703   F   F   F
  0.4203210565129183  0.5084107200613417  0.5018573595042781   F   F   F
  0.4496233571535964  0.4016728881571264  0.4077511086328693   T   T   T
  0.5528248255733083  0.3527243996305074  0.3476234016215332   T   T   T
  0.4053161625716342  0.5436346286708358  0.6059192542836408   T   T   T
  0.5937427999371604  0.4451230804410954  0.3028990584713586   T   T   T
  0.4535498002921591  0.6020475251469128  0.3669393097770203   T   T   T
  0.4094242475824972  0.4942532728103135  0.3485996799181270   T   T   T
  0.6615903570192722  0.4307488161822145  0.6049491074134679   T   T   T
  0.6720204864916852  0.5794657536477323  0.5637617895795837   T   T   T
  0.5248116563918698  0.5116487004864101  0.3284482827205952   T   T   T
  0.5667827760847274  0.3575669728154184  0.4682721755956997   T   T   T
  0.3058763977912164  0.5318345446744164  0.4893548397137127   T   T   T
  0.6599330756828830  0.4297689725436714  0.4158639846136271   T   T   T
  0.5660841929594156  0.6261437171197244  0.5094829013827464   F   F   F
  0.5950010949924167  0.5303834689392669  0.6888089202501027   T   T   T
  0.4639908052408715  0.6402616263776658  0.5870386319437690   T   T   T
  0.4678393235850552  0.6040348269984446  0.4653500292417550   T   T   T
  0.7150679244039365  0.5730974511713295  0.3818159119466848   T   T   T
  0.5499310510395361  0.5822218838566187  0.4076968008106903   F   F   F
  0.4794126430662260  0.5072205383607624  0.4190535757241776   F   F   F
  0.6920950355187160  0.4782652265774968  0.3219466337077236   T   T   T
  0.7530705328061358  0.4315846113264759  0.4874751392177934   T   T   T
  0.7479339888745562  0.5391243688965085  0.4838423982465938   T   T   T
  0.7485012722301354  0.4934006107827263  0.5721796678509324   T   T   T
  0.6497840737645845  0.4400288698538196  0.7093013000496051   T   T   T
  0.5773173244131562  0.7424142886714075  0.4960004476793858   T   T   T
  0.6192554540844384  0.5183157687966542  0.3801816896793397   F   F   F
  0.5024894992167502  0.5548004717864995  0.6476191874279502   T   T   T
  0.4922009500451665  0.4366758245867572  0.4933013002826740   F   F   F
  0.5608844484509063  0.4404139570509003  0.6454865549417619   F   F   F
  0.5732955547095364  0.6156602148221338  0.6138294451797710   T   T   T
  0.5432004564717925  0.6193327308671773  0.3137263582889842   T   T   T
  0.6272819582408738  0.6269011588660816  0.3603470606457246   T   T   T
  0.3735517833207708  0.5693146228083197  0.4239522005664519   T   T   T
  0.4723078164089713  0.4557257050327763  0.5877273803360978   F   F   F
  0.7252066992436991  0.6362083045830960  0.4853272032088343   T   T   T
  0.5087376138000965  0.3649761126072152  0.6884478648446347   T   T   T
  0.3807459498831168  0.4450155138705538  0.6419751103282844   T   T   T
  0.5544592502646992  0.4379899399457940  0.4037542370104745   F   F   F
  0.4361961488414288  0.3674629450432548  0.6172686481396927   T   T   T
  0.5283867187138412  0.3499818184952574  0.5822464709617050   T   T   T
  0.3498534229697716  0.5823759726926752  0.6622032532405157   T   T   T
  0.3996244124690771  0.6363404293156869  0.6390876061043179   T   T   T
  0.3638930984801477  0.6233443917076535  0.6618231434557865   T   T   T
  0.3449830719707235  0.6504291546801686  0.6816882563122024   T   T   T
 
  0.00000000E+00  0.00000000E+00  0.00000000E+00
  0.00000000E+00  0.00000000E+00  0.00000000E+00
  0.00000000E+00  0.00000000E+00  0.00000000E+00
  0.00000000E+00  0.00000000E+00  0.00000000E+00
  0.00000000E+00  0.00000000E+00  0.00000000E+00
  0.00000000E+00  0.00000000E+00  0.00000000E+00
  0.00000000E+00  0.00000000E+00  0.00000000E+00
  0.00000000E+00  0.00000000E+00  0.00000000E+00
  0.00000000E+00  0.00000000E+00  0.00000000E+00
  0.00000000E+00  0.00000000E+00  0.00000000E+00
  0.00000000E+00  0.00000000E+00  0.00000000E+00
  0.00000000E+00  0.00000000E+00  0.00000000E+00
  0.00000000E+00  0.00000000E+00  0.00000000E+00
  0.00000000E+00  0.00000000E+00  0.00000000E+00
  0.00000000E+00  0.00000000E+00  0.00000000E+00
  0.00000000E+00  0.00000000E+00  0.00000000E+00
  0.00000000E+00  0.00000000E+00  0.00000000E+00
  0.00000000E+00  0.00000000E+00  0.00000000E+00
  0.00000000E+00  0.00000000E+00  0.00000000E+00
  0.00000000E+00  0.00000000E+00  0.00000000E+00
  0.00000000E+00  0.00000000E+00  0.00000000E+00
  0.00000000E+00  0.00000000E+00  0.00000000E+00
  0.00000000E+00  0.00000000E+00  0.00000000E+00
  0.00000000E+00  0.00000000E+00  0.00000000E+00
  0.00000000E+00  0.00000000E+00  0.00000000E+00
  0.00000000E+00  0.00000000E+00  0.00000000E+00
  0.00000000E+00  0.00000000E+00  0.00000000E+00
  0.00000000E+00  0.00000000E+00  0.00000000E+00
  0.00000000E+00  0.00000000E+00  0.00000000E+00
  0.00000000E+00  0.00000000E+00  0.00000000E+00
  0.00000000E+00  0.00000000E+00  0.00000000E+00
  0.00000000E+00  0.00000000E+00  0.00000000E+00
  0.00000000E+00  0.00000000E+00  0.00000000E+00
  0.00000000E+00  0.00000000E+00  0.00000000E+00
  0.00000000E+00  0.00000000E+00  0.00000000E+00
  0.00000000E+00  0.00000000E+00  0.00000000E+00
  0.00000000E+00  0.00000000E+00  0.00000000E+00
  0.00000000E+00  0.00000000E+00  0.00000000E+00
  0.00000000E+00  0.00000000E+00  0.00000000E+00
  0.00000000E+00  0.00000000E+00  0.00000000E+00
  0.00000000E+00  0.00000000E+00  0.00000000E+00
  0.00000000E+00  0.00000000E+00  0.00000000E+00
  0.00000000E+00  0.00000000E+00  0.00000000E+00
  0.00000000E+00  0.00000000E+00  0.00000000E+00
  0.00000000E+00  0.00000000E+00  0.00000000E+00
  0.00000000E+00  0.00000000E+00  0.00000000E+00
  0.00000000E+00  0.00000000E+00  0.00000000E+00
  0.00000000E+00  0.00000000E+00  0.00000000E+00
  0.00000000E+00  0.00000000E+00  0.00000000E+00
  0.00000000E+00  0.00000000E+00  0.00000000E+00
  0.00000000E+00  0.00000000E+00  0.00000000E+00
  0.00000000E+00  0.00000000E+00  0.00000000E+00
  0.00000000E+00  0.00000000E+00  0.00000000E+00
  0.00000000E+00  0.00000000E+00  0.00000000E+00
  0.00000000E+00  0.00000000E+00  0.00000000E+00
  0.00000000E+00  0.00000000E+00  0.00000000E+00
  0.00000000E+00  0.00000000E+00  0.00000000E+00
  0.00000000E+00  0.00000000E+00  0.00000000E+00
  0.00000000E+00  0.00000000E+00  0.00000000E+00
  0.00000000E+00  0.00000000E+00  0.00000000E+00
  0.00000000E+00  0.00000000E+00  0.00000000E+00
  0.00000000E+00  0.00000000E+00  0.00000000E+00
  0.00000000E+00  0.00000000E+00  0.00000000E+00
  0.00000000E+00  0.00000000E+00  0.00000000E+00
  0.00000000E+00  0.00000000E+00  0.00000000E+00
  0.00000000E+00  0.00000000E+00  0.00000000E+00
  0.00000000E+00  0.00000000E+00  0.00000000E+00
  0.00000000E+00  0.00000000E+00  0.00000000E+00
  0.00000000E+00  0.00000000E+00  0.00000000E+00
  0.00000000E+00  0.00000000E+00  0.00000000E+00
  0.00000000E+00  0.00000000E+00  0.00000000E+00
  0.00000000E+00  0.00000000E+00  0.00000000E+00
