Bi La Sn O  C  H                        
   1.00000000000000     
    29.0000000000000000    0.0000000000000000    0.0000000000000000
     0.2488180851000000   28.9989325590000000    0.0000000000000000
    -0.0631677343000000   -0.4515975666000000   28.9964147692999994
   Bi   La   Sn   O    C    H 
    22    23    23     2     1     1
Selective dynamics
Direct
  0.7582609690833658  0.4793031999592197  0.3995353284287607   T   T   T
  0.6463890427794622  0.6848372332381488  0.5520143612155931   T   T   T
  0.3599058542359763  0.4593191845564763  0.4280550780271127   T   T   T
  0.5499037154265684  0.7130639638353438  0.5851041731536396   T   T   T
  0.5915029568994470  0.5209714444905416  0.5841479689498996   F   F   F
  0.6395904098629298  0.6802114407330870  0.4454595937714021   T   T   T
  0.6975135195904132  0.5240397201119864  0.6550110706681089   T   T   T
  0.4862682079578846  0.7011493342050884  0.5005722543873516   T   T   T
  0.5004839460855024  0.5502791173970252  0.5477141156400123   F   F   F
  0.3255057608941320  0.4856063337001098  0.5758250225714433   T   T   T
  0.3819630968789995  0.6098847645378800  0.5357235328711014   T   T   T
  0.6667129484492236  0.4827404655721850  0.5105018184570156   F   F   F
  0.5763997220267569  0.4263140504383500  0.5448328182496311   F   F   F
  0.6695551510430370  0.3762756963517762  0.5113002112643640   T   T   T
  0.4637509259415210  0.3392040049974525  0.4986259824831650   T   T   T
  0.6484934028780529  0.5775373212088155  0.4602701624361103   F   F   F
  0.5579152301031142  0.4377803957010579  0.7495643794185145   T   T   T
  0.6021923836249160  0.3527576326762676  0.6711898618916697   T   T   T
  0.4927016356295157  0.3003023597683398  0.4084849113432087   T   T   T
  0.6600396367634913  0.6192076082830736  0.6664424914894537   T   T   T
  0.4906169600559891  0.4127873463820455  0.3056769608842040   T   T   T
  0.6224366556172940  0.3168541159078362  0.5758334614553365   T   T   T
  0.5384026459297395  0.6838804818876553  0.4052664587978688   T   T   T
  0.3902074693353714  0.4155726721259098  0.5265182816608864   T   T   T
  0.6277034255824289  0.5537238873963903  0.2822663122252404   T   T   T
  0.4718414333685932  0.4729437103883808  0.6925824859659804   T   T   T
  0.5683115009887700  0.5094300495444983  0.4784716241115703   F   F   F
  0.4203210565129183  0.5084107200613417  0.5018573595042781   F   F   F
  0.4520405269711708  0.4016457552472411  0.4056975290743106   T   T   T
  0.5629368880671312  0.3489604738826244  0.3510131370692357   T   T   T
  0.4111631681190144  0.5396137717094275  0.6101875688205860   T   T   T
  0.5973156292747129  0.4446907885713869  0.3043229433271960   T   T   T
  0.4546818388579952  0.6014144236647451  0.3639215088614121   T   T   T
  0.4176295020516796  0.4893234610713867  0.3401128494423363   T   T   T
  0.6608373808349075  0.4301905275199734  0.6066489893070613   T   T   T
  0.6733829913850622  0.5786243892025675  0.5643720169053134   T   T   T
  0.5255751175881492  0.5112110888300864  0.3280324354584477   T   T   T
  0.5674938217364794  0.3564552106298808  0.4689897649086534   T   T   T
  0.3153133017621212  0.5410844351165793  0.4920969003362775   T   T   T
  0.6606747083807699  0.4253588396105101  0.4140535583925783   T   T   T
  0.5660841929594156  0.6261437171197244  0.5094829013827464   F   F   F
  0.5965633151885683  0.5286862296625153  0.6894896225426159   T   T   T
  0.4697267056009408  0.6413352998880094  0.5886340645101765   T   T   T
  0.4631886980794601  0.6035469858904141  0.4642235389122131   T   T   T
  0.7166392256468522  0.5754180720042404  0.3835130953426313   T   T   T
  0.5499310510395361  0.5822218838566187  0.4076968008106903   F   F   F
  0.4794126430662260  0.5072205383607624  0.4190535757241776   F   F   F
  0.6942908714556592  0.4821846091086164  0.3246519483300743   T   T   T
  0.7522989807646592  0.4302560138806363  0.4876641405087662   T   T   T
  0.7483477171816399  0.5393439805894322  0.4857893811014078   T   T   T
  0.7488231262221225  0.4910219204451416  0.5722928941252511   T   T   T
  0.6485054916840863  0.4373548233975765  0.7110161126171607   T   T   T
  0.5769544377601203  0.7432236488300552  0.4936947941861063   T   T   T
  0.6192554540844384  0.5183157687966542  0.3801816896793397   F   F   F
  0.5057874586527215  0.5600462090248913  0.6500316766763575   T   T   T
  0.4922009500451665  0.4366758245867572  0.4933013002826740   F   F   F
  0.5608844484509063  0.4404139570509003  0.6454865549417619   F   F   F
  0.5774289422409896  0.6164318362905430  0.6135161644534548   T   T   T
  0.5442096323541851  0.6190970723270669  0.3126056475730423   T   T   T
  0.6272537822914737  0.6255555262121143  0.3606721505878994   T   T   T
  0.3764180491747648  0.5587289721902833  0.4136754123349503   T   T   T
  0.4723078164089713  0.4557257050327763  0.5877273803360978   F   F   F
  0.7266783709344863  0.6362784649049565  0.4853574145999214   T   T   T
  0.5008796281576836  0.3702857260968910  0.6820087331680093   T   T   T
  0.3828258974772150  0.4394895085275815  0.6401320890533467   T   T   T
  0.5544592502646992  0.4379899399457940  0.4037542370104745   F   F   F
  0.4330896786098110  0.3613875514147055  0.6071075162068438   T   T   T
  0.5283588542732633  0.3490897810522099  0.5793927088434970   T   T   T
  0.6266531030309506  0.3371073473726287  0.4045181239075694   T   T   T
  0.7027639623412540  0.3488040559582581  0.3949835067598386   T   T   T
  0.6704888306371988  0.3257812136071521  0.4114196609271366   T   T   T
  0.6768197926516042  0.2941979746993558  0.4312174940117032   T   T   T
 
  0.00000000E+00  0.00000000E+00  0.00000000E+00
  0.00000000E+00  0.00000000E+00  0.00000000E+00
  0.00000000E+00  0.00000000E+00  0.00000000E+00
  0.00000000E+00  0.00000000E+00  0.00000000E+00
  0.00000000E+00  0.00000000E+00  0.00000000E+00
  0.00000000E+00  0.00000000E+00  0.00000000E+00
  0.00000000E+00  0.00000000E+00  0.00000000E+00
  0.00000000E+00  0.00000000E+00  0.00000000E+00
  0.00000000E+00  0.00000000E+00  0.00000000E+00
  0.00000000E+00  0.00000000E+00  0.00000000E+00
  0.00000000E+00  0.00000000E+00  0.00000000E+00
  0.00000000E+00  0.00000000E+00  0.00000000E+00
  0.00000000E+00  0.00000000E+00  0.00000000E+00
  0.00000000E+00  0.00000000E+00  0.00000000E+00
  0.00000000E+00  0.00000000E+00  0.00000000E+00
  0.00000000E+00  0.00000000E+00  0.00000000E+00
  0.00000000E+00  0.00000000E+00  0.00000000E+00
  0.00000000E+00  0.00000000E+00  0.00000000E+00
  0.00000000E+00  0.00000000E+00  0.00000000E+00
  0.00000000E+00  0.00000000E+00  0.00000000E+00
  0.00000000E+00  0.00000000E+00  0.00000000E+00
  0.00000000E+00  0.00000000E+00  0.00000000E+00
  0.00000000E+00  0.00000000E+00  0.00000000E+00
  0.00000000E+00  0.00000000E+00  0.00000000E+00
  0.00000000E+00  0.00000000E+00  0.00000000E+00
  0.00000000E+00  0.00000000E+00  0.00000000E+00
  0.00000000E+00  0.00000000E+00  0.00000000E+00
  0.00000000E+00  0.00000000E+00  0.00000000E+00
  0.00000000E+00  0.00000000E+00  0.00000000E+00
  0.00000000E+00  0.00000000E+00  0.00000000E+00
  0.00000000E+00  0.00000000E+00  0.00000000E+00
  0.00000000E+00  0.00000000E+00  0.00000000E+00
  0.00000000E+00  0.00000000E+00  0.00000000E+00
  0.00000000E+00  0.00000000E+00  0.00000000E+00
  0.00000000E+00  0.00000000E+00  0.00000000E+00
  0.00000000E+00  0.00000000E+00  0.00000000E+00
  0.00000000E+00  0.00000000E+00  0.00000000E+00
  0.00000000E+00  0.00000000E+00  0.00000000E+00
  0.00000000E+00  0.00000000E+00  0.00000000E+00
  0.00000000E+00  0.00000000E+00  0.00000000E+00
  0.00000000E+00  0.00000000E+00  0.00000000E+00
  0.00000000E+00  0.00000000E+00  0.00000000E+00
  0.00000000E+00  0.00000000E+00  0.00000000E+00
  0.00000000E+00  0.00000000E+00  0.00000000E+00
  0.00000000E+00  0.00000000E+00  0.00000000E+00
  0.00000000E+00  0.00000000E+00  0.00000000E+00
  0.00000000E+00  0.00000000E+00  0.00000000E+00
  0.00000000E+00  0.00000000E+00  0.00000000E+00
  0.00000000E+00  0.00000000E+00  0.00000000E+00
  0.00000000E+00  0.00000000E+00  0.00000000E+00
  0.00000000E+00  0.00000000E+00  0.00000000E+00
  0.00000000E+00  0.00000000E+00  0.00000000E+00
  0.00000000E+00  0.00000000E+00  0.00000000E+00
  0.00000000E+00  0.00000000E+00  0.00000000E+00
  0.00000000E+00  0.00000000E+00  0.00000000E+00
  0.00000000E+00  0.00000000E+00  0.00000000E+00
  0.00000000E+00  0.00000000E+00  0.00000000E+00
  0.00000000E+00  0.00000000E+00  0.00000000E+00
  0.00000000E+00  0.00000000E+00  0.00000000E+00
  0.00000000E+00  0.00000000E+00  0.00000000E+00
  0.00000000E+00  0.00000000E+00  0.00000000E+00
  0.00000000E+00  0.00000000E+00  0.00000000E+00
  0.00000000E+00  0.00000000E+00  0.00000000E+00
  0.00000000E+00  0.00000000E+00  0.00000000E+00
  0.00000000E+00  0.00000000E+00  0.00000000E+00
  0.00000000E+00  0.00000000E+00  0.00000000E+00
  0.00000000E+00  0.00000000E+00  0.00000000E+00
  0.00000000E+00  0.00000000E+00  0.00000000E+00
  0.00000000E+00  0.00000000E+00  0.00000000E+00
  0.00000000E+00  0.00000000E+00  0.00000000E+00
  0.00000000E+00  0.00000000E+00  0.00000000E+00
  0.00000000E+00  0.00000000E+00  0.00000000E+00
