Bi La Sn O  C  H                        
   1.00000000000000     
    29.0000000000000000    0.0000000000000000    0.0000000000000000
     0.2488180851000000   28.9989325590000000    0.0000000000000000
    -0.0631677343000000   -0.4515975666000000   28.9964147692999994
   Bi   La   Sn   O    C    H 
    22    23    23     2     1     1
Selective dynamics
Direct
  0.7596198799454222  0.4788933030145562  0.3984172276802723   T   T   T
  0.6480796178683083  0.6846582656122957  0.5503204806827734   T   T   T
  0.3602178627840530  0.4589006082896284  0.4271827540318756   T   T   T
  0.5512939635055980  0.7135279113559539  0.5837551922826448   T   T   T
  0.5915029568994470  0.5209714444905416  0.5841479689498996   F   F   F
  0.6404567073494974  0.6798428022682035  0.4450194210655379   T   T   T
  0.6942984164969999  0.5195466283340828  0.6536942603685076   T   T   T
  0.4873734750358508  0.7018505073641896  0.4983073757828712   T   T   T
  0.5004839460855024  0.5502791173970252  0.5477141156400123   F   F   F
  0.3275942261802313  0.4856599003920117  0.5781902155684067   T   T   T
  0.3823655391676388  0.6085054133320692  0.5373187475910192   T   T   T
  0.6667129484492236  0.4827404655721850  0.5105018184570156   F   F   F
  0.5763997220267569  0.4263140504383500  0.5448328182496311   F   F   F
  0.6677615281375531  0.3732663852744674  0.5064953127890944   T   T   T
  0.4604628355048888  0.3388168228657501  0.4956785783240013   T   T   T
  0.6484934028780529  0.5775373212088155  0.4602701624361103   F   F   F
  0.5538472428347374  0.4341390353136421  0.7494082188734341   T   T   T
  0.5954595503572022  0.3464292018643146  0.6669196136422576   T   T   T
  0.4919134212213828  0.2995652899625374  0.4067160903656333   T   T   T
  0.6608212840989851  0.6155284555677732  0.6681060009471003   T   T   T
  0.4895506141322521  0.4121043862956336  0.3027490260200769   T   T   T
  0.6188710612525616  0.3151174925712859  0.5707804837540575   T   T   T
  0.5397191935501028  0.6835518408161599  0.4040025943396321   T   T   T
  0.3888946039329180  0.4161746338465133  0.5252989432001585   T   T   T
  0.6267665246078691  0.5517942947368142  0.2817783642423212   T   T   T
  0.4726967448121684  0.4806753474884731  0.6921870095231041   T   T   T
  0.5683115009887700  0.5094300495444983  0.4784716241115703   F   F   F
  0.4203210565129183  0.5084107200613417  0.5018573595042781   F   F   F
  0.4524622350336764  0.4020769702061762  0.4043546315223623   T   T   T
  0.5600639256365274  0.3509341021717994  0.3504206922514082   T   T   T
  0.4133259058607167  0.5392800268807312  0.6122843633029682   T   T   T
  0.5991157045163189  0.4423921830673244  0.3044474001669808   T   T   T
  0.4545698148867204  0.6005912658489713  0.3640793869165911   T   T   T
  0.4179242168238186  0.4893281885156063  0.3394042705404023   T   T   T
  0.6613145869154080  0.4246863842914228  0.6043303018025702   T   T   T
  0.6741542499345017  0.5787166189663981  0.5642240432098613   T   T   T
  0.5255085011045117  0.5094971805056430  0.3282927295561415   T   T   T
  0.5645803777928806  0.3566518600737652  0.4691386332904172   T   T   T
  0.3155715481767023  0.5399162063568161  0.4934120849708823   T   T   T
  0.6605834272635734  0.4296729311195847  0.4152843254333959   T   T   T
  0.5660841929594156  0.6261437171197244  0.5094829013827464   F   F   F
  0.5949302658802583  0.5270746767281249  0.6904427639885550   T   T   T
  0.4701833325962088  0.6431224673950966  0.5870403870850373   T   T   T
  0.4627370344301255  0.6036218906450629  0.4641946991499727   T   T   T
  0.7162966441242398  0.5743011231877783  0.3833618342206537   T   T   T
  0.5499310510395361  0.5822218838566187  0.4076968008106903   F   F   F
  0.4794126430662260  0.5072205383607624  0.4190535757241776   F   F   F
  0.6948359595468186  0.4819139688930172  0.3239449399576406   T   T   T
  0.7510756608967472  0.4291556917043341  0.4867176539720132   T   T   T
  0.7486290781033265  0.5376402130500559  0.4853710168440153   T   T   T
  0.7485556602997757  0.4889128567255016  0.5720254717608183   T   T   T
  0.6430646866097913  0.4307209808744795  0.7078686339183000   T   T   T
  0.5780419547451597  0.7438003252360408  0.4927953096059465   T   T   T
  0.6192554540844384  0.5183157687966542  0.3801816896793397   F   F   F
  0.5073815828057108  0.5657453722173733  0.6498579732360008   T   T   T
  0.4922009500451665  0.4366758245867572  0.4933013002826740   F   F   F
  0.5608844484509063  0.4404139570509003  0.6454865549417619   F   F   F
  0.5798109338610847  0.6175559211104306  0.6128846008359824   T   T   T
  0.5432965270971928  0.6169024328016637  0.3116603400073005   T   T   T
  0.6265028182557063  0.6245306373564599  0.3599902934674554   T   T   T
  0.3759784015013138  0.5579056198524301  0.4140847517915919   T   T   T
  0.4723078164089713  0.4557257050327763  0.5877273803360978   F   F   F
  0.7277020997500894  0.6348277509335523  0.4841210886373384   T   T   T
  0.4940669869764466  0.3772767090434675  0.6750642804283669   T   T   T
  0.3865204533853620  0.4373228668752617  0.6406565663779723   T   T   T
  0.5544592502646992  0.4379899399457940  0.4037542370104745   F   F   F
  0.4297879509970637  0.3568480339365984  0.6014914052210683   T   T   T
  0.5251314901798514  0.3501743578489127  0.5762403913158168   T   T   T
  0.6721087320352671  0.3052065783463909  0.6804943778406093   T   T   T
  0.6159182873448107  0.2527582475725286  0.6658963514992641   T   T   T
  0.6567243620848964  0.2638949042283406  0.6762142231290219   T   T   T
  0.6824140701754001  0.2356550512256278  0.6819578435100550   T   T   T
 
  0.00000000E+00  0.00000000E+00  0.00000000E+00
  0.00000000E+00  0.00000000E+00  0.00000000E+00
  0.00000000E+00  0.00000000E+00  0.00000000E+00
  0.00000000E+00  0.00000000E+00  0.00000000E+00
  0.00000000E+00  0.00000000E+00  0.00000000E+00
  0.00000000E+00  0.00000000E+00  0.00000000E+00
  0.00000000E+00  0.00000000E+00  0.00000000E+00
  0.00000000E+00  0.00000000E+00  0.00000000E+00
  0.00000000E+00  0.00000000E+00  0.00000000E+00
  0.00000000E+00  0.00000000E+00  0.00000000E+00
  0.00000000E+00  0.00000000E+00  0.00000000E+00
  0.00000000E+00  0.00000000E+00  0.00000000E+00
  0.00000000E+00  0.00000000E+00  0.00000000E+00
  0.00000000E+00  0.00000000E+00  0.00000000E+00
  0.00000000E+00  0.00000000E+00  0.00000000E+00
  0.00000000E+00  0.00000000E+00  0.00000000E+00
  0.00000000E+00  0.00000000E+00  0.00000000E+00
  0.00000000E+00  0.00000000E+00  0.00000000E+00
  0.00000000E+00  0.00000000E+00  0.00000000E+00
  0.00000000E+00  0.00000000E+00  0.00000000E+00
  0.00000000E+00  0.00000000E+00  0.00000000E+00
  0.00000000E+00  0.00000000E+00  0.00000000E+00
  0.00000000E+00  0.00000000E+00  0.00000000E+00
  0.00000000E+00  0.00000000E+00  0.00000000E+00
  0.00000000E+00  0.00000000E+00  0.00000000E+00
  0.00000000E+00  0.00000000E+00  0.00000000E+00
  0.00000000E+00  0.00000000E+00  0.00000000E+00
  0.00000000E+00  0.00000000E+00  0.00000000E+00
  0.00000000E+00  0.00000000E+00  0.00000000E+00
  0.00000000E+00  0.00000000E+00  0.00000000E+00
  0.00000000E+00  0.00000000E+00  0.00000000E+00
  0.00000000E+00  0.00000000E+00  0.00000000E+00
  0.00000000E+00  0.00000000E+00  0.00000000E+00
  0.00000000E+00  0.00000000E+00  0.00000000E+00
  0.00000000E+00  0.00000000E+00  0.00000000E+00
  0.00000000E+00  0.00000000E+00  0.00000000E+00
  0.00000000E+00  0.00000000E+00  0.00000000E+00
  0.00000000E+00  0.00000000E+00  0.00000000E+00
  0.00000000E+00  0.00000000E+00  0.00000000E+00
  0.00000000E+00  0.00000000E+00  0.00000000E+00
  0.00000000E+00  0.00000000E+00  0.00000000E+00
  0.00000000E+00  0.00000000E+00  0.00000000E+00
  0.00000000E+00  0.00000000E+00  0.00000000E+00
  0.00000000E+00  0.00000000E+00  0.00000000E+00
  0.00000000E+00  0.00000000E+00  0.00000000E+00
  0.00000000E+00  0.00000000E+00  0.00000000E+00
  0.00000000E+00  0.00000000E+00  0.00000000E+00
  0.00000000E+00  0.00000000E+00  0.00000000E+00
  0.00000000E+00  0.00000000E+00  0.00000000E+00
  0.00000000E+00  0.00000000E+00  0.00000000E+00
  0.00000000E+00  0.00000000E+00  0.00000000E+00
  0.00000000E+00  0.00000000E+00  0.00000000E+00
  0.00000000E+00  0.00000000E+00  0.00000000E+00
  0.00000000E+00  0.00000000E+00  0.00000000E+00
  0.00000000E+00  0.00000000E+00  0.00000000E+00
  0.00000000E+00  0.00000000E+00  0.00000000E+00
  0.00000000E+00  0.00000000E+00  0.00000000E+00
  0.00000000E+00  0.00000000E+00  0.00000000E+00
  0.00000000E+00  0.00000000E+00  0.00000000E+00
  0.00000000E+00  0.00000000E+00  0.00000000E+00
  0.00000000E+00  0.00000000E+00  0.00000000E+00
  0.00000000E+00  0.00000000E+00  0.00000000E+00
  0.00000000E+00  0.00000000E+00  0.00000000E+00
  0.00000000E+00  0.00000000E+00  0.00000000E+00
  0.00000000E+00  0.00000000E+00  0.00000000E+00
  0.00000000E+00  0.00000000E+00  0.00000000E+00
  0.00000000E+00  0.00000000E+00  0.00000000E+00
  0.00000000E+00  0.00000000E+00  0.00000000E+00
  0.00000000E+00  0.00000000E+00  0.00000000E+00
  0.00000000E+00  0.00000000E+00  0.00000000E+00
  0.00000000E+00  0.00000000E+00  0.00000000E+00
  0.00000000E+00  0.00000000E+00  0.00000000E+00
