Bi La Sn O  C  H                        
   1.00000000000000     
    29.0000000000000000    0.0000000000000000    0.0000000000000000
     0.2488180851000000   28.9989325590000000    0.0000000000000000
    -0.0631677343000000   -0.4515975666000000   28.9964147692999994
   Bi   La   Sn   O    C    H 
    22    23    23     2     1     1
Selective dynamics
Direct
  0.7580701073918128  0.4772820789014030  0.3991874561697578   T   T   T
  0.6464503323570633  0.6847052717167905  0.5525660955078854   T   T   T
  0.3602137708438171  0.4594142770849695  0.4279901461268439   T   T   T
  0.5499793716397914  0.7130216662331450  0.5852638955932083   T   T   T
  0.5915029568994470  0.5209714444905416  0.5841479689498996   F   F   F
  0.6399611533613649  0.6806182957693672  0.4459615891205232   T   T   T
  0.6975658246085438  0.5240107626052524  0.6552398682341366   T   T   T
  0.4865035624183233  0.7013151277085399  0.5004348307389095   T   T   T
  0.5004839460855024  0.5502791173970252  0.5477141156400123   F   F   F
  0.3255228891095753  0.4856178214536329  0.5756678792969324   T   T   T
  0.3818656934353946  0.6098745129902586  0.5355722256029875   T   T   T
  0.6667129484492236  0.4827404655721850  0.5105018184570156   F   F   F
  0.5763997220267569  0.4263140504383500  0.5448328182496311   F   F   F
  0.6693888476720482  0.3763368837534962  0.5117255192479176   T   T   T
  0.4641866407298880  0.3391336909289615  0.4989522946149865   T   T   T
  0.6484934028780529  0.5775373212088155  0.4602701624361103   F   F   F
  0.5578868787758859  0.4381649544831298  0.7497451814101568   T   T   T
  0.6020505968146838  0.3526813490491770  0.6713217201709843   T   T   T
  0.4937053258227029  0.2996139051763211  0.4093023942399529   T   T   T
  0.6601974579643681  0.6192638792293628  0.6662138849702882   T   T   T
  0.4894917082964463  0.4139544381972366  0.3052318882786171   T   T   T
  0.6223500851130307  0.3168451748700181  0.5758686589366926   T   T   T
  0.5389631817061726  0.6839391056398362  0.4054081739361224   T   T   T
  0.3903687914747079  0.4155648381610226  0.5265225812873060   T   T   T
  0.6288622023779457  0.5535489952455820  0.2827971457460264   T   T   T
  0.4718702922282145  0.4730634956147703  0.6925734846909042   T   T   T
  0.5683115009887700  0.5094300495444983  0.4784716241115703   F   F   F
  0.4203210565129183  0.5084107200613417  0.5018573595042781   F   F   F
  0.4521859245528181  0.4013595268559381  0.4057907109590392   T   T   T
  0.5615240783799892  0.3486810221720963  0.3491798772229407   T   T   T
  0.4112049896886177  0.5397231090422939  0.6100524420527067   T   T   T
  0.5965730290612183  0.4450739046007728  0.3036334675647592   T   T   T
  0.4549837958100842  0.6018025804998853  0.3639429158525750   T   T   T
  0.4170879430712234  0.4901464290148421  0.3400242162572264   T   T   T
  0.6610573135795695  0.4303408706568566  0.6067652487073010   T   T   T
  0.6733179390844117  0.5784678495407289  0.5642518797900274   T   T   T
  0.5257643022777180  0.5114768510300223  0.3281388137675651   T   T   T
  0.5679028015653551  0.3571220055130735  0.4684835669273338   T   T   T
  0.3151614808351095  0.5409699132194666  0.4920109231305158   T   T   T
  0.6595525014960175  0.4268108008528818  0.4155747820447549   T   T   T
  0.5660841929594156  0.6261437171197244  0.5094829013827464   F   F   F
  0.5965505547750594  0.5287724026840063  0.6893798073050724   T   T   T
  0.4697058383000224  0.6413566361495562  0.5884411677075252   T   T   T
  0.4634410296968313  0.6037106228841117  0.4643226362537968   T   T   T
  0.7166432894905772  0.5734514682370132  0.3835096633464452   T   T   T
  0.5499310510395361  0.5822218838566187  0.4076968008106903   F   F   F
  0.4794126430662260  0.5072205383607624  0.4190535757241776   F   F   F
  0.6938844573153859  0.4800181126306457  0.3247314941858198   T   T   T
  0.7523460987893793  0.4300134092807106  0.4885091475047875   T   T   T
  0.7482961030875316  0.5388626610480255  0.4855688338684110   T   T   T
  0.7489251059764265  0.4912863836213287  0.5727574258442645   T   T   T
  0.6482651913350788  0.4372132308363987  0.7108919014974977   T   T   T
  0.5771456604287027  0.7433627547063942  0.4940035781850028   T   T   T
  0.6192554540844384  0.5183157687966542  0.3801816896793397   F   F   F
  0.5056761029613842  0.5601562522669803  0.6499994886716415   T   T   T
  0.4922009500451665  0.4366758245867572  0.4933013002826740   F   F   F
  0.5608844484509063  0.4404139570509003  0.6454865549417619   F   F   F
  0.5774216007827956  0.6164024680647988  0.6135523926032086   T   T   T
  0.5452656486763080  0.6190407603825416  0.3131136122001267   T   T   T
  0.6282548281655482  0.6255330868293912  0.3613457845917556   T   T   T
  0.3767727537248508  0.5592616044399046  0.4141050158969308   T   T   T
  0.4723078164089713  0.4557257050327763  0.5877273803360978   F   F   F
  0.7266980655702874  0.6359340058612986  0.4853573683646258   T   T   T
  0.5008759797253685  0.3705977361958906  0.6825190910785535   T   T   T
  0.3829505811753896  0.4395202476080369  0.6400133689849323   T   T   T
  0.5544592502646992  0.4379899399457940  0.4037542370104745   F   F   F
  0.4330663200769440  0.3612455223936824  0.6074754210426958   T   T   T
  0.5283348333357754  0.3491400295416010  0.5795219442891376   T   T   T
  0.6342904984928103  0.2968966861790948  0.3403989218568980   T   T   T
  0.6317118689554990  0.3436837444706554  0.4027644047029607   T   T   T
  0.6459790897927493  0.3060427944809794  0.3811746989364633   T   T   T
  0.6682516806342795  0.2823047613958591  0.4010124189442349   T   T   T
 
  0.00000000E+00  0.00000000E+00  0.00000000E+00
  0.00000000E+00  0.00000000E+00  0.00000000E+00
  0.00000000E+00  0.00000000E+00  0.00000000E+00
  0.00000000E+00  0.00000000E+00  0.00000000E+00
  0.00000000E+00  0.00000000E+00  0.00000000E+00
  0.00000000E+00  0.00000000E+00  0.00000000E+00
  0.00000000E+00  0.00000000E+00  0.00000000E+00
  0.00000000E+00  0.00000000E+00  0.00000000E+00
  0.00000000E+00  0.00000000E+00  0.00000000E+00
  0.00000000E+00  0.00000000E+00  0.00000000E+00
  0.00000000E+00  0.00000000E+00  0.00000000E+00
  0.00000000E+00  0.00000000E+00  0.00000000E+00
  0.00000000E+00  0.00000000E+00  0.00000000E+00
  0.00000000E+00  0.00000000E+00  0.00000000E+00
  0.00000000E+00  0.00000000E+00  0.00000000E+00
  0.00000000E+00  0.00000000E+00  0.00000000E+00
  0.00000000E+00  0.00000000E+00  0.00000000E+00
  0.00000000E+00  0.00000000E+00  0.00000000E+00
  0.00000000E+00  0.00000000E+00  0.00000000E+00
  0.00000000E+00  0.00000000E+00  0.00000000E+00
  0.00000000E+00  0.00000000E+00  0.00000000E+00
  0.00000000E+00  0.00000000E+00  0.00000000E+00
  0.00000000E+00  0.00000000E+00  0.00000000E+00
  0.00000000E+00  0.00000000E+00  0.00000000E+00
  0.00000000E+00  0.00000000E+00  0.00000000E+00
  0.00000000E+00  0.00000000E+00  0.00000000E+00
  0.00000000E+00  0.00000000E+00  0.00000000E+00
  0.00000000E+00  0.00000000E+00  0.00000000E+00
  0.00000000E+00  0.00000000E+00  0.00000000E+00
  0.00000000E+00  0.00000000E+00  0.00000000E+00
  0.00000000E+00  0.00000000E+00  0.00000000E+00
  0.00000000E+00  0.00000000E+00  0.00000000E+00
  0.00000000E+00  0.00000000E+00  0.00000000E+00
  0.00000000E+00  0.00000000E+00  0.00000000E+00
  0.00000000E+00  0.00000000E+00  0.00000000E+00
  0.00000000E+00  0.00000000E+00  0.00000000E+00
  0.00000000E+00  0.00000000E+00  0.00000000E+00
  0.00000000E+00  0.00000000E+00  0.00000000E+00
  0.00000000E+00  0.00000000E+00  0.00000000E+00
  0.00000000E+00  0.00000000E+00  0.00000000E+00
  0.00000000E+00  0.00000000E+00  0.00000000E+00
  0.00000000E+00  0.00000000E+00  0.00000000E+00
  0.00000000E+00  0.00000000E+00  0.00000000E+00
  0.00000000E+00  0.00000000E+00  0.00000000E+00
  0.00000000E+00  0.00000000E+00  0.00000000E+00
  0.00000000E+00  0.00000000E+00  0.00000000E+00
  0.00000000E+00  0.00000000E+00  0.00000000E+00
  0.00000000E+00  0.00000000E+00  0.00000000E+00
  0.00000000E+00  0.00000000E+00  0.00000000E+00
  0.00000000E+00  0.00000000E+00  0.00000000E+00
  0.00000000E+00  0.00000000E+00  0.00000000E+00
  0.00000000E+00  0.00000000E+00  0.00000000E+00
  0.00000000E+00  0.00000000E+00  0.00000000E+00
  0.00000000E+00  0.00000000E+00  0.00000000E+00
  0.00000000E+00  0.00000000E+00  0.00000000E+00
  0.00000000E+00  0.00000000E+00  0.00000000E+00
  0.00000000E+00  0.00000000E+00  0.00000000E+00
  0.00000000E+00  0.00000000E+00  0.00000000E+00
  0.00000000E+00  0.00000000E+00  0.00000000E+00
  0.00000000E+00  0.00000000E+00  0.00000000E+00
  0.00000000E+00  0.00000000E+00  0.00000000E+00
  0.00000000E+00  0.00000000E+00  0.00000000E+00
  0.00000000E+00  0.00000000E+00  0.00000000E+00
  0.00000000E+00  0.00000000E+00  0.00000000E+00
  0.00000000E+00  0.00000000E+00  0.00000000E+00
  0.00000000E+00  0.00000000E+00  0.00000000E+00
  0.00000000E+00  0.00000000E+00  0.00000000E+00
  0.00000000E+00  0.00000000E+00  0.00000000E+00
  0.00000000E+00  0.00000000E+00  0.00000000E+00
  0.00000000E+00  0.00000000E+00  0.00000000E+00
  0.00000000E+00  0.00000000E+00  0.00000000E+00
  0.00000000E+00  0.00000000E+00  0.00000000E+00
