Bi La Sn O  C  H                        
   1.00000000000000     
    29.0000000000000000    0.0000000000000000    0.0000000000000000
     0.2488180851000000   28.9989325590000000    0.0000000000000000
    -0.0631677343000000   -0.4515975666000000   28.9964147692999994
   Bi   La   Sn   O    C    H 
    22    23    23     2     1     1
Selective dynamics
Direct
  0.7594904629964773  0.4788538784566411  0.3984939014993758   T   T   T
  0.6466028261803641  0.6846012253189711  0.5518778865266938   T   T   T
  0.3593409680135100  0.4588202418791416  0.4285663863603967   T   T   T
  0.5501278184832926  0.7128520539440313  0.5848262801498191   T   T   T
  0.5915029568994470  0.5209714444905416  0.5841479689498996   F   F   F
  0.6396745285108795  0.6802232096681057  0.4455257105074142   T   T   T
  0.6969613607383603  0.5219749192447697  0.6540888434823449   T   T   T
  0.4859244863823542  0.7006560901145068  0.5005389833648285   T   T   T
  0.5004839460855024  0.5502791173970252  0.5477141156400123   F   F   F
  0.3251945941437285  0.4854034340507331  0.5739361342075746   T   T   T
  0.3821042902878147  0.6103397572843362  0.5355556000656598   T   T   T
  0.6667129484492236  0.4827404655721850  0.5105018184570156   F   F   F
  0.5763997220267569  0.4263140504383500  0.5448328182496311   F   F   F
  0.6690494781856926  0.3742920163096976  0.5062279584828602   T   T   T
  0.4637391584747002  0.3383882971732284  0.4992554637895955   T   T   T
  0.6484934028780529  0.5775373212088155  0.4602701624361103   F   F   F
  0.5611749496257661  0.4323668545685497  0.7490523076949297   T   T   T
  0.6048844429953343  0.3505065047542572  0.6661222976173976   T   T   T
  0.4924395091276376  0.2994572850588376  0.4090871788071165   T   T   T
  0.6599496997431452  0.6174927752420786  0.6667562979324967   T   T   T
  0.4917489671882656  0.4104840705860142  0.3066230909027072   T   T   T
  0.6226732055295479  0.3142767343260522  0.5701722300932611   T   T   T
  0.5381741581900549  0.6836082375920192  0.4049726716591422   T   T   T
  0.3906658687915757  0.4147640957986962  0.5266315476833044   T   T   T
  0.6282481053736375  0.5525166039598481  0.2826850671082527   T   T   T
  0.4705508716685850  0.4690164666295475  0.6964357266551632   T   T   T
  0.5683115009887700  0.5094300495444983  0.4784716241115703   F   F   F
  0.4203210565129183  0.5084107200613417  0.5018573595042781   F   F   F
  0.4518808101360923  0.4009358668284245  0.4065017847749335   T   T   T
  0.5630911983563354  0.3489231830149730  0.3533021015781425   T   T   T
  0.4105977737171826  0.5396867619560750  0.6098553619756971   T   T   T
  0.5988665676396676  0.4423821896669057  0.3044324149885789   T   T   T
  0.4547187952662279  0.6000054977728685  0.3634380652188993   T   T   T
  0.4181116524861013  0.4872748018861566  0.3403066252847231   T   T   T
  0.6619797329140075  0.4281351271533582  0.6035690783835913   T   T   T
  0.6733102804295132  0.5786120677355059  0.5641539983295911   T   T   T
  0.5261019669436738  0.5096875874700724  0.3279999682045444   T   T   T
  0.5661977193435419  0.3574641870286158  0.4685261146221363   T   T   T
  0.3150740466711016  0.5424076439748203  0.4915382551662935   T   T   T
  0.6606066589849870  0.4299305306743990  0.4152755169116546   T   T   T
  0.5660841929594156  0.6261437171197244  0.5094829013827464   F   F   F
  0.5968401535706231  0.5272561680155424  0.6900309932992225   T   T   T
  0.4700317421497019  0.6409094986926308  0.5890903495257123   T   T   T
  0.4626176792608458  0.6032378999019411  0.4638392077684269   T   T   T
  0.7160974729680736  0.5742828832591170  0.3829737103575742   T   T   T
  0.5499310510395361  0.5822218838566187  0.4076968008106903   F   F   F
  0.4794126430662260  0.5072205383607624  0.4190535757241776   F   F   F
  0.6950562350635398  0.4807918728536953  0.3237804165321533   T   T   T
  0.7520868052279744  0.4301388497509239  0.4876168383725579   T   T   T
  0.7483546154220376  0.5383004215602378  0.4849238807714074   T   T   T
  0.7493915478840592  0.4911206837014738  0.5721397995812009   T   T   T
  0.6494673262999554  0.4350841230005182  0.7074522557664052   T   T   T
  0.5765204160507147  0.7429833704176441  0.4935664351705767   T   T   T
  0.6192554540844384  0.5183157687966542  0.3801816896793397   F   F   F
  0.5061566366226100  0.5566327604679372  0.6490511285701319   T   T   T
  0.4922009500451665  0.4366758245867572  0.4933013002826740   F   F   F
  0.5608844484509063  0.4404139570509003  0.6454865549417619   F   F   F
  0.5769592327475793  0.6159604145432050  0.6140867431225142   T   T   T
  0.5438763164773583  0.6176376002607042  0.3124042292415561   T   T   T
  0.6268320467744891  0.6254730610504394  0.3605838022823583   T   T   T
  0.3765384959331226  0.5572374184913600  0.4128407673461219   T   T   T
  0.4723078164089713  0.4557257050327763  0.5877273803360978   F   F   F
  0.7270001948677151  0.6351471220148999  0.4848568455666444   T   T   T
  0.5055106307126527  0.3668453785151474  0.6829442414023633   T   T   T
  0.3819239525686383  0.4399791591078089  0.6386865783540756   T   T   T
  0.5544592502646992  0.4379899399457940  0.4037542370104745   F   F   F
  0.4359054762870903  0.3629649446021227  0.6094880904860679   T   T   T
  0.5295619814106577  0.3479499736875080  0.5786132499590361   T   T   T
  0.4336703952233709  0.4287127263690417  0.7625704515709683   T   T   T
  0.4451927193044206  0.5052507215004360  0.7707833185489510   T   T   T
  0.4339199483108811  0.4659057275827439  0.7867375893690720   T   T   T
  0.4241658509112984  0.4639509745847717  0.8237056912896014   T   T   T
 
  0.00000000E+00  0.00000000E+00  0.00000000E+00
  0.00000000E+00  0.00000000E+00  0.00000000E+00
  0.00000000E+00  0.00000000E+00  0.00000000E+00
  0.00000000E+00  0.00000000E+00  0.00000000E+00
  0.00000000E+00  0.00000000E+00  0.00000000E+00
  0.00000000E+00  0.00000000E+00  0.00000000E+00
  0.00000000E+00  0.00000000E+00  0.00000000E+00
  0.00000000E+00  0.00000000E+00  0.00000000E+00
  0.00000000E+00  0.00000000E+00  0.00000000E+00
  0.00000000E+00  0.00000000E+00  0.00000000E+00
  0.00000000E+00  0.00000000E+00  0.00000000E+00
  0.00000000E+00  0.00000000E+00  0.00000000E+00
  0.00000000E+00  0.00000000E+00  0.00000000E+00
  0.00000000E+00  0.00000000E+00  0.00000000E+00
  0.00000000E+00  0.00000000E+00  0.00000000E+00
  0.00000000E+00  0.00000000E+00  0.00000000E+00
  0.00000000E+00  0.00000000E+00  0.00000000E+00
  0.00000000E+00  0.00000000E+00  0.00000000E+00
  0.00000000E+00  0.00000000E+00  0.00000000E+00
  0.00000000E+00  0.00000000E+00  0.00000000E+00
  0.00000000E+00  0.00000000E+00  0.00000000E+00
  0.00000000E+00  0.00000000E+00  0.00000000E+00
  0.00000000E+00  0.00000000E+00  0.00000000E+00
  0.00000000E+00  0.00000000E+00  0.00000000E+00
  0.00000000E+00  0.00000000E+00  0.00000000E+00
  0.00000000E+00  0.00000000E+00  0.00000000E+00
  0.00000000E+00  0.00000000E+00  0.00000000E+00
  0.00000000E+00  0.00000000E+00  0.00000000E+00
  0.00000000E+00  0.00000000E+00  0.00000000E+00
  0.00000000E+00  0.00000000E+00  0.00000000E+00
  0.00000000E+00  0.00000000E+00  0.00000000E+00
  0.00000000E+00  0.00000000E+00  0.00000000E+00
  0.00000000E+00  0.00000000E+00  0.00000000E+00
  0.00000000E+00  0.00000000E+00  0.00000000E+00
  0.00000000E+00  0.00000000E+00  0.00000000E+00
  0.00000000E+00  0.00000000E+00  0.00000000E+00
  0.00000000E+00  0.00000000E+00  0.00000000E+00
  0.00000000E+00  0.00000000E+00  0.00000000E+00
  0.00000000E+00  0.00000000E+00  0.00000000E+00
  0.00000000E+00  0.00000000E+00  0.00000000E+00
  0.00000000E+00  0.00000000E+00  0.00000000E+00
  0.00000000E+00  0.00000000E+00  0.00000000E+00
  0.00000000E+00  0.00000000E+00  0.00000000E+00
  0.00000000E+00  0.00000000E+00  0.00000000E+00
  0.00000000E+00  0.00000000E+00  0.00000000E+00
  0.00000000E+00  0.00000000E+00  0.00000000E+00
  0.00000000E+00  0.00000000E+00  0.00000000E+00
  0.00000000E+00  0.00000000E+00  0.00000000E+00
  0.00000000E+00  0.00000000E+00  0.00000000E+00
  0.00000000E+00  0.00000000E+00  0.00000000E+00
  0.00000000E+00  0.00000000E+00  0.00000000E+00
  0.00000000E+00  0.00000000E+00  0.00000000E+00
  0.00000000E+00  0.00000000E+00  0.00000000E+00
  0.00000000E+00  0.00000000E+00  0.00000000E+00
  0.00000000E+00  0.00000000E+00  0.00000000E+00
  0.00000000E+00  0.00000000E+00  0.00000000E+00
  0.00000000E+00  0.00000000E+00  0.00000000E+00
  0.00000000E+00  0.00000000E+00  0.00000000E+00
  0.00000000E+00  0.00000000E+00  0.00000000E+00
  0.00000000E+00  0.00000000E+00  0.00000000E+00
  0.00000000E+00  0.00000000E+00  0.00000000E+00
  0.00000000E+00  0.00000000E+00  0.00000000E+00
  0.00000000E+00  0.00000000E+00  0.00000000E+00
  0.00000000E+00  0.00000000E+00  0.00000000E+00
  0.00000000E+00  0.00000000E+00  0.00000000E+00
  0.00000000E+00  0.00000000E+00  0.00000000E+00
  0.00000000E+00  0.00000000E+00  0.00000000E+00
  0.00000000E+00  0.00000000E+00  0.00000000E+00
  0.00000000E+00  0.00000000E+00  0.00000000E+00
  0.00000000E+00  0.00000000E+00  0.00000000E+00
  0.00000000E+00  0.00000000E+00  0.00000000E+00
  0.00000000E+00  0.00000000E+00  0.00000000E+00
