Bi La Sn O  C  H                        
   1.00000000000000     
    29.0000000000000000    0.0000000000000000    0.0000000000000000
     0.2488180851000000   28.9989325590000000    0.0000000000000000
    -0.0631677343000000   -0.4515975666000000   28.9964147692999994
   Bi   La   Sn   O    C    H 
    22    23    23     2     1     1
Selective dynamics
Direct
  0.7594328060928516  0.4758680804802586  0.3993601786040148   T   T   T
  0.6465044921988796  0.6846800486134615  0.5528321590733150   T   T   T
  0.3584658566020087  0.4585279251312178  0.4292773182165609   T   T   T
  0.5502264297399123  0.7129473165955839  0.5851270730192816   T   T   T
  0.5915029568994470  0.5209714444905416  0.5841479689498996   F   F   F
  0.6408668436020211  0.6813378780464872  0.4460994458694611   T   T   T
  0.6956088184636128  0.5226377362080808  0.6537617174554398   T   T   T
  0.4858716266632995  0.7011902230221291  0.4995376219064872   T   T   T
  0.5004839460855024  0.5502791173970252  0.5477141156400123   F   F   F
  0.3251226129088043  0.4860012515948280  0.5750514266343389   T   T   T
  0.3818657172230205  0.6105572488676394  0.5351525370801011   T   T   T
  0.6667129484492236  0.4827404655721850  0.5105018184570156   F   F   F
  0.5763997220267569  0.4263140504383500  0.5448328182496311   F   F   F
  0.6686882382067137  0.3738599366796750  0.5065013866881577   T   T   T
  0.4641006875903469  0.3385918525736514  0.5020014196739059   T   T   T
  0.6484934028780529  0.5775373212088155  0.4602701624361103   F   F   F
  0.5582048652092920  0.4384002263651863  0.7498660205918511   T   T   T
  0.6042641530271554  0.3523627465098814  0.6716732410556274   T   T   T
  0.4923922519731079  0.2999647530426924  0.4110769577251202   T   T   T
  0.6601122512329558  0.6188692523034384  0.6661466684571378   T   T   T
  0.4950064072351283  0.4092362699437568  0.3143634640677003   T   T   T
  0.6232342592306929  0.3178212187866583  0.5754637803211831   T   T   T
  0.5404248583732864  0.6849559472554044  0.4060000427928865   T   T   T
  0.3908351251755500  0.4154720353374549  0.5280723052404354   T   T   T
  0.6303545326005997  0.5536018429599212  0.2837377117456328   T   T   T
  0.4714343233083204  0.4720903931837166  0.6914135041266812   T   T   T
  0.5683115009887700  0.5094300495444983  0.4784716241115703   F   F   F
  0.4203210565129183  0.5084107200613417  0.5018573595042781   F   F   F
  0.4507439857573995  0.4005640496938452  0.4098459716481758   T   T   T
  0.5672671524990993  0.3462735863780827  0.3573767979029908   T   T   T
  0.4109150818304232  0.5401613926660227  0.6095505148182493   T   T   T
  0.5992013516774480  0.4422795544246024  0.3050487248643937   T   T   T
  0.4532080278736049  0.6006632439261597  0.3611660436305401   T   T   T
  0.4158468339108044  0.4883772121808759  0.3365052449569054   T   T   T
  0.6611251922964619  0.4285090644235909  0.6043865776928263   T   T   T
  0.6731052976915965  0.5789663203386661  0.5638148066263071   T   T   T
  0.5262674203490694  0.5123405577749220  0.3254442065302067   T   T   T
  0.5658191168731235  0.3579756247654578  0.4695433003289453   T   T   T
  0.3148542522475869  0.5417795785418356  0.4918971940416522   T   T   T
  0.6596541607411728  0.4292615693616508  0.4157689486649485   T   T   T
  0.5660841929594156  0.6261437171197244  0.5094829013827464   F   F   F
  0.5953603155662394  0.5294101255449609  0.6895465940917200   T   T   T
  0.4698660958331867  0.6418217542862288  0.5884255027056133   T   T   T
  0.4629933005464676  0.6026642155998618  0.4644172950353807   T   T   T
  0.7175281924603416  0.5721011409947641  0.3839961367643016   T   T   T
  0.5499310510395361  0.5822218838566187  0.4076968008106903   F   F   F
  0.4794126430662260  0.5072205383607624  0.4190535757241776   F   F   F
  0.6951761050588318  0.4798716071271846  0.3247270944799517   T   T   T
  0.7519654898835672  0.4283748388413128  0.4892470930002444   T   T   T
  0.7484396906133355  0.5376155426477509  0.4851087102515901   T   T   T
  0.7488748507204369  0.4908793610119357  0.5722591346659041   T   T   T
  0.6487059630183338  0.4382493817304157  0.7092347817068542   T   T   T
  0.5770219845499858  0.7429757458153904  0.4942862535940196   T   T   T
  0.6192554540844384  0.5183157687966542  0.3801816896793397   F   F   F
  0.5044228186821564  0.5610223317472933  0.6504329823649643   T   T   T
  0.4922009500451665  0.4366758245867572  0.4933013002826740   F   F   F
  0.5608844484509063  0.4404139570509003  0.6454865549417619   F   F   F
  0.5772421325879538  0.6162248605621625  0.6135334852848610   T   T   T
  0.5473508828963127  0.6203312346482898  0.3148608025176415   T   T   T
  0.6302282184149418  0.6259800269875161  0.3620064171362227   T   T   T
  0.3773509321060095  0.5556151848636119  0.4140302978643371   T   T   T
  0.4723078164089713  0.4557257050327763  0.5877273803360978   F   F   F
  0.7269985495856166  0.6349477088071596  0.4846359334137378   T   T   T
  0.5041555389734027  0.3695330441284341  0.6868318185509307   T   T   T
  0.3808665504246305  0.4413588864568712  0.6408845735501476   T   T   T
  0.5544592502646992  0.4379899399457940  0.4037542370104745   F   F   F
  0.4351144460792509  0.3642759825625611  0.6120773120612607   T   T   T
  0.5291554019590978  0.3496986139048059  0.5819552268398082   T   T   T
  0.4129513239407555  0.5654580477146951  0.2996860352636525   T   T   T
  0.4621696163058964  0.5087422672776475  0.2698311328001204   T   T   T
  0.4562905802537324  0.5536515190244931  0.2828269390333283   T   T   T
  0.4715496456899551  0.5792051308683812  0.2595328077500234   T   T   T
 
  0.00000000E+00  0.00000000E+00  0.00000000E+00
  0.00000000E+00  0.00000000E+00  0.00000000E+00
  0.00000000E+00  0.00000000E+00  0.00000000E+00
  0.00000000E+00  0.00000000E+00  0.00000000E+00
  0.00000000E+00  0.00000000E+00  0.00000000E+00
  0.00000000E+00  0.00000000E+00  0.00000000E+00
  0.00000000E+00  0.00000000E+00  0.00000000E+00
  0.00000000E+00  0.00000000E+00  0.00000000E+00
  0.00000000E+00  0.00000000E+00  0.00000000E+00
  0.00000000E+00  0.00000000E+00  0.00000000E+00
  0.00000000E+00  0.00000000E+00  0.00000000E+00
  0.00000000E+00  0.00000000E+00  0.00000000E+00
  0.00000000E+00  0.00000000E+00  0.00000000E+00
  0.00000000E+00  0.00000000E+00  0.00000000E+00
  0.00000000E+00  0.00000000E+00  0.00000000E+00
  0.00000000E+00  0.00000000E+00  0.00000000E+00
  0.00000000E+00  0.00000000E+00  0.00000000E+00
  0.00000000E+00  0.00000000E+00  0.00000000E+00
  0.00000000E+00  0.00000000E+00  0.00000000E+00
  0.00000000E+00  0.00000000E+00  0.00000000E+00
  0.00000000E+00  0.00000000E+00  0.00000000E+00
  0.00000000E+00  0.00000000E+00  0.00000000E+00
  0.00000000E+00  0.00000000E+00  0.00000000E+00
  0.00000000E+00  0.00000000E+00  0.00000000E+00
  0.00000000E+00  0.00000000E+00  0.00000000E+00
  0.00000000E+00  0.00000000E+00  0.00000000E+00
  0.00000000E+00  0.00000000E+00  0.00000000E+00
  0.00000000E+00  0.00000000E+00  0.00000000E+00
  0.00000000E+00  0.00000000E+00  0.00000000E+00
  0.00000000E+00  0.00000000E+00  0.00000000E+00
  0.00000000E+00  0.00000000E+00  0.00000000E+00
  0.00000000E+00  0.00000000E+00  0.00000000E+00
  0.00000000E+00  0.00000000E+00  0.00000000E+00
  0.00000000E+00  0.00000000E+00  0.00000000E+00
  0.00000000E+00  0.00000000E+00  0.00000000E+00
  0.00000000E+00  0.00000000E+00  0.00000000E+00
  0.00000000E+00  0.00000000E+00  0.00000000E+00
  0.00000000E+00  0.00000000E+00  0.00000000E+00
  0.00000000E+00  0.00000000E+00  0.00000000E+00
  0.00000000E+00  0.00000000E+00  0.00000000E+00
  0.00000000E+00  0.00000000E+00  0.00000000E+00
  0.00000000E+00  0.00000000E+00  0.00000000E+00
  0.00000000E+00  0.00000000E+00  0.00000000E+00
  0.00000000E+00  0.00000000E+00  0.00000000E+00
  0.00000000E+00  0.00000000E+00  0.00000000E+00
  0.00000000E+00  0.00000000E+00  0.00000000E+00
  0.00000000E+00  0.00000000E+00  0.00000000E+00
  0.00000000E+00  0.00000000E+00  0.00000000E+00
  0.00000000E+00  0.00000000E+00  0.00000000E+00
  0.00000000E+00  0.00000000E+00  0.00000000E+00
  0.00000000E+00  0.00000000E+00  0.00000000E+00
  0.00000000E+00  0.00000000E+00  0.00000000E+00
  0.00000000E+00  0.00000000E+00  0.00000000E+00
  0.00000000E+00  0.00000000E+00  0.00000000E+00
  0.00000000E+00  0.00000000E+00  0.00000000E+00
  0.00000000E+00  0.00000000E+00  0.00000000E+00
  0.00000000E+00  0.00000000E+00  0.00000000E+00
  0.00000000E+00  0.00000000E+00  0.00000000E+00
  0.00000000E+00  0.00000000E+00  0.00000000E+00
  0.00000000E+00  0.00000000E+00  0.00000000E+00
  0.00000000E+00  0.00000000E+00  0.00000000E+00
  0.00000000E+00  0.00000000E+00  0.00000000E+00
  0.00000000E+00  0.00000000E+00  0.00000000E+00
  0.00000000E+00  0.00000000E+00  0.00000000E+00
  0.00000000E+00  0.00000000E+00  0.00000000E+00
  0.00000000E+00  0.00000000E+00  0.00000000E+00
  0.00000000E+00  0.00000000E+00  0.00000000E+00
  0.00000000E+00  0.00000000E+00  0.00000000E+00
  0.00000000E+00  0.00000000E+00  0.00000000E+00
  0.00000000E+00  0.00000000E+00  0.00000000E+00
  0.00000000E+00  0.00000000E+00  0.00000000E+00
  0.00000000E+00  0.00000000E+00  0.00000000E+00
