Bi La Sn O  C  H                        
   1.00000000000000     
    29.0000000000000000    0.0000000000000000    0.0000000000000000
     0.2488180851000000   28.9989325590000000    0.0000000000000000
    -0.0631677343000000   -0.4515975666000000   28.9964147692999994
   Bi   La   Sn   O    C    H 
    22    23    23     2     1     1
Selective dynamics
Direct
  0.7590502083448235  0.4777272876903277  0.4002777315785473   T   T   T
  0.6470685126763127  0.6838355600240815  0.5545769782311049   T   T   T
  0.3592532337208581  0.4592262807532575  0.4278256941079815   T   T   T
  0.5518303769711320  0.7130989205300732  0.5854602697264237   T   T   T
  0.5915029568994470  0.5209714444905416  0.5841479689498996   F   F   F
  0.6405156316540220  0.6817024191114149  0.4488835426934468   T   T   T
  0.6961379476131688  0.5217755540149740  0.6543640694790386   T   T   T
  0.4863513367580544  0.7012180681193578  0.4997054178893220   T   T   T
  0.5004839460855024  0.5502791173970252  0.5477141156400123   F   F   F
  0.3262035731148137  0.4857743219227192  0.5759592169116228   T   T   T
  0.3826473890874569  0.6097491823750398  0.5360759304229821   T   T   T
  0.6667129484492236  0.4827404655721850  0.5105018184570156   F   F   F
  0.5763997220267569  0.4263140504383500  0.5448328182496311   F   F   F
  0.6679371350190181  0.3734382272812844  0.5086532586667917   T   T   T
  0.4621616026209253  0.3379168068575630  0.4971495358981236   T   T   T
  0.6484934028780529  0.5775373212088155  0.4602701624361103   F   F   F
  0.5567881844791089  0.4369935882134728  0.7497770300718007   T   T   T
  0.5983940909053086  0.3507342374322398  0.6699213231612268   T   T   T
  0.4930290508970008  0.3006572260498580  0.4065672916785475   T   T   T
  0.6605708984148791  0.6181023337870397  0.6660280558021265   T   T   T
  0.4927228469676790  0.4111948154306554  0.3077730106590398   T   T   T
  0.6212816363660429  0.3155590397158422  0.5750219719501228   T   T   T
  0.5391561607172649  0.6843103174354785  0.4053468630559196   T   T   T
  0.3900235977144040  0.4157333647323552  0.5255629186181704   T   T   T
  0.6355262019957567  0.5570855900970679  0.2838378825932675   T   T   T
  0.4720891290069236  0.4753996466634518  0.6927674450181832   T   T   T
  0.5683115009887700  0.5094300495444983  0.4784716241115703   F   F   F
  0.4203210565129183  0.5084107200613417  0.5018573595042781   F   F   F
  0.4513216519616561  0.4015289456743571  0.4063838086648794   T   T   T
  0.5661241582115830  0.3493120824486381  0.3535325520133131   T   T   T
  0.4118508744061150  0.5395744802587910  0.6107328132350051   T   T   T
  0.5985032065026188  0.4413044773227230  0.3039532937909917   T   T   T
  0.4551599709459648  0.6007105820637033  0.3637866966713194   T   T   T
  0.4180074544739359  0.4880135491578032  0.3397792299015352   T   T   T
  0.6608761677005905  0.4276934725918730  0.6052793356968246   T   T   T
  0.6738150612926038  0.5780586972155176  0.5638377062620759   T   T   T
  0.5267919359851273  0.5108663475882924  0.3278879540619932   T   T   T
  0.5654411177631137  0.3569780139232315  0.4692207149788723   T   T   T
  0.3156590447830629  0.5413113386668349  0.4922098451052415   T   T   T
  0.6586068074376725  0.4285228475459358  0.4171591861804468   T   T   T
  0.5660841929594156  0.6261437171197244  0.5094829013827464   F   F   F
  0.5961161775006826  0.5281087271817104  0.6896392769145393   T   T   T
  0.4706100617509017  0.6420251248411629  0.5882773325377210   T   T   T
  0.4631817786229818  0.6031816817159772  0.4638314849463883   T   T   T
  0.7161671435441130  0.5735902870305053  0.3803581502267214   T   T   T
  0.5499310510395361  0.5822218838566187  0.4076968008106903   F   F   F
  0.4794126430662260  0.5072205383607624  0.4190535757241776   F   F   F
  0.6936760653303143  0.4758583036393355  0.3273283316909833   T   T   T
  0.7507614957876687  0.4279955981310262  0.4886263323054492   T   T   T
  0.7485517688538302  0.5371581952534559  0.4857955201777130   T   T   T
  0.7487606426432725  0.4891198917270680  0.5731218994749979   T   T   T
  0.6466485040852569  0.4345245241695635  0.7094426097353307   T   T   T
  0.5761055002104534  0.7440792747795023  0.4943093478100465   T   T   T
  0.6192554540844384  0.5183157687966542  0.3801816896793397   F   F   F
  0.5059026966502654  0.5618710472629252  0.6504373051139043   T   T   T
  0.4922009500451665  0.4366758245867572  0.4933013002826740   F   F   F
  0.5608844484509063  0.4404139570509003  0.6454865549417619   F   F   F
  0.5778970890535852  0.6162885710486676  0.6133584356461137   T   T   T
  0.5445746649871581  0.6176888625057689  0.3123865370979655   T   T   T
  0.6255663270254170  0.6269636698379853  0.3644588823212651   T   T   T
  0.3765784237800732  0.5576642298275268  0.4130334779854881   T   T   T
  0.4723078164089713  0.4557257050327763  0.5877273803360978   F   F   F
  0.7281095231525878  0.6333560973404243  0.4833178107517415   T   T   T
  0.4980507811032461  0.3726867511616067  0.6803299409540329   T   T   T
  0.3840138469030830  0.4385910119648807  0.6393226510580531   T   T   T
  0.5544592502646992  0.4379899399457940  0.4037542370104745   F   F   F
  0.4321987357663665  0.3593453087075215  0.6047006426423107   T   T   T
  0.5272980373232080  0.3490328547541063  0.5774614378964182   T   T   T
  0.7193808270253540  0.5914352914202183  0.2967185641277446   T   T   T
  0.7010069577274275  0.5625805562280400  0.2267959437514056   T   T   T
  0.7305536707790319  0.5738977322791353  0.2569273511485069   T   T   T
  0.7677745608267640  0.5687419659263431  0.2496247267517345   T   T   T
 
  0.00000000E+00  0.00000000E+00  0.00000000E+00
  0.00000000E+00  0.00000000E+00  0.00000000E+00
  0.00000000E+00  0.00000000E+00  0.00000000E+00
  0.00000000E+00  0.00000000E+00  0.00000000E+00
  0.00000000E+00  0.00000000E+00  0.00000000E+00
  0.00000000E+00  0.00000000E+00  0.00000000E+00
  0.00000000E+00  0.00000000E+00  0.00000000E+00
  0.00000000E+00  0.00000000E+00  0.00000000E+00
  0.00000000E+00  0.00000000E+00  0.00000000E+00
  0.00000000E+00  0.00000000E+00  0.00000000E+00
  0.00000000E+00  0.00000000E+00  0.00000000E+00
  0.00000000E+00  0.00000000E+00  0.00000000E+00
  0.00000000E+00  0.00000000E+00  0.00000000E+00
  0.00000000E+00  0.00000000E+00  0.00000000E+00
  0.00000000E+00  0.00000000E+00  0.00000000E+00
  0.00000000E+00  0.00000000E+00  0.00000000E+00
  0.00000000E+00  0.00000000E+00  0.00000000E+00
  0.00000000E+00  0.00000000E+00  0.00000000E+00
  0.00000000E+00  0.00000000E+00  0.00000000E+00
  0.00000000E+00  0.00000000E+00  0.00000000E+00
  0.00000000E+00  0.00000000E+00  0.00000000E+00
  0.00000000E+00  0.00000000E+00  0.00000000E+00
  0.00000000E+00  0.00000000E+00  0.00000000E+00
  0.00000000E+00  0.00000000E+00  0.00000000E+00
  0.00000000E+00  0.00000000E+00  0.00000000E+00
  0.00000000E+00  0.00000000E+00  0.00000000E+00
  0.00000000E+00  0.00000000E+00  0.00000000E+00
  0.00000000E+00  0.00000000E+00  0.00000000E+00
  0.00000000E+00  0.00000000E+00  0.00000000E+00
  0.00000000E+00  0.00000000E+00  0.00000000E+00
  0.00000000E+00  0.00000000E+00  0.00000000E+00
  0.00000000E+00  0.00000000E+00  0.00000000E+00
  0.00000000E+00  0.00000000E+00  0.00000000E+00
  0.00000000E+00  0.00000000E+00  0.00000000E+00
  0.00000000E+00  0.00000000E+00  0.00000000E+00
  0.00000000E+00  0.00000000E+00  0.00000000E+00
  0.00000000E+00  0.00000000E+00  0.00000000E+00
  0.00000000E+00  0.00000000E+00  0.00000000E+00
  0.00000000E+00  0.00000000E+00  0.00000000E+00
  0.00000000E+00  0.00000000E+00  0.00000000E+00
  0.00000000E+00  0.00000000E+00  0.00000000E+00
  0.00000000E+00  0.00000000E+00  0.00000000E+00
  0.00000000E+00  0.00000000E+00  0.00000000E+00
  0.00000000E+00  0.00000000E+00  0.00000000E+00
  0.00000000E+00  0.00000000E+00  0.00000000E+00
  0.00000000E+00  0.00000000E+00  0.00000000E+00
  0.00000000E+00  0.00000000E+00  0.00000000E+00
  0.00000000E+00  0.00000000E+00  0.00000000E+00
  0.00000000E+00  0.00000000E+00  0.00000000E+00
  0.00000000E+00  0.00000000E+00  0.00000000E+00
  0.00000000E+00  0.00000000E+00  0.00000000E+00
  0.00000000E+00  0.00000000E+00  0.00000000E+00
  0.00000000E+00  0.00000000E+00  0.00000000E+00
  0.00000000E+00  0.00000000E+00  0.00000000E+00
  0.00000000E+00  0.00000000E+00  0.00000000E+00
  0.00000000E+00  0.00000000E+00  0.00000000E+00
  0.00000000E+00  0.00000000E+00  0.00000000E+00
  0.00000000E+00  0.00000000E+00  0.00000000E+00
  0.00000000E+00  0.00000000E+00  0.00000000E+00
  0.00000000E+00  0.00000000E+00  0.00000000E+00
  0.00000000E+00  0.00000000E+00  0.00000000E+00
  0.00000000E+00  0.00000000E+00  0.00000000E+00
  0.00000000E+00  0.00000000E+00  0.00000000E+00
  0.00000000E+00  0.00000000E+00  0.00000000E+00
  0.00000000E+00  0.00000000E+00  0.00000000E+00
  0.00000000E+00  0.00000000E+00  0.00000000E+00
  0.00000000E+00  0.00000000E+00  0.00000000E+00
  0.00000000E+00  0.00000000E+00  0.00000000E+00
  0.00000000E+00  0.00000000E+00  0.00000000E+00
  0.00000000E+00  0.00000000E+00  0.00000000E+00
  0.00000000E+00  0.00000000E+00  0.00000000E+00
  0.00000000E+00  0.00000000E+00  0.00000000E+00
