Bi La Sn O  C  H                        
   1.00000000000000     
    29.0000000000000000    0.0000000000000000    0.0000000000000000
     0.2488180851000000   28.9989325590000000    0.0000000000000000
    -0.0631677343000000   -0.4515975666000000   28.9964147692999994
   Bi   La   Sn   O    C    H 
    22    23    23     2     1     1
Selective dynamics
Direct
  0.7598565578121821  0.4782599094348102  0.3988213511402460   T   T   T
  0.6464801711034800  0.6839570524848660  0.5536934480923369   T   T   T
  0.3545053554036031  0.4618868075005553  0.4325397354571673   T   T   T
  0.5506893412674485  0.7131694821800617  0.5853372426091807   T   T   T
  0.5915029568994470  0.5209714444905416  0.5841479689498996   F   F   F
  0.6406719777485426  0.6812807755599530  0.4470639635153412   T   T   T
  0.6962228185242898  0.5227806756971449  0.6548401663117031   T   T   T
  0.4860065256006695  0.7007722675717376  0.5004019460046752   T   T   T
  0.5004839460855024  0.5502791173970252  0.5477141156400123   F   F   F
  0.3245280021332187  0.4861510490539968  0.5721316283059297   T   T   T
  0.3831083474540952  0.6120624861087881  0.5350679150031401   T   T   T
  0.6667129484492236  0.4827404655721850  0.5105018184570156   F   F   F
  0.5763997220267569  0.4263140504383500  0.5448328182496311   F   F   F
  0.6699435869869144  0.3744874210078479  0.5062209775370523   T   T   T
  0.4654653578435278  0.3376028715658795  0.5024537134013558   T   T   T
  0.6484934028780529  0.5775373212088155  0.4602701624361103   F   F   F
  0.5577313854820138  0.4381052053417814  0.7499167711889734   T   T   T
  0.6077697338864174  0.3517714142828923  0.6695809031452764   T   T   T
  0.4940478826703282  0.2982687395085147  0.4126591384721137   T   T   T
  0.6597865604684766  0.6189695368041569  0.6658300389544579   T   T   T
  0.4964440408363415  0.4096360755600580  0.3147523729681130   T   T   T
  0.6229469514602347  0.3171702804032264  0.5727906587186844   T   T   T
  0.5391681099479909  0.6839528504524595  0.4054889875205948   T   T   T
  0.3911520495357469  0.4143069344348743  0.5280948361222745   T   T   T
  0.6310496344532810  0.5538934275269530  0.2836205039308566   T   T   T
  0.4705706517994632  0.4687760616502638  0.6909270964043220   T   T   T
  0.5683115009887700  0.5094300495444983  0.4784716241115703   F   F   F
  0.4203210565129183  0.5084107200613417  0.5018573595042781   F   F   F
  0.4471808568506918  0.3982195951718836  0.4100357627432205   T   T   T
  0.5672508572433008  0.3460365011223237  0.3583190438462345   T   T   T
  0.4099845172991239  0.5403932053582418  0.6087479547531260   T   T   T
  0.5994413189182871  0.4435023128889366  0.3043683271384641   T   T   T
  0.4555662506998470  0.5997583477174452  0.3625555910700402   T   T   T
  0.4138046611284274  0.4819633196195214  0.3432444783905007   T   T   T
  0.6613172486024901  0.4290783845031729  0.6043674781558367   T   T   T
  0.6733272401925098  0.5783571376975414  0.5639980285738866   T   T   T
  0.5267243197462400  0.5108346408384685  0.3274412129520144   T   T   T
  0.5672222309451203  0.3584731736904413  0.4689841532436781   T   T   T
  0.3144711069651383  0.5464413520351664  0.4922614836057603   T   T   T
  0.6607706501107274  0.4297570570050881  0.4154454445485260   T   T   T
  0.5660841929594156  0.6261437171197244  0.5094829013827464   F   F   F
  0.5953009109349482  0.5294221483577606  0.6895645656624545   T   T   T
  0.4704417432962339  0.6414483973738498  0.5890601019657087   T   T   T
  0.4630833199486766  0.6033483847031620  0.4633386639774338   T   T   T
  0.7167478622817076  0.5740509563645531  0.3833989350323726   T   T   T
  0.5499310510395361  0.5822218838566187  0.4076968008106903   F   F   F
  0.4794126430662260  0.5072205383607624  0.4190535757241776   F   F   F
  0.6957128186608249  0.4800795474478690  0.3247324388151569   T   T   T
  0.7527775299855763  0.4303357233972524  0.4885677998238072   T   T   T
  0.7484786852736395  0.5380206982383590  0.4852755848368076   T   T   T
  0.7488318537640837  0.4918548318623691  0.5729664958060074   T   T   T
  0.6483201089401723  0.4387725000138568  0.7095195659364651   T   T   T
  0.5763051820633691  0.7430118348964667  0.4940249170875979   T   T   T
  0.6192554540844384  0.5183157687966542  0.3801816896793397   F   F   F
  0.5037824546868631  0.5584386394965870  0.6501698343076731   T   T   T
  0.4922009500451665  0.4366758245867572  0.4933013002826740   F   F   F
  0.5608844484509063  0.4404139570509003  0.6454865549417619   F   F   F
  0.5766263636498515  0.6156060983848126  0.6138648788901979   T   T   T
  0.5458638199863797  0.6185558833601570  0.3126654003134404   T   T   T
  0.6278025026762832  0.6260426917524731  0.3622948741227376   T   T   T
  0.3769471674701839  0.5573925172157715  0.4125615595176133   T   T   T
  0.4723078164089713  0.4557257050327763  0.5877273803360978   F   F   F
  0.7272783505731658  0.6348603449091215  0.4850640942727695   T   T   T
  0.5079582434198677  0.3672749225142619  0.6861623301063556   T   T   T
  0.3792895377711812  0.4424117073350551  0.6394756475201625   T   T   T
  0.5544592502646992  0.4379899399457940  0.4037542370104745   F   F   F
  0.4360814872960923  0.3661257885578065  0.6141026746574169   T   T   T
  0.5296824386208764  0.3493263402925076  0.5820258745306229   T   T   T
  0.3719562504747189  0.3544273749506248  0.3965468370271779   T   T   T
  0.3843295448793665  0.4030507145907856  0.3381332694067676   T   T   T
  0.3615793253559413  0.3706182706491299  0.3577569777605997   T   T   T
  0.3313595388788078  0.3569279384471645  0.3387480009726407   T   T   T
 
  0.00000000E+00  0.00000000E+00  0.00000000E+00
  0.00000000E+00  0.00000000E+00  0.00000000E+00
  0.00000000E+00  0.00000000E+00  0.00000000E+00
  0.00000000E+00  0.00000000E+00  0.00000000E+00
  0.00000000E+00  0.00000000E+00  0.00000000E+00
  0.00000000E+00  0.00000000E+00  0.00000000E+00
  0.00000000E+00  0.00000000E+00  0.00000000E+00
  0.00000000E+00  0.00000000E+00  0.00000000E+00
  0.00000000E+00  0.00000000E+00  0.00000000E+00
  0.00000000E+00  0.00000000E+00  0.00000000E+00
  0.00000000E+00  0.00000000E+00  0.00000000E+00
  0.00000000E+00  0.00000000E+00  0.00000000E+00
  0.00000000E+00  0.00000000E+00  0.00000000E+00
  0.00000000E+00  0.00000000E+00  0.00000000E+00
  0.00000000E+00  0.00000000E+00  0.00000000E+00
  0.00000000E+00  0.00000000E+00  0.00000000E+00
  0.00000000E+00  0.00000000E+00  0.00000000E+00
  0.00000000E+00  0.00000000E+00  0.00000000E+00
  0.00000000E+00  0.00000000E+00  0.00000000E+00
  0.00000000E+00  0.00000000E+00  0.00000000E+00
  0.00000000E+00  0.00000000E+00  0.00000000E+00
  0.00000000E+00  0.00000000E+00  0.00000000E+00
  0.00000000E+00  0.00000000E+00  0.00000000E+00
  0.00000000E+00  0.00000000E+00  0.00000000E+00
  0.00000000E+00  0.00000000E+00  0.00000000E+00
  0.00000000E+00  0.00000000E+00  0.00000000E+00
  0.00000000E+00  0.00000000E+00  0.00000000E+00
  0.00000000E+00  0.00000000E+00  0.00000000E+00
  0.00000000E+00  0.00000000E+00  0.00000000E+00
  0.00000000E+00  0.00000000E+00  0.00000000E+00
  0.00000000E+00  0.00000000E+00  0.00000000E+00
  0.00000000E+00  0.00000000E+00  0.00000000E+00
  0.00000000E+00  0.00000000E+00  0.00000000E+00
  0.00000000E+00  0.00000000E+00  0.00000000E+00
  0.00000000E+00  0.00000000E+00  0.00000000E+00
  0.00000000E+00  0.00000000E+00  0.00000000E+00
  0.00000000E+00  0.00000000E+00  0.00000000E+00
  0.00000000E+00  0.00000000E+00  0.00000000E+00
  0.00000000E+00  0.00000000E+00  0.00000000E+00
  0.00000000E+00  0.00000000E+00  0.00000000E+00
  0.00000000E+00  0.00000000E+00  0.00000000E+00
  0.00000000E+00  0.00000000E+00  0.00000000E+00
  0.00000000E+00  0.00000000E+00  0.00000000E+00
  0.00000000E+00  0.00000000E+00  0.00000000E+00
  0.00000000E+00  0.00000000E+00  0.00000000E+00
  0.00000000E+00  0.00000000E+00  0.00000000E+00
  0.00000000E+00  0.00000000E+00  0.00000000E+00
  0.00000000E+00  0.00000000E+00  0.00000000E+00
  0.00000000E+00  0.00000000E+00  0.00000000E+00
  0.00000000E+00  0.00000000E+00  0.00000000E+00
  0.00000000E+00  0.00000000E+00  0.00000000E+00
  0.00000000E+00  0.00000000E+00  0.00000000E+00
  0.00000000E+00  0.00000000E+00  0.00000000E+00
  0.00000000E+00  0.00000000E+00  0.00000000E+00
  0.00000000E+00  0.00000000E+00  0.00000000E+00
  0.00000000E+00  0.00000000E+00  0.00000000E+00
  0.00000000E+00  0.00000000E+00  0.00000000E+00
  0.00000000E+00  0.00000000E+00  0.00000000E+00
  0.00000000E+00  0.00000000E+00  0.00000000E+00
  0.00000000E+00  0.00000000E+00  0.00000000E+00
  0.00000000E+00  0.00000000E+00  0.00000000E+00
  0.00000000E+00  0.00000000E+00  0.00000000E+00
  0.00000000E+00  0.00000000E+00  0.00000000E+00
  0.00000000E+00  0.00000000E+00  0.00000000E+00
  0.00000000E+00  0.00000000E+00  0.00000000E+00
  0.00000000E+00  0.00000000E+00  0.00000000E+00
  0.00000000E+00  0.00000000E+00  0.00000000E+00
  0.00000000E+00  0.00000000E+00  0.00000000E+00
  0.00000000E+00  0.00000000E+00  0.00000000E+00
  0.00000000E+00  0.00000000E+00  0.00000000E+00
  0.00000000E+00  0.00000000E+00  0.00000000E+00
  0.00000000E+00  0.00000000E+00  0.00000000E+00
