Bi La Sn O  C  H                        
   1.00000000000000     
    29.0000000000000000    0.0000000000000000    0.0000000000000000
     0.2488180851000000   28.9989325590000000    0.0000000000000000
    -0.0631677343000000   -0.4515975666000000   28.9964147692999994
   Bi   La   Sn   O    C    H 
    22    23    23     2     1     1
Selective dynamics
Direct
  0.7595520824622450  0.4781746142611900  0.3987304299603572   T   T   T
  0.6471749823898973  0.6844976681993408  0.5519086240505320   T   T   T
  0.3600182227500623  0.4580365091423238  0.4282576278494908   T   T   T
  0.5510689514098319  0.7131323076184588  0.5842762320316359   T   T   T
  0.5915029568994470  0.5209714444905416  0.5841479689498996   F   F   F
  0.6408750785917149  0.6807862188887077  0.4462520775243597   T   T   T
  0.6953926504027956  0.5210046381381439  0.6545717739398533   T   T   T
  0.4866150019176034  0.7010207225502204  0.4985879166722781   T   T   T
  0.5004839460855024  0.5502791173970252  0.5477141156400123   F   F   F
  0.3268239397319200  0.4855316705727793  0.5767130324387374   T   T   T
  0.3822758084373988  0.6095916126146426  0.5364657262108734   T   T   T
  0.6667129484492236  0.4827404655721850  0.5105018184570156   F   F   F
  0.5763997220267569  0.4263140504383500  0.5448328182496311   F   F   F
  0.6699436506309191  0.3735597648620489  0.5074891727130370   T   T   T
  0.4632820919490309  0.3387944261543809  0.4975840317253419   T   T   T
  0.6484934028780529  0.5775373212088155  0.4602701624361103   F   F   F
  0.5566851410688070  0.4319593094412146  0.7496093695149922   T   T   T
  0.5978463403257169  0.3506201894872149  0.6676573754558004   T   T   T
  0.4932896377685463  0.2999826071546441  0.4079835434049661   T   T   T
  0.6600275138729191  0.6167590722410652  0.6677162845155149   T   T   T
  0.4916479281956420  0.4107296295425456  0.3054966014079928   T   T   T
  0.6215516690378243  0.3160609756596026  0.5727890184814943   T   T   T
  0.5400435027957232  0.6837387152099959  0.4046830898423067   T   T   T
  0.3900817131888053  0.4148159270379336  0.5267534652237225   T   T   T
  0.6284743830760491  0.5523275568965736  0.2826923295131473   T   T   T
  0.4727676771082835  0.4759009312504573  0.6922671628712163   T   T   T
  0.5683115009887700  0.5094300495444983  0.4784716241115703   F   F   F
  0.4203210565129183  0.5084107200613417  0.5018573595042781   F   F   F
  0.4524656257826455  0.4014323107272104  0.4055619246826092   T   T   T
  0.5638316214222958  0.3494682990649116  0.3524163933278368   T   T   T
  0.4123363280108465  0.5399300671546310  0.6111584373563834   T   T   T
  0.5985230376554580  0.4426885523121620  0.3043719641947670   T   T   T
  0.4546807687677207  0.6000295993026707  0.3632730599923825   T   T   T
  0.4181695348665302  0.4873441583199963  0.3400100274156991   T   T   T
  0.6606895541962224  0.4273492670886535  0.6046159818916454   T   T   T
  0.6735554013012693  0.5785102212832014  0.5644515455126050   T   T   T
  0.5259883732493035  0.5097481269396364  0.3279171560031858   T   T   T
  0.5666254740228781  0.3572237448206112  0.4691131533627249   T   T   T
  0.3158046811734209  0.5406108309506700  0.4925738998067428   T   T   T
  0.6603069032567038  0.4294370446685424  0.4159845306439692   T   T   T
  0.5660841929594156  0.6261437171197244  0.5094829013827464   F   F   F
  0.5951263431732371  0.5274973080857567  0.6903445765636683   T   T   T
  0.4704234057819103  0.6422122172971801  0.5876378584571292   T   T   T
  0.4618993672276120  0.6032299248892780  0.4632501248929209   T   T   T
  0.7165543493076345  0.5738469834542946  0.3833361178546185   T   T   T
  0.5499310510395361  0.5822218838566187  0.4076968008106903   F   F   F
  0.4794126430662260  0.5072205383607624  0.4190535757241776   F   F   F
  0.6948254455548671  0.4804351744373934  0.3246223906787981   T   T   T
  0.7519748889640836  0.4297734898726227  0.4878960525888826   T   T   T
  0.7483073484750321  0.5377959212895357  0.4852638933110132   T   T   T
  0.7487989772808428  0.4904342732800839  0.5726583644018871   T   T   T
  0.6463788089699171  0.4337225645486614  0.7087881208158624   T   T   T
  0.5769879737724588  0.7435193403961725  0.4932066649047032   T   T   T
  0.6192554540844384  0.5183157687966542  0.3801816896793397   F   F   F
  0.5061078637262909  0.5630857594147540  0.6509604699481152   T   T   T
  0.4922009500451665  0.4366758245867572  0.4933013002826740   F   F   F
  0.5608844484509063  0.4404139570509003  0.6454865549417619   F   F   F
  0.5783317756696690  0.6166648886354477  0.6135073213538431   T   T   T
  0.5445926392972007  0.6175437358192443  0.3126803999662294   T   T   T
  0.6274504276274306  0.6252072487418866  0.3611866614659309   T   T   T
  0.3761912586657004  0.5570846942368330  0.4130621055879183   T   T   T
  0.4723078164089713  0.4557257050327763  0.5877273803360978   F   F   F
  0.7276883514356647  0.6347822638982218  0.4845918201415370   T   T   T
  0.4968035869356647  0.3723672691750166  0.6802440060581596   T   T   T
  0.3848072708084765  0.4390194488926346  0.6401522104472204   T   T   T
  0.5544592502646992  0.4379899399457940  0.4037542370104745   F   F   F
  0.4333819632438262  0.3596945732700488  0.6054960985960937   T   T   T
  0.5277812098488323  0.3481351693787229  0.5783460023663511   T   T   T
  0.4933860587918751  0.3043170511803177  0.7135410767978795   T   T   T
  0.5154274615001067  0.2736927418220440  0.6437844669962236   T   T   T
  0.5032596121421414  0.2705933256875976  0.6848543435880471   T   T   T
  0.5000448979328973  0.2359751270402206  0.7005023017758544   T   T   T
 
  0.00000000E+00  0.00000000E+00  0.00000000E+00
  0.00000000E+00  0.00000000E+00  0.00000000E+00
  0.00000000E+00  0.00000000E+00  0.00000000E+00
  0.00000000E+00  0.00000000E+00  0.00000000E+00
  0.00000000E+00  0.00000000E+00  0.00000000E+00
  0.00000000E+00  0.00000000E+00  0.00000000E+00
  0.00000000E+00  0.00000000E+00  0.00000000E+00
  0.00000000E+00  0.00000000E+00  0.00000000E+00
  0.00000000E+00  0.00000000E+00  0.00000000E+00
  0.00000000E+00  0.00000000E+00  0.00000000E+00
  0.00000000E+00  0.00000000E+00  0.00000000E+00
  0.00000000E+00  0.00000000E+00  0.00000000E+00
  0.00000000E+00  0.00000000E+00  0.00000000E+00
  0.00000000E+00  0.00000000E+00  0.00000000E+00
  0.00000000E+00  0.00000000E+00  0.00000000E+00
  0.00000000E+00  0.00000000E+00  0.00000000E+00
  0.00000000E+00  0.00000000E+00  0.00000000E+00
  0.00000000E+00  0.00000000E+00  0.00000000E+00
  0.00000000E+00  0.00000000E+00  0.00000000E+00
  0.00000000E+00  0.00000000E+00  0.00000000E+00
  0.00000000E+00  0.00000000E+00  0.00000000E+00
  0.00000000E+00  0.00000000E+00  0.00000000E+00
  0.00000000E+00  0.00000000E+00  0.00000000E+00
  0.00000000E+00  0.00000000E+00  0.00000000E+00
  0.00000000E+00  0.00000000E+00  0.00000000E+00
  0.00000000E+00  0.00000000E+00  0.00000000E+00
  0.00000000E+00  0.00000000E+00  0.00000000E+00
  0.00000000E+00  0.00000000E+00  0.00000000E+00
  0.00000000E+00  0.00000000E+00  0.00000000E+00
  0.00000000E+00  0.00000000E+00  0.00000000E+00
  0.00000000E+00  0.00000000E+00  0.00000000E+00
  0.00000000E+00  0.00000000E+00  0.00000000E+00
  0.00000000E+00  0.00000000E+00  0.00000000E+00
  0.00000000E+00  0.00000000E+00  0.00000000E+00
  0.00000000E+00  0.00000000E+00  0.00000000E+00
  0.00000000E+00  0.00000000E+00  0.00000000E+00
  0.00000000E+00  0.00000000E+00  0.00000000E+00
  0.00000000E+00  0.00000000E+00  0.00000000E+00
  0.00000000E+00  0.00000000E+00  0.00000000E+00
  0.00000000E+00  0.00000000E+00  0.00000000E+00
  0.00000000E+00  0.00000000E+00  0.00000000E+00
  0.00000000E+00  0.00000000E+00  0.00000000E+00
  0.00000000E+00  0.00000000E+00  0.00000000E+00
  0.00000000E+00  0.00000000E+00  0.00000000E+00
  0.00000000E+00  0.00000000E+00  0.00000000E+00
  0.00000000E+00  0.00000000E+00  0.00000000E+00
  0.00000000E+00  0.00000000E+00  0.00000000E+00
  0.00000000E+00  0.00000000E+00  0.00000000E+00
  0.00000000E+00  0.00000000E+00  0.00000000E+00
  0.00000000E+00  0.00000000E+00  0.00000000E+00
  0.00000000E+00  0.00000000E+00  0.00000000E+00
  0.00000000E+00  0.00000000E+00  0.00000000E+00
  0.00000000E+00  0.00000000E+00  0.00000000E+00
  0.00000000E+00  0.00000000E+00  0.00000000E+00
  0.00000000E+00  0.00000000E+00  0.00000000E+00
  0.00000000E+00  0.00000000E+00  0.00000000E+00
  0.00000000E+00  0.00000000E+00  0.00000000E+00
  0.00000000E+00  0.00000000E+00  0.00000000E+00
  0.00000000E+00  0.00000000E+00  0.00000000E+00
  0.00000000E+00  0.00000000E+00  0.00000000E+00
  0.00000000E+00  0.00000000E+00  0.00000000E+00
  0.00000000E+00  0.00000000E+00  0.00000000E+00
  0.00000000E+00  0.00000000E+00  0.00000000E+00
  0.00000000E+00  0.00000000E+00  0.00000000E+00
  0.00000000E+00  0.00000000E+00  0.00000000E+00
  0.00000000E+00  0.00000000E+00  0.00000000E+00
  0.00000000E+00  0.00000000E+00  0.00000000E+00
  0.00000000E+00  0.00000000E+00  0.00000000E+00
  0.00000000E+00  0.00000000E+00  0.00000000E+00
  0.00000000E+00  0.00000000E+00  0.00000000E+00
  0.00000000E+00  0.00000000E+00  0.00000000E+00
  0.00000000E+00  0.00000000E+00  0.00000000E+00
