Bi La Sn O  C  H                        
   1.00000000000000     
    29.0000000000000000    0.0000000000000000    0.0000000000000000
     0.2488180851000000   28.9989325590000000    0.0000000000000000
    -0.0631677343000000   -0.4515975666000000   28.9964147692999994
   Bi   La   Sn   O    C    H 
    22    23    23     2     1     1
Selective dynamics
Direct
  0.7606018181940507  0.4770854725267287  0.4020163314650604   T   T   T
  0.6467371169849540  0.6839511499736731  0.5523088708814784   T   T   T
  0.3601331692614786  0.4592676863125155  0.4275134023268312   T   T   T
  0.5507126331702665  0.7131540154556281  0.5854600330209109   T   T   T
  0.5915029568994470  0.5209714444905416  0.5841479689498996   F   F   F
  0.6395366920728426  0.6807397608599238  0.4456662798683776   T   T   T
  0.6972486564224407  0.5232679170996390  0.6528603630538768   T   T   T
  0.4859968056124651  0.7011245928308965  0.5009045130854645   T   T   T
  0.5004839460855024  0.5502791173970252  0.5477141156400123   F   F   F
  0.3252542028600700  0.4873450150734002  0.5745500591893357   T   T   T
  0.3828812036474570  0.6112569339781968  0.5356092310401522   T   T   T
  0.6667129484492236  0.4827404655721850  0.5105018184570156   F   F   F
  0.5763997220267569  0.4263140504383500  0.5448328182496311   F   F   F
  0.6680519120490610  0.3739631831637147  0.5058580940353030   T   T   T
  0.4625852940973544  0.3388407260412575  0.4995082772614715   T   T   T
  0.6484934028780529  0.5775373212088155  0.4602701624361103   F   F   F
  0.5585324165194745  0.4378298116767023  0.7495251031098841   T   T   T
  0.6025238442430966  0.3513795750055599  0.6692630897753918   T   T   T
  0.4917483106825613  0.2993037965631485  0.4094731847893980   T   T   T
  0.6603651044672701  0.6190772632959566  0.6654363098656905   T   T   T
  0.4933388978826975  0.4102886416719436  0.3071777206389804   T   T   T
  0.6216873592799874  0.3173497762474141  0.5732684513748671   T   T   T
  0.5381210336777169  0.6838921886916444  0.4052254996385420   T   T   T
  0.3904149568906300  0.4161882351102427  0.5272891655990289   T   T   T
  0.6310101700747145  0.5523185045563780  0.2835172970818377   T   T   T
  0.4714933990945073  0.4716496737626354  0.6920238699451893   T   T   T
  0.5683115009887700  0.5094300495444983  0.4784716241115703   F   F   F
  0.4203210565129183  0.5084107200613417  0.5018573595042781   F   F   F
  0.4521901868914076  0.4010210249022376  0.4067155722026496   T   T   T
  0.5639724946364951  0.3481589313260315  0.3548246938298805   T   T   T
  0.4113783655805782  0.5407781619197538  0.6099769312740340   T   T   T
  0.6002045048865030  0.4421454035316735  0.3052255317733879   T   T   T
  0.4555370648552345  0.6004234619660034  0.3618137870752139   T   T   T
  0.4192835767190067  0.4873464062918108  0.3388178025103838   T   T   T
  0.6615684206414146  0.4284347498194652  0.6041525139711789   T   T   T
  0.6743541899393251  0.5781219331082457  0.5632199670041752   T   T   T
  0.5270103214088488  0.5098796535257388  0.3278371171953519   T   T   T
  0.5651601528454264  0.3573127967830770  0.4691500902546961   T   T   T
  0.3169260320757032  0.5431427565871079  0.4910789462412335   T   T   T
  0.6598824681255090  0.4294905166314251  0.4160948542127160   T   T   T
  0.5660841929594156  0.6261437171197244  0.5094829013827464   F   F   F
  0.5971599416951946  0.5286389249854718  0.6894305711304642   T   T   T
  0.4705403829877946  0.6414558051626422  0.5892974957963163   T   T   T
  0.4631599228546843  0.6036393310327977  0.4642517938425455   T   T   T
  0.7180881680034830  0.5728528786307766  0.3849201721502561   T   T   T
  0.5499310510395361  0.5822218838566187  0.4076968008106903   F   F   F
  0.4794126430662260  0.5072205383607624  0.4190535757241776   F   F   F
  0.6965670990987772  0.4803387342171161  0.3265501614407317   T   T   T
  0.7518687909913957  0.4276369242649833  0.4900091359886846   T   T   T
  0.7536069327598389  0.5392016329734841  0.4865600881554966   T   T   T
  0.7496069480052747  0.4886338324497594  0.5717351314053420   T   T   T
  0.6480309748045942  0.4363550380198150  0.7082364844174206   T   T   T
  0.5766278481340106  0.7427690055744833  0.4939129874393494   T   T   T
  0.6192554540844384  0.5183157687966542  0.3801816896793397   F   F   F
  0.5060359147128806  0.5595115315520145  0.6501480102979988   T   T   T
  0.4922009500451665  0.4366758245867572  0.4933013002826740   F   F   F
  0.5608844484509063  0.4404139570509003  0.6454865549417619   F   F   F
  0.5775673519926080  0.6163539653789245  0.6134799926515948   T   T   T
  0.5468486090926626  0.6179572465277754  0.3134861236331564   T   T   T
  0.6299477872965686  0.6249429574414844  0.3615661745530471   T   T   T
  0.3780862246199340  0.5566606693841296  0.4115355695053844   T   T   T
  0.4723078164089713  0.4557257050327763  0.5877273803360978   F   F   F
  0.7269324803066181  0.6347589245078840  0.4841918613193142   T   T   T
  0.5027502896247621  0.3692969202282181  0.6849309932110319   T   T   T
  0.3810346436678254  0.4420754303024018  0.6400444658178337   T   T   T
  0.5544592502646992  0.4379899399457940  0.4037542370104745   F   F   F
  0.4335351918602040  0.3636635475176009  0.6108075398652065   T   T   T
  0.5273007104599672  0.3496887161401211  0.5795579264808550   T   T   T
  0.8414158140367186  0.4797632191126404  0.4737370337566945   T   T   T
  0.8286492811822358  0.5568269793810039  0.4844375242323516   T   T   T
  0.8545247711199022  0.5205685789277735  0.4772980616955397   T   T   T
  0.8918474518438185  0.5285770319939732  0.4738031872044493   T   T   T
 
  0.00000000E+00  0.00000000E+00  0.00000000E+00
  0.00000000E+00  0.00000000E+00  0.00000000E+00
  0.00000000E+00  0.00000000E+00  0.00000000E+00
  0.00000000E+00  0.00000000E+00  0.00000000E+00
  0.00000000E+00  0.00000000E+00  0.00000000E+00
  0.00000000E+00  0.00000000E+00  0.00000000E+00
  0.00000000E+00  0.00000000E+00  0.00000000E+00
  0.00000000E+00  0.00000000E+00  0.00000000E+00
  0.00000000E+00  0.00000000E+00  0.00000000E+00
  0.00000000E+00  0.00000000E+00  0.00000000E+00
  0.00000000E+00  0.00000000E+00  0.00000000E+00
  0.00000000E+00  0.00000000E+00  0.00000000E+00
  0.00000000E+00  0.00000000E+00  0.00000000E+00
  0.00000000E+00  0.00000000E+00  0.00000000E+00
  0.00000000E+00  0.00000000E+00  0.00000000E+00
  0.00000000E+00  0.00000000E+00  0.00000000E+00
  0.00000000E+00  0.00000000E+00  0.00000000E+00
  0.00000000E+00  0.00000000E+00  0.00000000E+00
  0.00000000E+00  0.00000000E+00  0.00000000E+00
  0.00000000E+00  0.00000000E+00  0.00000000E+00
  0.00000000E+00  0.00000000E+00  0.00000000E+00
  0.00000000E+00  0.00000000E+00  0.00000000E+00
  0.00000000E+00  0.00000000E+00  0.00000000E+00
  0.00000000E+00  0.00000000E+00  0.00000000E+00
  0.00000000E+00  0.00000000E+00  0.00000000E+00
  0.00000000E+00  0.00000000E+00  0.00000000E+00
  0.00000000E+00  0.00000000E+00  0.00000000E+00
  0.00000000E+00  0.00000000E+00  0.00000000E+00
  0.00000000E+00  0.00000000E+00  0.00000000E+00
  0.00000000E+00  0.00000000E+00  0.00000000E+00
  0.00000000E+00  0.00000000E+00  0.00000000E+00
  0.00000000E+00  0.00000000E+00  0.00000000E+00
  0.00000000E+00  0.00000000E+00  0.00000000E+00
  0.00000000E+00  0.00000000E+00  0.00000000E+00
  0.00000000E+00  0.00000000E+00  0.00000000E+00
  0.00000000E+00  0.00000000E+00  0.00000000E+00
  0.00000000E+00  0.00000000E+00  0.00000000E+00
  0.00000000E+00  0.00000000E+00  0.00000000E+00
  0.00000000E+00  0.00000000E+00  0.00000000E+00
  0.00000000E+00  0.00000000E+00  0.00000000E+00
  0.00000000E+00  0.00000000E+00  0.00000000E+00
  0.00000000E+00  0.00000000E+00  0.00000000E+00
  0.00000000E+00  0.00000000E+00  0.00000000E+00
  0.00000000E+00  0.00000000E+00  0.00000000E+00
  0.00000000E+00  0.00000000E+00  0.00000000E+00
  0.00000000E+00  0.00000000E+00  0.00000000E+00
  0.00000000E+00  0.00000000E+00  0.00000000E+00
  0.00000000E+00  0.00000000E+00  0.00000000E+00
  0.00000000E+00  0.00000000E+00  0.00000000E+00
  0.00000000E+00  0.00000000E+00  0.00000000E+00
  0.00000000E+00  0.00000000E+00  0.00000000E+00
  0.00000000E+00  0.00000000E+00  0.00000000E+00
  0.00000000E+00  0.00000000E+00  0.00000000E+00
  0.00000000E+00  0.00000000E+00  0.00000000E+00
  0.00000000E+00  0.00000000E+00  0.00000000E+00
  0.00000000E+00  0.00000000E+00  0.00000000E+00
  0.00000000E+00  0.00000000E+00  0.00000000E+00
  0.00000000E+00  0.00000000E+00  0.00000000E+00
  0.00000000E+00  0.00000000E+00  0.00000000E+00
  0.00000000E+00  0.00000000E+00  0.00000000E+00
  0.00000000E+00  0.00000000E+00  0.00000000E+00
  0.00000000E+00  0.00000000E+00  0.00000000E+00
  0.00000000E+00  0.00000000E+00  0.00000000E+00
  0.00000000E+00  0.00000000E+00  0.00000000E+00
  0.00000000E+00  0.00000000E+00  0.00000000E+00
  0.00000000E+00  0.00000000E+00  0.00000000E+00
  0.00000000E+00  0.00000000E+00  0.00000000E+00
  0.00000000E+00  0.00000000E+00  0.00000000E+00
  0.00000000E+00  0.00000000E+00  0.00000000E+00
  0.00000000E+00  0.00000000E+00  0.00000000E+00
  0.00000000E+00  0.00000000E+00  0.00000000E+00
  0.00000000E+00  0.00000000E+00  0.00000000E+00
