Bi La Sn O  C  H                        
   1.00000000000000     
    29.0000000000000000    0.0000000000000000    0.0000000000000000
     0.2488180851000000   28.9989325590000000    0.0000000000000000
    -0.0631677343000000   -0.4515975666000000   28.9964147692999994
   Bi   La   Sn   O    C    H 
    22    23    23     2     1     1
Selective dynamics
Direct
  0.7594370973517034  0.4781687151064717  0.3988151570725819   T   T   T
  0.6468297590587910  0.6841977012477337  0.5520104775183817   T   T   T
  0.3603906140741947  0.4586616837918457  0.4279975331415323   T   T   T
  0.5499953850376419  0.7131793693636528  0.5842685843706207   T   T   T
  0.5915029568994470  0.5209714444905416  0.5841479689498996   F   F   F
  0.6402899380058841  0.6802452240100360  0.4456232983764766   T   T   T
  0.6961077718554309  0.5222574827769363  0.6546575287855118   T   T   T
  0.4865723558349027  0.7011561900458297  0.4990734921843979   T   T   T
  0.5004839460855024  0.5502791173970252  0.5477141156400123   F   F   F
  0.3252255737105534  0.4862870423472473  0.5750887505250433   T   T   T
  0.3815504129871506  0.6101663617108749  0.5349060700745595   T   T   T
  0.6667129484492236  0.4827404655721850  0.5105018184570156   F   F   F
  0.5763997220267569  0.4263140504383500  0.5448328182496311   F   F   F
  0.6694120888639371  0.3747600305982973  0.5074175595324202   T   T   T
  0.4644087904452986  0.3396940379831713  0.5007787553588824   T   T   T
  0.6484934028780529  0.5775373212088155  0.4602701624361103   F   F   F
  0.5579356004878090  0.4361794801242240  0.7499186036959596   T   T   T
  0.6032944364672480  0.3509049023802832  0.6681091836311692   T   T   T
  0.4922951941013037  0.2997690589567300  0.4110703452662061   T   T   T
  0.6598108202398990  0.6183943321877567  0.6662548692039212   T   T   T
  0.4911832945827015  0.4109181278993370  0.3055091473897423   T   T   T
  0.6238366209951604  0.3160963690431887  0.5729139141111993   T   T   T
  0.5395206071864292  0.6836253155809735  0.4043563946944634   T   T   T
  0.3904836477012772  0.4156211641242936  0.5274458763210526   T   T   T
  0.6280114381549303  0.5519546247207316  0.2822005074453500   T   T   T
  0.4718796149130549  0.4714812850786642  0.6918441587882288   T   T   T
  0.5683115009887700  0.5094300495444983  0.4784716241115703   F   F   F
  0.4203210565129183  0.5084107200613417  0.5018573595042781   F   F   F
  0.4527876593075511  0.4014887439497948  0.4056717887526988   T   T   T
  0.5620812246663172  0.3486278657043740  0.3532532159089507   T   T   T
  0.4111548571505719  0.5404630070327351  0.6097552337662684   T   T   T
  0.5987315572373707  0.4414704770630924  0.3053919776180588   T   T   T
  0.4548460980326235  0.6009448386337491  0.3635129574262090   T   T   T
  0.4184103995247600  0.4884993433058186  0.3391398870764598   T   T   T
  0.6613029895829222  0.4286994060972024  0.6045520642618083   T   T   T
  0.6732530909135637  0.5782986697865099  0.5641332269592889   T   T   T
  0.5258739726122815  0.5097388724181674  0.3282538755966452   T   T   T
  0.5667658043909085  0.3570843083139504  0.4695157016936426   T   T   T
  0.3150428668005982  0.5412506531863909  0.4911354922655998   T   T   T
  0.6605627922318671  0.4293220132311361  0.4157534028416921   T   T   T
  0.5660841929594156  0.6261437171197244  0.5094829013827464   F   F   F
  0.5956648655852625  0.5285302833445329  0.6898465359812523   T   T   T
  0.4696073465073130  0.6414294533633736  0.5878473846537489   T   T   T
  0.4629643468524434  0.6030991625328508  0.4636649841501722   T   T   T
  0.7164526900928770  0.5737962934921872  0.3834376907718749   T   T   T
  0.5499310510395361  0.5822218838566187  0.4076968008106903   F   F   F
  0.4794126430662260  0.5072205383607624  0.4190535757241776   F   F   F
  0.6947850974715484  0.4807636667816420  0.3245560259005458   T   T   T
  0.7522779691838610  0.4299650908894215  0.4882242320335232   T   T   T
  0.7485061522080682  0.5380183090862715  0.4853133109034956   T   T   T
  0.7492337432616993  0.4909447960397385  0.5727386043822555   T   T   T
  0.6474539655046150  0.4366157928953012  0.7088347126811706   T   T   T
  0.5771687792249003  0.7432626328405090  0.4932367031618554   T   T   T
  0.6192554540844384  0.5183157687966542  0.3801816896793397   F   F   F
  0.5050928299027383  0.5600644627404581  0.6501604326391154   T   T   T
  0.4922009500451665  0.4366758245867572  0.4933013002826740   F   F   F
  0.5608844484509063  0.4404139570509003  0.6454865549417619   F   F   F
  0.5770390737301700  0.6164499435334044  0.6136217786816670   T   T   T
  0.5442581400772202  0.6172141381747567  0.3120763421884717   T   T   T
  0.6272585283125639  0.6248535188085994  0.3603888314588559   T   T   T
  0.3768672561410428  0.5573603648253891  0.4127931591163702   T   T   T
  0.4723078164089713  0.4557257050327763  0.5877273803360978   F   F   F
  0.7271321617934147  0.6350535426615601  0.4849161915345517   T   T   T
  0.5038149222873688  0.3687085722997298  0.6830927981947595   T   T   T
  0.3818939820889616  0.4415594143509770  0.6402526647789389   T   T   T
  0.5544592502646992  0.4379899399457940  0.4037542370104745   F   F   F
  0.4353735991043975  0.3642716822561672  0.6097550593678276   T   T   T
  0.5289593740011678  0.3436747917483899  0.5804270865665077   T   T   T
  0.4497376454274799  0.2592070775742580  0.5423761156597030   T   T   T
  0.5102751549128789  0.2682697245681231  0.5927865554594758   T   T   T
  0.4763929325991840  0.2463437821870575  0.5739668355155803   T   T   T
  0.4705649902014736  0.2115321909486156  0.5886575902930323   T   T   T
 
  0.00000000E+00  0.00000000E+00  0.00000000E+00
  0.00000000E+00  0.00000000E+00  0.00000000E+00
  0.00000000E+00  0.00000000E+00  0.00000000E+00
  0.00000000E+00  0.00000000E+00  0.00000000E+00
  0.00000000E+00  0.00000000E+00  0.00000000E+00
  0.00000000E+00  0.00000000E+00  0.00000000E+00
  0.00000000E+00  0.00000000E+00  0.00000000E+00
  0.00000000E+00  0.00000000E+00  0.00000000E+00
  0.00000000E+00  0.00000000E+00  0.00000000E+00
  0.00000000E+00  0.00000000E+00  0.00000000E+00
  0.00000000E+00  0.00000000E+00  0.00000000E+00
  0.00000000E+00  0.00000000E+00  0.00000000E+00
  0.00000000E+00  0.00000000E+00  0.00000000E+00
  0.00000000E+00  0.00000000E+00  0.00000000E+00
  0.00000000E+00  0.00000000E+00  0.00000000E+00
  0.00000000E+00  0.00000000E+00  0.00000000E+00
  0.00000000E+00  0.00000000E+00  0.00000000E+00
  0.00000000E+00  0.00000000E+00  0.00000000E+00
  0.00000000E+00  0.00000000E+00  0.00000000E+00
  0.00000000E+00  0.00000000E+00  0.00000000E+00
  0.00000000E+00  0.00000000E+00  0.00000000E+00
  0.00000000E+00  0.00000000E+00  0.00000000E+00
  0.00000000E+00  0.00000000E+00  0.00000000E+00
  0.00000000E+00  0.00000000E+00  0.00000000E+00
  0.00000000E+00  0.00000000E+00  0.00000000E+00
  0.00000000E+00  0.00000000E+00  0.00000000E+00
  0.00000000E+00  0.00000000E+00  0.00000000E+00
  0.00000000E+00  0.00000000E+00  0.00000000E+00
  0.00000000E+00  0.00000000E+00  0.00000000E+00
  0.00000000E+00  0.00000000E+00  0.00000000E+00
  0.00000000E+00  0.00000000E+00  0.00000000E+00
  0.00000000E+00  0.00000000E+00  0.00000000E+00
  0.00000000E+00  0.00000000E+00  0.00000000E+00
  0.00000000E+00  0.00000000E+00  0.00000000E+00
  0.00000000E+00  0.00000000E+00  0.00000000E+00
  0.00000000E+00  0.00000000E+00  0.00000000E+00
  0.00000000E+00  0.00000000E+00  0.00000000E+00
  0.00000000E+00  0.00000000E+00  0.00000000E+00
  0.00000000E+00  0.00000000E+00  0.00000000E+00
  0.00000000E+00  0.00000000E+00  0.00000000E+00
  0.00000000E+00  0.00000000E+00  0.00000000E+00
  0.00000000E+00  0.00000000E+00  0.00000000E+00
  0.00000000E+00  0.00000000E+00  0.00000000E+00
  0.00000000E+00  0.00000000E+00  0.00000000E+00
  0.00000000E+00  0.00000000E+00  0.00000000E+00
  0.00000000E+00  0.00000000E+00  0.00000000E+00
  0.00000000E+00  0.00000000E+00  0.00000000E+00
  0.00000000E+00  0.00000000E+00  0.00000000E+00
  0.00000000E+00  0.00000000E+00  0.00000000E+00
  0.00000000E+00  0.00000000E+00  0.00000000E+00
  0.00000000E+00  0.00000000E+00  0.00000000E+00
  0.00000000E+00  0.00000000E+00  0.00000000E+00
  0.00000000E+00  0.00000000E+00  0.00000000E+00
  0.00000000E+00  0.00000000E+00  0.00000000E+00
  0.00000000E+00  0.00000000E+00  0.00000000E+00
  0.00000000E+00  0.00000000E+00  0.00000000E+00
  0.00000000E+00  0.00000000E+00  0.00000000E+00
  0.00000000E+00  0.00000000E+00  0.00000000E+00
  0.00000000E+00  0.00000000E+00  0.00000000E+00
  0.00000000E+00  0.00000000E+00  0.00000000E+00
  0.00000000E+00  0.00000000E+00  0.00000000E+00
  0.00000000E+00  0.00000000E+00  0.00000000E+00
  0.00000000E+00  0.00000000E+00  0.00000000E+00
  0.00000000E+00  0.00000000E+00  0.00000000E+00
  0.00000000E+00  0.00000000E+00  0.00000000E+00
  0.00000000E+00  0.00000000E+00  0.00000000E+00
  0.00000000E+00  0.00000000E+00  0.00000000E+00
  0.00000000E+00  0.00000000E+00  0.00000000E+00
  0.00000000E+00  0.00000000E+00  0.00000000E+00
  0.00000000E+00  0.00000000E+00  0.00000000E+00
  0.00000000E+00  0.00000000E+00  0.00000000E+00
  0.00000000E+00  0.00000000E+00  0.00000000E+00
