Bi La Sn O  C  H                        
   1.00000000000000     
    29.0000000000000000    0.0000000000000000    0.0000000000000000
     0.2488180851000000   28.9989325590000000    0.0000000000000000
    -0.0631677343000000   -0.4515975666000000   28.9964147692999994
   Bi   La   Sn   O    C    H 
    22    23    23     2     1     1
Selective dynamics
Direct
  0.7613921989068609  0.4729194425214781  0.3994509895208800   T   T   T
  0.6478767055357701  0.6834155019056152  0.5518320794246310   T   T   T
  0.3620383642643706  0.4574883558549663  0.4282300155842445   T   T   T
  0.5521563629621166  0.7135548181870853  0.5858389713419678   T   T   T
  0.5915029568994470  0.5209714444905416  0.5841479689498996   F   F   F
  0.6419210719335153  0.6797007778277224  0.4446168660972857   T   T   T
  0.6977304612908735  0.5213562693144700  0.6543541175639369   T   T   T
  0.4885852915048089  0.7045646560446455  0.5030551790325133   T   T   T
  0.5004839460855024  0.5502791173970252  0.5477141156400123   F   F   F
  0.3268118946932250  0.4867318711882445  0.5751167916148313   T   T   T
  0.3821935143891930  0.6082390803316160  0.5387397565209783   T   T   T
  0.6667129484492236  0.4827404655721850  0.5105018184570156   F   F   F
  0.5763997220267569  0.4263140504383500  0.5448328182496311   F   F   F
  0.6680819704361203  0.3737881868268453  0.5079597670185259   T   T   T
  0.4628549587005500  0.3389270108884250  0.4995867381417166   T   T   T
  0.6484934028780529  0.5775373212088155  0.4602701624361103   F   F   F
  0.5574724180674027  0.4367679203287736  0.7497673020480566   T   T   T
  0.6009722410072658  0.3506518990970125  0.6694111351907133   T   T   T
  0.4924061538106466  0.2984653432236647  0.4102970424353140   T   T   T
  0.6611319331524966  0.6172304488267980  0.6663293150073317   T   T   T
  0.4917781184588187  0.4095182803482286  0.3040336059940865   T   T   T
  0.6218789441077159  0.3155556649415587  0.5740015929638768   T   T   T
  0.5388691302331714  0.6850012228628709  0.4038117346238217   T   T   T
  0.3894998034627286  0.4139892350853777  0.5273761113286645   T   T   T
  0.6319288433032915  0.5500395490839221  0.2829618662753774   T   T   T
  0.4713132453670081  0.4729946793898903  0.6921566996049050   T   T   T
  0.5683115009887700  0.5094300495444983  0.4784716241115703   F   F   F
  0.4203210565129183  0.5084107200613417  0.5018573595042781   F   F   F
  0.4540134367682059  0.4009453085741397  0.4055041235046218   T   T   T
  0.5624011213249865  0.3488826007270101  0.3536774662161751   T   T   T
  0.4126846306781977  0.5390079916836183  0.6123915460917616   T   T   T
  0.6006723184159352  0.4396449768516847  0.3059306678824407   T   T   T
  0.4551409661689439  0.5982585329948136  0.3538897320732999   T   T   T
  0.4185020082047088  0.4849742932944833  0.3387201828087977   T   T   T
  0.6608512429667912  0.4283814732192240  0.6046528800577733   T   T   T
  0.6740585417582009  0.5776906567951351  0.5642248021833076   T   T   T
  0.5273894019676291  0.5074954670217670  0.3280164607776095   T   T   T
  0.5655876453175785  0.3569406374404313  0.4691957656681506   T   T   T
  0.3175454838421553  0.5411622327350588  0.4903027077494260   T   T   T
  0.6601416366669535  0.4287164188210622  0.4163701727379716   T   T   T
  0.5660841929594156  0.6261437171197244  0.5094829013827464   F   F   F
  0.5974568103226584  0.5276837200265921  0.6896741811192503   T   T   T
  0.4710834669540102  0.6414559170363278  0.5893935420652573   T   T   T
  0.4619269647911562  0.6068246996677541  0.4655921329818919   T   T   T
  0.7180692890139467  0.5691180498899320  0.3847349391667878   T   T   T
  0.5499310510395361  0.5822218838566187  0.4076968008106903   F   F   F
  0.4794126430662260  0.5072205383607624  0.4190535757241776   F   F   F
  0.6963552304178475  0.4781733962179263  0.3252221533857662   T   T   T
  0.7515170338499979  0.4269164734994519  0.4894405814163343   T   T   T
  0.7500293847256880  0.5353709705674102  0.4851673728006077   T   T   T
  0.7495259539771563  0.4888542613906261  0.5724905067304928   T   T   T
  0.6476926985025314  0.4345781097221545  0.7091278362490155   T   T   T
  0.5812101836003013  0.7426558811846794  0.4941207423597014   T   T   T
  0.6192554540844384  0.5183157687966542  0.3801816896793397   F   F   F
  0.5069863259446322  0.5602373964956512  0.6505659436504132   T   T   T
  0.4922009500451665  0.4366758245867572  0.4933013002826740   F   F   F
  0.5608844484509063  0.4404139570509003  0.6454865549417619   F   F   F
  0.5783064900141711  0.6165233273271704  0.6137694821669221   T   T   T
  0.5499631394286709  0.6165254805271392  0.3136942527603607   T   T   T
  0.6325881566063546  0.6241998132097233  0.3603016811905020   T   T   T
  0.3804489456360555  0.5571544956532043  0.4119031247362935   T   T   T
  0.4723078164089713  0.4557257050327763  0.5877273803360978   F   F   F
  0.7278577876411069  0.6332756971314485  0.4843628351068062   T   T   T
  0.5014990633036561  0.3703439986329787  0.6848447935702338   T   T   T
  0.3815018508796850  0.4397484760851308  0.6406801436289948   T   T   T
  0.5544592502646992  0.4379899399457940  0.4037542370104745   F   F   F
  0.4345267719777074  0.3628695621821699  0.6093883340821910   T   T   T
  0.5281145977949093  0.3494271430831600  0.5791909700043788   T   T   T
  0.4127561498529045  0.6736849298717925  0.4534882404872798   T   T   T
  0.4612647539018903  0.6725979639963384  0.3904194376575653   T   T   T
  0.4179220792033468  0.6625509486021656  0.4096413842305535   T   T   T
  0.3890751704269256  0.6698096937690262  0.3858483094933269   T   T   T
 
  0.00000000E+00  0.00000000E+00  0.00000000E+00
  0.00000000E+00  0.00000000E+00  0.00000000E+00
  0.00000000E+00  0.00000000E+00  0.00000000E+00
  0.00000000E+00  0.00000000E+00  0.00000000E+00
  0.00000000E+00  0.00000000E+00  0.00000000E+00
  0.00000000E+00  0.00000000E+00  0.00000000E+00
  0.00000000E+00  0.00000000E+00  0.00000000E+00
  0.00000000E+00  0.00000000E+00  0.00000000E+00
  0.00000000E+00  0.00000000E+00  0.00000000E+00
  0.00000000E+00  0.00000000E+00  0.00000000E+00
  0.00000000E+00  0.00000000E+00  0.00000000E+00
  0.00000000E+00  0.00000000E+00  0.00000000E+00
  0.00000000E+00  0.00000000E+00  0.00000000E+00
  0.00000000E+00  0.00000000E+00  0.00000000E+00
  0.00000000E+00  0.00000000E+00  0.00000000E+00
  0.00000000E+00  0.00000000E+00  0.00000000E+00
  0.00000000E+00  0.00000000E+00  0.00000000E+00
  0.00000000E+00  0.00000000E+00  0.00000000E+00
  0.00000000E+00  0.00000000E+00  0.00000000E+00
  0.00000000E+00  0.00000000E+00  0.00000000E+00
  0.00000000E+00  0.00000000E+00  0.00000000E+00
  0.00000000E+00  0.00000000E+00  0.00000000E+00
  0.00000000E+00  0.00000000E+00  0.00000000E+00
  0.00000000E+00  0.00000000E+00  0.00000000E+00
  0.00000000E+00  0.00000000E+00  0.00000000E+00
  0.00000000E+00  0.00000000E+00  0.00000000E+00
  0.00000000E+00  0.00000000E+00  0.00000000E+00
  0.00000000E+00  0.00000000E+00  0.00000000E+00
  0.00000000E+00  0.00000000E+00  0.00000000E+00
  0.00000000E+00  0.00000000E+00  0.00000000E+00
  0.00000000E+00  0.00000000E+00  0.00000000E+00
  0.00000000E+00  0.00000000E+00  0.00000000E+00
  0.00000000E+00  0.00000000E+00  0.00000000E+00
  0.00000000E+00  0.00000000E+00  0.00000000E+00
  0.00000000E+00  0.00000000E+00  0.00000000E+00
  0.00000000E+00  0.00000000E+00  0.00000000E+00
  0.00000000E+00  0.00000000E+00  0.00000000E+00
  0.00000000E+00  0.00000000E+00  0.00000000E+00
  0.00000000E+00  0.00000000E+00  0.00000000E+00
  0.00000000E+00  0.00000000E+00  0.00000000E+00
  0.00000000E+00  0.00000000E+00  0.00000000E+00
  0.00000000E+00  0.00000000E+00  0.00000000E+00
  0.00000000E+00  0.00000000E+00  0.00000000E+00
  0.00000000E+00  0.00000000E+00  0.00000000E+00
  0.00000000E+00  0.00000000E+00  0.00000000E+00
  0.00000000E+00  0.00000000E+00  0.00000000E+00
  0.00000000E+00  0.00000000E+00  0.00000000E+00
  0.00000000E+00  0.00000000E+00  0.00000000E+00
  0.00000000E+00  0.00000000E+00  0.00000000E+00
  0.00000000E+00  0.00000000E+00  0.00000000E+00
  0.00000000E+00  0.00000000E+00  0.00000000E+00
  0.00000000E+00  0.00000000E+00  0.00000000E+00
  0.00000000E+00  0.00000000E+00  0.00000000E+00
  0.00000000E+00  0.00000000E+00  0.00000000E+00
  0.00000000E+00  0.00000000E+00  0.00000000E+00
  0.00000000E+00  0.00000000E+00  0.00000000E+00
  0.00000000E+00  0.00000000E+00  0.00000000E+00
  0.00000000E+00  0.00000000E+00  0.00000000E+00
  0.00000000E+00  0.00000000E+00  0.00000000E+00
  0.00000000E+00  0.00000000E+00  0.00000000E+00
  0.00000000E+00  0.00000000E+00  0.00000000E+00
  0.00000000E+00  0.00000000E+00  0.00000000E+00
  0.00000000E+00  0.00000000E+00  0.00000000E+00
  0.00000000E+00  0.00000000E+00  0.00000000E+00
  0.00000000E+00  0.00000000E+00  0.00000000E+00
  0.00000000E+00  0.00000000E+00  0.00000000E+00
  0.00000000E+00  0.00000000E+00  0.00000000E+00
  0.00000000E+00  0.00000000E+00  0.00000000E+00
  0.00000000E+00  0.00000000E+00  0.00000000E+00
  0.00000000E+00  0.00000000E+00  0.00000000E+00
  0.00000000E+00  0.00000000E+00  0.00000000E+00
  0.00000000E+00  0.00000000E+00  0.00000000E+00
