Bi La Sn O  C  H                        
   1.00000000000000     
    29.0000000000000000    0.0000000000000000    0.0000000000000000
     0.2488180851000000   28.9989325590000000    0.0000000000000000
    -0.0631677343000000   -0.4515975666000000   28.9964147692999994
   Bi   La   Sn   O    C    H 
    22    23    23     2     1     1
Selective dynamics
Direct
  0.7608619893546940  0.4754162523964534  0.3996534650898633   T   T   T
  0.6465297387587925  0.6839445383401238  0.5526459853297085   T   T   T
  0.3606085030628303  0.4599557890334219  0.4266592086278024   T   T   T
  0.5510968315066314  0.7133747294442648  0.5853137391690444   T   T   T
  0.5915029568994470  0.5209714444905416  0.5841479689498996   F   F   F
  0.6405978867285639  0.6811030640421264  0.4461317475637177   T   T   T
  0.6960825103953471  0.5224662608646533  0.6539156235707482   T   T   T
  0.4869332148564124  0.7010629511747233  0.5004878350471440   T   T   T
  0.5004839460855024  0.5502791173970252  0.5477141156400123   F   F   F
  0.3247150690819126  0.4873045151418946  0.5733959453968068   T   T   T
  0.3830585820879291  0.6111880769911385  0.5356220601378366   T   T   T
  0.6667129484492236  0.4827404655721850  0.5105018184570156   F   F   F
  0.5763997220267569  0.4263140504383500  0.5448328182496311   F   F   F
  0.6679674515667889  0.3735066248268051  0.5063563229413299   T   T   T
  0.4627194384859574  0.3385875941348986  0.4998268280820965   T   T   T
  0.6484934028780529  0.5775373212088155  0.4602701624361103   F   F   F
  0.5585317699064535  0.4365679765020806  0.7491767416829209   T   T   T
  0.6042723038796919  0.3521653743529171  0.6695107397187212   T   T   T
  0.4917282608656807  0.2988132565251469  0.4099450686213362   T   T   T
  0.6600941533935905  0.6186194654244500  0.6656989580823718   T   T   T
  0.4936702138797368  0.4101216066420498  0.3078126920587843   T   T   T
  0.6214850378748168  0.3162105917541636  0.5732890039995086   T   T   T
  0.5384875603173395  0.6856922402487755  0.4032692963791464   T   T   T
  0.3904212868083155  0.4160928214065878  0.5268046579110934   T   T   T
  0.6311551795058165  0.5519353328445695  0.2834219259440700   T   T   T
  0.4709570096695059  0.4703031970397598  0.6916905367433993   T   T   T
  0.5683115009887700  0.5094300495444983  0.4784716241115703   F   F   F
  0.4203210565129183  0.5084107200613417  0.5018573595042781   F   F   F
  0.4523685457565800  0.4007198850115061  0.4069641322550545   T   T   T
  0.5642074812573141  0.3476629160609017  0.3553239450585596   T   T   T
  0.4107772613190522  0.5403003283522709  0.6096717882527112   T   T   T
  0.6001396983186982  0.4413281493930831  0.3051689861052234   T   T   T
  0.4558561392467557  0.6063129120999708  0.3633611108818018   T   T   T
  0.4200917692786356  0.4880787105830117  0.3381014692599015   T   T   T
  0.6612220658710861  0.4281657335749739  0.6042137011791366   T   T   T
  0.6737996168638485  0.5782769546530466  0.5637610625505766   T   T   T
  0.5265783890511312  0.5101293515377956  0.3277060346727682   T   T   T
  0.5652426660912850  0.3573608699999432  0.4690585156516223   T   T   T
  0.3173048005424201  0.5434580030455312  0.4899645992546146   T   T   T
  0.6601272169356539  0.4291264602424791  0.4156945666387235   T   T   T
  0.5660841929594156  0.6261437171197244  0.5094829013827464   F   F   F
  0.5958706485085706  0.5290372639519184  0.6897647984821776   T   T   T
  0.4706823204227746  0.6416482049236290  0.5891510725246092   T   T   T
  0.4636078925944934  0.6032299812509514  0.4645127963268074   T   T   T
  0.7178644817533211  0.5716615094531154  0.3841558571363277   T   T   T
  0.5499310510395361  0.5822218838566187  0.4076968008106903   F   F   F
  0.4794126430662260  0.5072205383607624  0.4190535757241776   F   F   F
  0.6961850826613655  0.4793912065120230  0.3254094000200207   T   T   T
  0.7512607361756133  0.4276048487906706  0.4891838144793205   T   T   T
  0.7491205743584920  0.5364940512735572  0.4853747282652237   T   T   T
  0.7490925778472947  0.4897527067515160  0.5725136051862978   T   T   T
  0.6486472316423560  0.4381906232637694  0.7086417376497397   T   T   T
  0.5771872825135140  0.7433346714682532  0.4936227574328378   T   T   T
  0.6192554540844384  0.5183157687966542  0.3801816896793397   F   F   F
  0.5047047058853307  0.5590996649953242  0.6504606804242592   T   T   T
  0.4922009500451665  0.4366758245867572  0.4933013002826740   F   F   F
  0.5608844484509063  0.4404139570509003  0.6454865549417619   F   F   F
  0.5769349231664735  0.6160075264394107  0.6136658567905969   T   T   T
  0.5482032855680277  0.6165570171219398  0.3134971595101820   T   T   T
  0.6305081528271759  0.6251749089845622  0.3620578658630724   T   T   T
  0.3796183707175804  0.5571371094363630  0.4110774306041980   T   T   T
  0.4723078164089713  0.4557257050327763  0.5877273803360978   F   F   F
  0.7276861412972241  0.6340410779223797  0.4839943639207644   T   T   T
  0.5040402735405904  0.3680719510352142  0.6847941264096895   T   T   T
  0.3801325979770729  0.4416285884471139  0.6392778836497951   T   T   T
  0.5544592502646992  0.4379899399457940  0.4037542370104745   F   F   F
  0.4343914906382538  0.3644941104722604  0.6108777087329743   T   T   T
  0.5279196914379113  0.3492044705392679  0.5798000325954730   T   T   T
  0.4549198593166467  0.6909813449237217  0.3545258435030518   T   T   T
  0.5040510816859829  0.7506251829724840  0.3586961039419066   T   T   T
  0.4664169280331561  0.7326890959407061  0.3457757278632786   T   T   T
  0.4414884712719577  0.7539360046280981  0.3260507726131527   T   T   T
 
  0.00000000E+00  0.00000000E+00  0.00000000E+00
  0.00000000E+00  0.00000000E+00  0.00000000E+00
  0.00000000E+00  0.00000000E+00  0.00000000E+00
  0.00000000E+00  0.00000000E+00  0.00000000E+00
  0.00000000E+00  0.00000000E+00  0.00000000E+00
  0.00000000E+00  0.00000000E+00  0.00000000E+00
  0.00000000E+00  0.00000000E+00  0.00000000E+00
  0.00000000E+00  0.00000000E+00  0.00000000E+00
  0.00000000E+00  0.00000000E+00  0.00000000E+00
  0.00000000E+00  0.00000000E+00  0.00000000E+00
  0.00000000E+00  0.00000000E+00  0.00000000E+00
  0.00000000E+00  0.00000000E+00  0.00000000E+00
  0.00000000E+00  0.00000000E+00  0.00000000E+00
  0.00000000E+00  0.00000000E+00  0.00000000E+00
  0.00000000E+00  0.00000000E+00  0.00000000E+00
  0.00000000E+00  0.00000000E+00  0.00000000E+00
  0.00000000E+00  0.00000000E+00  0.00000000E+00
  0.00000000E+00  0.00000000E+00  0.00000000E+00
  0.00000000E+00  0.00000000E+00  0.00000000E+00
  0.00000000E+00  0.00000000E+00  0.00000000E+00
  0.00000000E+00  0.00000000E+00  0.00000000E+00
  0.00000000E+00  0.00000000E+00  0.00000000E+00
  0.00000000E+00  0.00000000E+00  0.00000000E+00
  0.00000000E+00  0.00000000E+00  0.00000000E+00
  0.00000000E+00  0.00000000E+00  0.00000000E+00
  0.00000000E+00  0.00000000E+00  0.00000000E+00
  0.00000000E+00  0.00000000E+00  0.00000000E+00
  0.00000000E+00  0.00000000E+00  0.00000000E+00
  0.00000000E+00  0.00000000E+00  0.00000000E+00
  0.00000000E+00  0.00000000E+00  0.00000000E+00
  0.00000000E+00  0.00000000E+00  0.00000000E+00
  0.00000000E+00  0.00000000E+00  0.00000000E+00
  0.00000000E+00  0.00000000E+00  0.00000000E+00
  0.00000000E+00  0.00000000E+00  0.00000000E+00
  0.00000000E+00  0.00000000E+00  0.00000000E+00
  0.00000000E+00  0.00000000E+00  0.00000000E+00
  0.00000000E+00  0.00000000E+00  0.00000000E+00
  0.00000000E+00  0.00000000E+00  0.00000000E+00
  0.00000000E+00  0.00000000E+00  0.00000000E+00
  0.00000000E+00  0.00000000E+00  0.00000000E+00
  0.00000000E+00  0.00000000E+00  0.00000000E+00
  0.00000000E+00  0.00000000E+00  0.00000000E+00
  0.00000000E+00  0.00000000E+00  0.00000000E+00
  0.00000000E+00  0.00000000E+00  0.00000000E+00
  0.00000000E+00  0.00000000E+00  0.00000000E+00
  0.00000000E+00  0.00000000E+00  0.00000000E+00
  0.00000000E+00  0.00000000E+00  0.00000000E+00
  0.00000000E+00  0.00000000E+00  0.00000000E+00
  0.00000000E+00  0.00000000E+00  0.00000000E+00
  0.00000000E+00  0.00000000E+00  0.00000000E+00
  0.00000000E+00  0.00000000E+00  0.00000000E+00
  0.00000000E+00  0.00000000E+00  0.00000000E+00
  0.00000000E+00  0.00000000E+00  0.00000000E+00
  0.00000000E+00  0.00000000E+00  0.00000000E+00
  0.00000000E+00  0.00000000E+00  0.00000000E+00
  0.00000000E+00  0.00000000E+00  0.00000000E+00
  0.00000000E+00  0.00000000E+00  0.00000000E+00
  0.00000000E+00  0.00000000E+00  0.00000000E+00
  0.00000000E+00  0.00000000E+00  0.00000000E+00
  0.00000000E+00  0.00000000E+00  0.00000000E+00
  0.00000000E+00  0.00000000E+00  0.00000000E+00
  0.00000000E+00  0.00000000E+00  0.00000000E+00
  0.00000000E+00  0.00000000E+00  0.00000000E+00
  0.00000000E+00  0.00000000E+00  0.00000000E+00
  0.00000000E+00  0.00000000E+00  0.00000000E+00
  0.00000000E+00  0.00000000E+00  0.00000000E+00
  0.00000000E+00  0.00000000E+00  0.00000000E+00
  0.00000000E+00  0.00000000E+00  0.00000000E+00
  0.00000000E+00  0.00000000E+00  0.00000000E+00
  0.00000000E+00  0.00000000E+00  0.00000000E+00
  0.00000000E+00  0.00000000E+00  0.00000000E+00
  0.00000000E+00  0.00000000E+00  0.00000000E+00
