Bi La Sn O  C  H                        
   1.00000000000000     
    29.0000000000000000    0.0000000000000000    0.0000000000000000
     0.2488180851000000   28.9989325590000000    0.0000000000000000
    -0.0631677343000000   -0.4515975666000000   28.9964147692999994
   Bi   La   Sn   O    C    H 
    22    23    23     2     1     1
Selective dynamics
Direct
  0.7601052331148560  0.4778423825367667  0.3994353188641330   T   T   T
  0.6477818744134777  0.6848713061945946  0.5510539663044162   T   T   T
  0.3600194946301435  0.4581438410526197  0.4276133842069327   T   T   T
  0.5510767099198177  0.7129729652508124  0.5842926797448885   T   T   T
  0.5915029568994470  0.5209714444905416  0.5841479689498996   F   F   F
  0.6403514002490911  0.6802916417695761  0.4453409668377503   T   T   T
  0.6922976581595899  0.5206149093107562  0.6517919612675377   T   T   T
  0.4871081956559524  0.7016636384598577  0.4986257634957161   T   T   T
  0.5004839460855024  0.5502791173970252  0.5477141156400123   F   F   F
  0.3267246002881735  0.4852619418760295  0.5764411610010637   T   T   T
  0.3820033816122343  0.6090708355571621  0.5365021658485619   T   T   T
  0.6667129484492236  0.4827404655721850  0.5105018184570156   F   F   F
  0.5763997220267569  0.4263140504383500  0.5448328182496311   F   F   F
  0.6684110283863369  0.3732593002526340  0.5062347193395617   T   T   T
  0.4617301457757482  0.3377358234323530  0.4964948396133230   T   T   T
  0.6484934028780529  0.5775373212088155  0.4602701624361103   F   F   F
  0.5560844106124244  0.4357804263810043  0.7498034519301793   T   T   T
  0.5964371118133042  0.3498836001628299  0.6683792003336940   T   T   T
  0.4926266409218776  0.2997681075890348  0.4067642216479360   T   T   T
  0.6627537959300258  0.6173474444623956  0.6679138006965548   T   T   T
  0.4928229532847643  0.4095454765140400  0.3057379844424797   T   T   T
  0.6218923230677279  0.3159696403146317  0.5734822168962223   T   T   T
  0.5398669349123202  0.6836259233346071  0.4043402370804036   T   T   T
  0.3900837351358275  0.4150387659293872  0.5257332832395551   T   T   T
  0.6291338524968980  0.5516867678010343  0.2826991982368484   T   T   T
  0.4724883946916867  0.4780989232096050  0.6922695146771513   T   T   T
  0.5683115009887700  0.5094300495444983  0.4784716241115703   F   F   F
  0.4203210565129183  0.5084107200613417  0.5018573595042781   F   F   F
  0.4526576050408055  0.4013096914488836  0.4053897680709310   T   T   T
  0.5649649745374169  0.3489738590505673  0.3536005691012126   T   T   T
  0.4122192859564717  0.5395427269165491  0.6113149683237444   T   T   T
  0.6000671639795990  0.4412830930118241  0.3051860850580106   T   T   T
  0.4550985190839611  0.5999763743949340  0.3629862640813061   T   T   T
  0.4192344879126858  0.4868280204189873  0.3394569386311105   T   T   T
  0.6612576241294583  0.4255455421024661  0.6041917311021986   T   T   T
  0.6736373571767165  0.5791641878917551  0.5633571058639979   T   T   T
  0.5259930348866479  0.5091870783386472  0.3277752680157744   T   T   T
  0.5651985512699653  0.3566883432734315  0.4692835190164675   T   T   T
  0.3159194644367818  0.5402057746299856  0.4921850168939704   T   T   T
  0.6598530148806249  0.4294849055934392  0.4155247887847314   T   T   T
  0.5660841929594156  0.6261437171197244  0.5094829013827464   F   F   F
  0.5944569572611194  0.5287519424123267  0.6904637879314985   T   T   T
  0.4700807589621323  0.6424294012580747  0.5872190731654741   T   T   T
  0.4622263210376773  0.6035673285448782  0.4639637090662714   T   T   T
  0.7166454900652022  0.5734999001818822  0.3835777822435740   T   T   T
  0.5499310510395361  0.5822218838566187  0.4076968008106903   F   F   F
  0.4794126430662260  0.5072205383607624  0.4190535757241776   F   F   F
  0.6955693810749478  0.4802729039872415  0.3249061659585560   T   T   T
  0.7513068288420351  0.4283045204489785  0.4875570304125672   T   T   T
  0.7484398578187859  0.5380996345192308  0.4851733689950614   T   T   T
  0.7490249818200869  0.4894605017944225  0.5714403113068980   T   T   T
  0.6454090093000552  0.4348439708758682  0.7077923308105319   T   T   T
  0.5778021551139644  0.7435211089249733  0.4934643637044751   T   T   T
  0.6192554540844384  0.5183157687966542  0.3801816896793397   F   F   F
  0.5059536800043376  0.5646683807973868  0.6502502637344448   T   T   T
  0.4922009500451665  0.4366758245867572  0.4933013002826740   F   F   F
  0.5608844484509063  0.4404139570509003  0.6454865549417619   F   F   F
  0.5792286171702131  0.6169069509614974  0.6135590848848845   T   T   T
  0.5449551172028718  0.6168869522019703  0.3125354262582689   T   T   T
  0.6279439073964846  0.6248440605701350  0.3605692055414488   T   T   T
  0.3770102413855693  0.5564675743929117  0.4125986401202961   T   T   T
  0.4723078164089713  0.4557257050327763  0.5877273803360978   F   F   F
  0.7276251130021045  0.6354404215429734  0.4841423373891504   T   T   T
  0.4967110373530535  0.3745834644406167  0.6806382996382151   T   T   T
  0.3850857992634121  0.4383868305952928  0.6400283002546195   T   T   T
  0.5544592502646992  0.4379899399457940  0.4037542370104745   F   F   F
  0.4331497450797511  0.3591596125892831  0.6043906212140960   T   T   T
  0.5274618551114060  0.3483787885791614  0.5765315463855989   T   T   T
  0.7445910563968224  0.5330880419408308  0.7229644023958379   T   T   T
  0.7440079730819735  0.6112415396507700  0.7118575217782512   T   T   T
  0.7575786733766690  0.5745955020379112  0.7307867400879067   T   T   T
  0.7848191480368606  0.5783837474633214  0.7580719449243558   T   T   T
 
  0.00000000E+00  0.00000000E+00  0.00000000E+00
  0.00000000E+00  0.00000000E+00  0.00000000E+00
  0.00000000E+00  0.00000000E+00  0.00000000E+00
  0.00000000E+00  0.00000000E+00  0.00000000E+00
  0.00000000E+00  0.00000000E+00  0.00000000E+00
  0.00000000E+00  0.00000000E+00  0.00000000E+00
  0.00000000E+00  0.00000000E+00  0.00000000E+00
  0.00000000E+00  0.00000000E+00  0.00000000E+00
  0.00000000E+00  0.00000000E+00  0.00000000E+00
  0.00000000E+00  0.00000000E+00  0.00000000E+00
  0.00000000E+00  0.00000000E+00  0.00000000E+00
  0.00000000E+00  0.00000000E+00  0.00000000E+00
  0.00000000E+00  0.00000000E+00  0.00000000E+00
  0.00000000E+00  0.00000000E+00  0.00000000E+00
  0.00000000E+00  0.00000000E+00  0.00000000E+00
  0.00000000E+00  0.00000000E+00  0.00000000E+00
  0.00000000E+00  0.00000000E+00  0.00000000E+00
  0.00000000E+00  0.00000000E+00  0.00000000E+00
  0.00000000E+00  0.00000000E+00  0.00000000E+00
  0.00000000E+00  0.00000000E+00  0.00000000E+00
  0.00000000E+00  0.00000000E+00  0.00000000E+00
  0.00000000E+00  0.00000000E+00  0.00000000E+00
  0.00000000E+00  0.00000000E+00  0.00000000E+00
  0.00000000E+00  0.00000000E+00  0.00000000E+00
  0.00000000E+00  0.00000000E+00  0.00000000E+00
  0.00000000E+00  0.00000000E+00  0.00000000E+00
  0.00000000E+00  0.00000000E+00  0.00000000E+00
  0.00000000E+00  0.00000000E+00  0.00000000E+00
  0.00000000E+00  0.00000000E+00  0.00000000E+00
  0.00000000E+00  0.00000000E+00  0.00000000E+00
  0.00000000E+00  0.00000000E+00  0.00000000E+00
  0.00000000E+00  0.00000000E+00  0.00000000E+00
  0.00000000E+00  0.00000000E+00  0.00000000E+00
  0.00000000E+00  0.00000000E+00  0.00000000E+00
  0.00000000E+00  0.00000000E+00  0.00000000E+00
  0.00000000E+00  0.00000000E+00  0.00000000E+00
  0.00000000E+00  0.00000000E+00  0.00000000E+00
  0.00000000E+00  0.00000000E+00  0.00000000E+00
  0.00000000E+00  0.00000000E+00  0.00000000E+00
  0.00000000E+00  0.00000000E+00  0.00000000E+00
  0.00000000E+00  0.00000000E+00  0.00000000E+00
  0.00000000E+00  0.00000000E+00  0.00000000E+00
  0.00000000E+00  0.00000000E+00  0.00000000E+00
  0.00000000E+00  0.00000000E+00  0.00000000E+00
  0.00000000E+00  0.00000000E+00  0.00000000E+00
  0.00000000E+00  0.00000000E+00  0.00000000E+00
  0.00000000E+00  0.00000000E+00  0.00000000E+00
  0.00000000E+00  0.00000000E+00  0.00000000E+00
  0.00000000E+00  0.00000000E+00  0.00000000E+00
  0.00000000E+00  0.00000000E+00  0.00000000E+00
  0.00000000E+00  0.00000000E+00  0.00000000E+00
  0.00000000E+00  0.00000000E+00  0.00000000E+00
  0.00000000E+00  0.00000000E+00  0.00000000E+00
  0.00000000E+00  0.00000000E+00  0.00000000E+00
  0.00000000E+00  0.00000000E+00  0.00000000E+00
  0.00000000E+00  0.00000000E+00  0.00000000E+00
  0.00000000E+00  0.00000000E+00  0.00000000E+00
  0.00000000E+00  0.00000000E+00  0.00000000E+00
  0.00000000E+00  0.00000000E+00  0.00000000E+00
  0.00000000E+00  0.00000000E+00  0.00000000E+00
  0.00000000E+00  0.00000000E+00  0.00000000E+00
  0.00000000E+00  0.00000000E+00  0.00000000E+00
  0.00000000E+00  0.00000000E+00  0.00000000E+00
  0.00000000E+00  0.00000000E+00  0.00000000E+00
  0.00000000E+00  0.00000000E+00  0.00000000E+00
  0.00000000E+00  0.00000000E+00  0.00000000E+00
  0.00000000E+00  0.00000000E+00  0.00000000E+00
  0.00000000E+00  0.00000000E+00  0.00000000E+00
  0.00000000E+00  0.00000000E+00  0.00000000E+00
  0.00000000E+00  0.00000000E+00  0.00000000E+00
  0.00000000E+00  0.00000000E+00  0.00000000E+00
  0.00000000E+00  0.00000000E+00  0.00000000E+00
