Bi La Sn O  C  H                        
   1.00000000000000     
    29.0000000000000000    0.0000000000000000    0.0000000000000000
     0.2488180851000000   28.9989325590000000    0.0000000000000000
    -0.0631677343000000   -0.4515975666000000   28.9964147692999994
   Bi   La   Sn   O    C    H 
    22    23    23     2     1     1
Selective dynamics
Direct
  0.7578757934354567  0.4806164052001399  0.3996259996338719   T   T   T
  0.6467815943514869  0.6853278614122255  0.5509380839341153   T   T   T
  0.3609847346847653  0.4579261733478469  0.4280588177916995   T   T   T
  0.5496384146884888  0.7134273953612144  0.5844056850747361   T   T   T
  0.5915029568994470  0.5209714444905416  0.5841479689498996   F   F   F
  0.6395092311815838  0.6799395124249678  0.4448899879069815   T   T   T
  0.6958100416425449  0.5227358964174157  0.6550049947723556   T   T   T
  0.4867489029643825  0.7017891280325662  0.4991378388209999   T   T   T
  0.5004839460855024  0.5502791173970252  0.5477141156400123   F   F   F
  0.3277393696549334  0.4832261372314689  0.5785952857406915   T   T   T
  0.3811051836360810  0.6078748493205518  0.5368473833811721   T   T   T
  0.6667129484492236  0.4827404655721850  0.5105018184570156   F   F   F
  0.5763997220267569  0.4263140504383500  0.5448328182496311   F   F   F
  0.6698484659147880  0.3769813139583248  0.5110657494717120   T   T   T
  0.4638195745781672  0.3385618599936926  0.4955638664492208   T   T   T
  0.6484934028780529  0.5775373212088155  0.4602701624361103   F   F   F
  0.5553198563401445  0.4366922094806492  0.7501754815743479   T   T   T
  0.5939097825377367  0.3504859957136381  0.6704496927309167   T   T   T
  0.4935520456136574  0.3001218977717434  0.4060988787792779   T   T   T
  0.6594908827119080  0.6179978596957616  0.6678743234942887   T   T   T
  0.4896809443971290  0.4139672688430496  0.3029265432547778   T   T   T
  0.6231455944189022  0.3181170796831802  0.5760558606970699   T   T   T
  0.5387277185098306  0.6838938659960878  0.4046260491912740   T   T   T
  0.3903872106798864  0.4144154990307040  0.5257448739764286   T   T   T
  0.6269897923556129  0.5539710533138815  0.2819583698698774   T   T   T
  0.4730856259756027  0.4796454572559538  0.6929640800898005   T   T   T
  0.5683115009887700  0.5094300495444983  0.4784716241115703   F   F   F
  0.4203210565129183  0.5084107200613417  0.5018573595042781   F   F   F
  0.4531336575409398  0.4018855141783848  0.4040181708277645   T   T   T
  0.5617308389146842  0.3504424295821150  0.3488469870142458   T   T   T
  0.4125192993734821  0.5386875741350807  0.6117752436329513   T   T   T
  0.5972940999607860  0.4451877150075562  0.3040416631777867   T   T   T
  0.4538798682655179  0.6011099620240598  0.3644883851996943   T   T   T
  0.4172515933624655  0.4898414994802771  0.3400722869341236   T   T   T
  0.6606968044458583  0.4288594579460419  0.6069238945208818   T   T   T
  0.6734177459819812  0.5789609615509045  0.5646323137481356   T   T   T
  0.5252727466508104  0.5111461565300517  0.3282104648419655   T   T   T
  0.5680323747678466  0.3567613344891626  0.4679706020863361   T   T   T
  0.3151788837651522  0.5376021064268235  0.4939217580198543   T   T   T
  0.6608554980966775  0.4262111073493294  0.4143173266526649   T   T   T
  0.5660841929594156  0.6261437171197244  0.5094829013827464   F   F   F
  0.5954938141287114  0.5278283550719551  0.6898557693426246   T   T   T
  0.4690522646312165  0.6422146759915742  0.5870252689880884   T   T   T
  0.4628970392427689  0.6035792489552237  0.4646906624383109   T   T   T
  0.7162882309213122  0.5763124393620589  0.3835707745823822   T   T   T
  0.5499310510395361  0.5822218838566187  0.4076968008106903   F   F   F
  0.4794126430662260  0.5072205383607624  0.4190535757241776   F   F   F
  0.6942790295596475  0.4830141217232999  0.3241618736449425   T   T   T
  0.7527030871255878  0.4310095118395347  0.4872532421505532   T   T   T
  0.7484459398238055  0.5402263056928002  0.4864193038893892   T   T   T
  0.7483239354261082  0.4906570408802356  0.5726828618257833   T   T   T
  0.6449856222824135  0.4336565641075780  0.7105939084952100   T   T   T
  0.5775082789040576  0.7436556637987560  0.4933197300035801   T   T   T
  0.6192554540844384  0.5183157687966542  0.3801816896793397   F   F   F
  0.5067838320141830  0.5647442645375451  0.6498051467241646   T   T   T
  0.4922009500451665  0.4366758245867572  0.4933013002826740   F   F   F
  0.5608844484509063  0.4404139570509003  0.6454865549417619   F   F   F
  0.5785642044532888  0.6174994808133326  0.6127802974778800   T   T   T
  0.5431679285694107  0.6188699398762315  0.3124583787457837   T   T   T
  0.6265037506420896  0.6255736379502272  0.3601382503256286   T   T   T
  0.3754584884537347  0.5582800283530462  0.4150769997006701   T   T   T
  0.4723078164089713  0.4557257050327763  0.5877273803360978   F   F   F
  0.7264881581406902  0.6370188361899294  0.4855274401854702   T   T   T
  0.4933286560208064  0.3764831168384761  0.6788855720779231   T   T   T
  0.3875110764890244  0.4358356962755111  0.6412365799717804   T   T   T
  0.5544592502646992  0.4379899399457940  0.4037542370104745   F   F   F
  0.4323279709169204  0.3562097895929310  0.6020925063588071   T   T   T
  0.5277657806658326  0.3486145069201243  0.5768305736926276   T   T   T
  0.6281139818312595  0.3382077095906208  0.4030879101654991   T   T   T
  0.7042144311967825  0.3493106691035520  0.3936144748122963   T   T   T
  0.6700625166299924  0.3236112436401684  0.3934648427852205   T   T   T
  0.6736567315076004  0.2864225734604858  0.3846443679994710   T   T   T
 
  0.00000000E+00  0.00000000E+00  0.00000000E+00
  0.00000000E+00  0.00000000E+00  0.00000000E+00
  0.00000000E+00  0.00000000E+00  0.00000000E+00
  0.00000000E+00  0.00000000E+00  0.00000000E+00
  0.00000000E+00  0.00000000E+00  0.00000000E+00
  0.00000000E+00  0.00000000E+00  0.00000000E+00
  0.00000000E+00  0.00000000E+00  0.00000000E+00
  0.00000000E+00  0.00000000E+00  0.00000000E+00
  0.00000000E+00  0.00000000E+00  0.00000000E+00
  0.00000000E+00  0.00000000E+00  0.00000000E+00
  0.00000000E+00  0.00000000E+00  0.00000000E+00
  0.00000000E+00  0.00000000E+00  0.00000000E+00
  0.00000000E+00  0.00000000E+00  0.00000000E+00
  0.00000000E+00  0.00000000E+00  0.00000000E+00
  0.00000000E+00  0.00000000E+00  0.00000000E+00
  0.00000000E+00  0.00000000E+00  0.00000000E+00
  0.00000000E+00  0.00000000E+00  0.00000000E+00
  0.00000000E+00  0.00000000E+00  0.00000000E+00
  0.00000000E+00  0.00000000E+00  0.00000000E+00
  0.00000000E+00  0.00000000E+00  0.00000000E+00
  0.00000000E+00  0.00000000E+00  0.00000000E+00
  0.00000000E+00  0.00000000E+00  0.00000000E+00
  0.00000000E+00  0.00000000E+00  0.00000000E+00
  0.00000000E+00  0.00000000E+00  0.00000000E+00
  0.00000000E+00  0.00000000E+00  0.00000000E+00
  0.00000000E+00  0.00000000E+00  0.00000000E+00
  0.00000000E+00  0.00000000E+00  0.00000000E+00
  0.00000000E+00  0.00000000E+00  0.00000000E+00
  0.00000000E+00  0.00000000E+00  0.00000000E+00
  0.00000000E+00  0.00000000E+00  0.00000000E+00
  0.00000000E+00  0.00000000E+00  0.00000000E+00
  0.00000000E+00  0.00000000E+00  0.00000000E+00
  0.00000000E+00  0.00000000E+00  0.00000000E+00
  0.00000000E+00  0.00000000E+00  0.00000000E+00
  0.00000000E+00  0.00000000E+00  0.00000000E+00
  0.00000000E+00  0.00000000E+00  0.00000000E+00
  0.00000000E+00  0.00000000E+00  0.00000000E+00
  0.00000000E+00  0.00000000E+00  0.00000000E+00
  0.00000000E+00  0.00000000E+00  0.00000000E+00
  0.00000000E+00  0.00000000E+00  0.00000000E+00
  0.00000000E+00  0.00000000E+00  0.00000000E+00
  0.00000000E+00  0.00000000E+00  0.00000000E+00
  0.00000000E+00  0.00000000E+00  0.00000000E+00
  0.00000000E+00  0.00000000E+00  0.00000000E+00
  0.00000000E+00  0.00000000E+00  0.00000000E+00
  0.00000000E+00  0.00000000E+00  0.00000000E+00
  0.00000000E+00  0.00000000E+00  0.00000000E+00
  0.00000000E+00  0.00000000E+00  0.00000000E+00
  0.00000000E+00  0.00000000E+00  0.00000000E+00
  0.00000000E+00  0.00000000E+00  0.00000000E+00
  0.00000000E+00  0.00000000E+00  0.00000000E+00
  0.00000000E+00  0.00000000E+00  0.00000000E+00
  0.00000000E+00  0.00000000E+00  0.00000000E+00
  0.00000000E+00  0.00000000E+00  0.00000000E+00
  0.00000000E+00  0.00000000E+00  0.00000000E+00
  0.00000000E+00  0.00000000E+00  0.00000000E+00
  0.00000000E+00  0.00000000E+00  0.00000000E+00
  0.00000000E+00  0.00000000E+00  0.00000000E+00
  0.00000000E+00  0.00000000E+00  0.00000000E+00
  0.00000000E+00  0.00000000E+00  0.00000000E+00
  0.00000000E+00  0.00000000E+00  0.00000000E+00
  0.00000000E+00  0.00000000E+00  0.00000000E+00
  0.00000000E+00  0.00000000E+00  0.00000000E+00
  0.00000000E+00  0.00000000E+00  0.00000000E+00
  0.00000000E+00  0.00000000E+00  0.00000000E+00
  0.00000000E+00  0.00000000E+00  0.00000000E+00
  0.00000000E+00  0.00000000E+00  0.00000000E+00
  0.00000000E+00  0.00000000E+00  0.00000000E+00
  0.00000000E+00  0.00000000E+00  0.00000000E+00
  0.00000000E+00  0.00000000E+00  0.00000000E+00
  0.00000000E+00  0.00000000E+00  0.00000000E+00
  0.00000000E+00  0.00000000E+00  0.00000000E+00
