Bi La Sn O  C  H                        
   1.00000000000000     
    29.0000000000000000    0.0000000000000000    0.0000000000000000
     0.2488180851000000   28.9989325590000000    0.0000000000000000
    -0.0631677343000000   -0.4515975666000000   28.9964147692999994
   Bi   La   Sn   O    C    H 
    22    23    23     2     1     1
Selective dynamics
Direct
  0.7612856495887618  0.4753967176849823  0.3988709990465620   T   T   T
  0.6481184911245773  0.6816443333089354  0.5535618984771932   T   T   T
  0.3596965838108963  0.4586403761801852  0.4281393512943525   T   T   T
  0.5515127030499746  0.7127398548041906  0.5841734856317944   T   T   T
  0.5915029568994470  0.5209714444905416  0.5841479689498996   F   F   F
  0.6418616877354879  0.6804745347291331  0.4473648418375969   T   T   T
  0.6959049034302723  0.5233783775948563  0.6562528781146756   T   T   T
  0.4873162620535632  0.7018213707240214  0.4984995873129747   T   T   T
  0.5004839460855024  0.5502791173970252  0.5477141156400123   F   F   F
  0.3247911256925102  0.4857675308727197  0.5743575931916176   T   T   T
  0.3815534772663976  0.6103481621651787  0.5346936367857782   T   T   T
  0.6667129484492236  0.4827404655721850  0.5105018184570156   F   F   F
  0.5763997220267569  0.4263140504383500  0.5448328182496311   F   F   F
  0.6681836885324224  0.3737865283647362  0.5083499539996128   T   T   T
  0.4634839024112753  0.3388197110998156  0.4998857479096154   T   T   T
  0.6484934028780529  0.5775373212088155  0.4602701624361103   F   F   F
  0.5603848175109689  0.4374528042333528  0.7497514022153082   T   T   T
  0.6043952356566239  0.3526644149124596  0.6693153524109685   T   T   T
  0.4921703616848614  0.2989473283192950  0.4100494495672434   T   T   T
  0.6598245206820282  0.6194419063169694  0.6657753012195785   T   T   T
  0.4916690434602051  0.4101869597530270  0.3063813366993612   T   T   T
  0.6215289127683951  0.3154047288957192  0.5738007985171482   T   T   T
  0.5413592863568867  0.6837483506392874  0.4044050444796503   T   T   T
  0.3902512127129320  0.4153415456808103  0.5272188781806008   T   T   T
  0.6300999385026376  0.5517390121432989  0.2825426956281453   T   T   T
  0.4721140658630026  0.4713659149916073  0.6920921550936919   T   T   T
  0.5683115009887700  0.5094300495444983  0.4784716241115703   F   F   F
  0.4203210565129183  0.5084107200613417  0.5018573595042781   F   F   F
  0.4521886744955788  0.4007894099810616  0.4066189749248017   T   T   T
  0.5628928088182316  0.3486561496409256  0.3538822219120635   T   T   T
  0.4104450703700835  0.5401323928441748  0.6091405427515106   T   T   T
  0.5989195607664519  0.4419510345816103  0.3048532864652425   T   T   T
  0.4555113143600473  0.6004990790738693  0.3628674052731227   T   T   T
  0.4183869445216823  0.4870118618349341  0.3399151455478645   T   T   T
  0.6623305087290988  0.4297532740309311  0.6041124881238858   T   T   T
  0.6754079579668327  0.5760324994058107  0.5645783055404195   T   T   T
  0.5265063643840545  0.5094063058078043  0.3278922868300629   T   T   T
  0.5658091553874268  0.3572629602944096  0.4688392501474212   T   T   T
  0.3151017567158237  0.5413878232067969  0.4910018897027950   T   T   T
  0.6607297053651345  0.4293973269076947  0.4168761550149496   T   T   T
  0.5660841929594156  0.6261437171197244  0.5094829013827464   F   F   F
  0.5947127550187570  0.5300580335279451  0.6895204179267571   T   T   T
  0.4697527607779576  0.6420249260606454  0.5872136340332711   T   T   T
  0.4633116658924931  0.6036842026709777  0.4639779195353775   T   T   T
  0.7177737936197867  0.5714172249221809  0.3845081240712559   T   T   T
  0.5499310510395361  0.5822218838566187  0.4076968008106903   F   F   F
  0.4794126430662260  0.5072205383607624  0.4190535757241776   F   F   F
  0.6953897400412933  0.4796000535457509  0.3254728385088697   T   T   T
  0.7519807032255158  0.4290271668465262  0.4907575033112232   T   T   T
  0.7492221812382170  0.5349720901254726  0.4854790877765331   T   T   T
  0.7528465616975468  0.4872284468657093  0.5722810371894900   T   T   T
  0.6492858559352991  0.4392700398070944  0.7074694635932723   T   T   T
  0.5781114408415435  0.7432817023560190  0.4935970780743290   T   T   T
  0.6192554540844384  0.5183157687966542  0.3801816896793397   F   F   F
  0.5035713843581813  0.5607029298569868  0.6503701826606417   T   T   T
  0.4922009500451665  0.4366758245867572  0.4933013002826740   F   F   F
  0.5608844484509063  0.4404139570509003  0.6454865549417619   F   F   F
  0.5768424994005973  0.6154857428115820  0.6133940682038609   T   T   T
  0.5461378600794712  0.6165733774823172  0.3129380390880551   T   T   T
  0.6291559433800268  0.6240063056257306  0.3619369425096584   T   T   T
  0.3777023655321081  0.5572209739985947  0.4128611181829294   T   T   T
  0.4723078164089713  0.4557257050327763  0.5877273803360978   F   F   F
  0.7287065332081527  0.6324962903447772  0.4849165866867933   T   T   T
  0.5041440737567152  0.3689225434569990  0.6842724190745813   T   T   T
  0.3815426254660460  0.4414346004638979  0.6401036690786007   T   T   T
  0.5544592502646992  0.4379899399457940  0.4037542370104745   F   F   F
  0.4343067868619485  0.3636796239115139  0.6106973674901417   T   T   T
  0.5282577057077236  0.3492960174178292  0.5797599081708502   T   T   T
  0.8350015333980476  0.4180567321620543  0.5185657210550284   T   T   T
  0.8308322698513594  0.4723104811567749  0.5773284734731572   T   T   T
  0.8510667200725555  0.4415905747734845  0.5517440635969848   T   T   T
  0.8880793896660755  0.4356162826525025  0.5607345860771336   T   T   T
 
  0.00000000E+00  0.00000000E+00  0.00000000E+00
  0.00000000E+00  0.00000000E+00  0.00000000E+00
  0.00000000E+00  0.00000000E+00  0.00000000E+00
  0.00000000E+00  0.00000000E+00  0.00000000E+00
  0.00000000E+00  0.00000000E+00  0.00000000E+00
  0.00000000E+00  0.00000000E+00  0.00000000E+00
  0.00000000E+00  0.00000000E+00  0.00000000E+00
  0.00000000E+00  0.00000000E+00  0.00000000E+00
  0.00000000E+00  0.00000000E+00  0.00000000E+00
  0.00000000E+00  0.00000000E+00  0.00000000E+00
  0.00000000E+00  0.00000000E+00  0.00000000E+00
  0.00000000E+00  0.00000000E+00  0.00000000E+00
  0.00000000E+00  0.00000000E+00  0.00000000E+00
  0.00000000E+00  0.00000000E+00  0.00000000E+00
  0.00000000E+00  0.00000000E+00  0.00000000E+00
  0.00000000E+00  0.00000000E+00  0.00000000E+00
  0.00000000E+00  0.00000000E+00  0.00000000E+00
  0.00000000E+00  0.00000000E+00  0.00000000E+00
  0.00000000E+00  0.00000000E+00  0.00000000E+00
  0.00000000E+00  0.00000000E+00  0.00000000E+00
  0.00000000E+00  0.00000000E+00  0.00000000E+00
  0.00000000E+00  0.00000000E+00  0.00000000E+00
  0.00000000E+00  0.00000000E+00  0.00000000E+00
  0.00000000E+00  0.00000000E+00  0.00000000E+00
  0.00000000E+00  0.00000000E+00  0.00000000E+00
  0.00000000E+00  0.00000000E+00  0.00000000E+00
  0.00000000E+00  0.00000000E+00  0.00000000E+00
  0.00000000E+00  0.00000000E+00  0.00000000E+00
  0.00000000E+00  0.00000000E+00  0.00000000E+00
  0.00000000E+00  0.00000000E+00  0.00000000E+00
  0.00000000E+00  0.00000000E+00  0.00000000E+00
  0.00000000E+00  0.00000000E+00  0.00000000E+00
  0.00000000E+00  0.00000000E+00  0.00000000E+00
  0.00000000E+00  0.00000000E+00  0.00000000E+00
  0.00000000E+00  0.00000000E+00  0.00000000E+00
  0.00000000E+00  0.00000000E+00  0.00000000E+00
  0.00000000E+00  0.00000000E+00  0.00000000E+00
  0.00000000E+00  0.00000000E+00  0.00000000E+00
  0.00000000E+00  0.00000000E+00  0.00000000E+00
  0.00000000E+00  0.00000000E+00  0.00000000E+00
  0.00000000E+00  0.00000000E+00  0.00000000E+00
  0.00000000E+00  0.00000000E+00  0.00000000E+00
  0.00000000E+00  0.00000000E+00  0.00000000E+00
  0.00000000E+00  0.00000000E+00  0.00000000E+00
  0.00000000E+00  0.00000000E+00  0.00000000E+00
  0.00000000E+00  0.00000000E+00  0.00000000E+00
  0.00000000E+00  0.00000000E+00  0.00000000E+00
  0.00000000E+00  0.00000000E+00  0.00000000E+00
  0.00000000E+00  0.00000000E+00  0.00000000E+00
  0.00000000E+00  0.00000000E+00  0.00000000E+00
  0.00000000E+00  0.00000000E+00  0.00000000E+00
  0.00000000E+00  0.00000000E+00  0.00000000E+00
  0.00000000E+00  0.00000000E+00  0.00000000E+00
  0.00000000E+00  0.00000000E+00  0.00000000E+00
  0.00000000E+00  0.00000000E+00  0.00000000E+00
  0.00000000E+00  0.00000000E+00  0.00000000E+00
  0.00000000E+00  0.00000000E+00  0.00000000E+00
  0.00000000E+00  0.00000000E+00  0.00000000E+00
  0.00000000E+00  0.00000000E+00  0.00000000E+00
  0.00000000E+00  0.00000000E+00  0.00000000E+00
  0.00000000E+00  0.00000000E+00  0.00000000E+00
  0.00000000E+00  0.00000000E+00  0.00000000E+00
  0.00000000E+00  0.00000000E+00  0.00000000E+00
  0.00000000E+00  0.00000000E+00  0.00000000E+00
  0.00000000E+00  0.00000000E+00  0.00000000E+00
  0.00000000E+00  0.00000000E+00  0.00000000E+00
  0.00000000E+00  0.00000000E+00  0.00000000E+00
  0.00000000E+00  0.00000000E+00  0.00000000E+00
  0.00000000E+00  0.00000000E+00  0.00000000E+00
  0.00000000E+00  0.00000000E+00  0.00000000E+00
  0.00000000E+00  0.00000000E+00  0.00000000E+00
  0.00000000E+00  0.00000000E+00  0.00000000E+00
