Bi La Sn O  C  H                        
   1.00000000000000     
    29.0000000000000000    0.0000000000000000    0.0000000000000000
     0.2488180851000000   28.9989325590000000    0.0000000000000000
    -0.0631677343000000   -0.4515975666000000   28.9964147692999994
   Bi   La   Sn   O    C    H 
    22    23    23     2     1     1
Selective dynamics
Direct
  0.7593529291879884  0.4781871569287249  0.3990941970874022   T   T   T
  0.6465467050648727  0.6846943015745728  0.5514879186827760   T   T   T
  0.3586111323254363  0.4574069366616001  0.4299938658995306   T   T   T
  0.5501743826778442  0.7130028818905374  0.5851074012899448   T   T   T
  0.5915029568994470  0.5209714444905416  0.5841479689498996   F   F   F
  0.6395053892529938  0.6806245041756347  0.4446392283437933   T   T   T
  0.6963446266262857  0.5223258783726766  0.6538299459920258   T   T   T
  0.4855864890813160  0.7004601385795418  0.5005145369082395   T   T   T
  0.5004839460855024  0.5502791173970252  0.5477141156400123   F   F   F
  0.3253866828901988  0.4860454593164868  0.5752591814142880   T   T   T
  0.3825630373579572  0.6102940087358398  0.5355907110764636   T   T   T
  0.6667129484492236  0.4827404655721850  0.5105018184570156   F   F   F
  0.5763997220267569  0.4263140504383500  0.5448328182496311   F   F   F
  0.6687402241652819  0.3741266665058434  0.5062263607384376   T   T   T
  0.4635906481439345  0.3386768979483945  0.5002994175694069   T   T   T
  0.6484934028780529  0.5775373212088155  0.4602701624361103   F   F   F
  0.5596632849716431  0.4364228731400158  0.7496084519688184   T   T   T
  0.6045084905267580  0.3517492877852800  0.6685903453249873   T   T   T
  0.4916209070080219  0.2999331702326024  0.4099797079264636   T   T   T
  0.6602717502808160  0.6185706622501860  0.6662193271080912   T   T   T
  0.4926977884494732  0.4093389424359045  0.3074620202746398   T   T   T
  0.6222366315372102  0.3162491409042226  0.5726311430249238   T   T   T
  0.5380914661139790  0.6840533968588105  0.4050487656825294   T   T   T
  0.3909409933327741  0.4151870838969911  0.5285747745217401   T   T   T
  0.6286802546774063  0.5524955870183494  0.2825455552170696   T   T   T
  0.4717869935729915  0.4703478092887166  0.6921187073412147   T   T   T
  0.5683115009887700  0.5094300495444983  0.4784716241115703   F   F   F
  0.4203210565129183  0.5084107200613417  0.5018573595042781   F   F   F
  0.4520835277118951  0.4014417017258057  0.4070993525071348   T   T   T
  0.5639545776681198  0.3481412903171955  0.3546166835148115   T   T   T
  0.4111654654565933  0.5399997820720162  0.6101253658822317   T   T   T
  0.5991224027985738  0.4426486495659805  0.3042362683503413   T   T   T
  0.4527173607570915  0.5993046930921114  0.3620992740762308   T   T   T
  0.4160522873978262  0.4853930502608299  0.3388325481652866   T   T   T
  0.6614363902972706  0.4282837698904502  0.6040868193479292   T   T   T
  0.6733318745732144  0.5787206227118545  0.5639363238814452   T   T   T
  0.5263488042476853  0.5089041890230158  0.3282960471686319   T   T   T
  0.5658132705836670  0.3578381479629832  0.4686302436263435   T   T   T
  0.3153962125601074  0.5419087800162291  0.4920740099976429   T   T   T
  0.6602515623856579  0.4297440075672309  0.4153940440850942   T   T   T
  0.5660841929594156  0.6261437171197244  0.5094829013827464   F   F   F
  0.5963674095452081  0.5285208375430090  0.6897735716651839   T   T   T
  0.4704220381545433  0.6412322681940710  0.5895079806742938   T   T   T
  0.4622510769580688  0.6031307688854367  0.4634966495184735   T   T   T
  0.7164745727672878  0.5737520467362712  0.3832251283978171   T   T   T
  0.5499310510395361  0.5822218838566187  0.4076968008106903   F   F   F
  0.4794126430662260  0.5072205383607624  0.4190535757241776   F   F   F
  0.6952451716173924  0.4807900128986998  0.3240918076978186   T   T   T
  0.7517509899221485  0.4293733223956505  0.4882204788722652   T   T   T
  0.7482807831574227  0.5384674625912397  0.4850763579900159   T   T   T
  0.7492922934579355  0.4908082518849040  0.5722028422096428   T   T   T
  0.6494622959563244  0.4372290861047851  0.7086186759711214   T   T   T
  0.5762914218632761  0.7423674532186318  0.4935873942445619   T   T   T
  0.6192554540844384  0.5183157687966542  0.3801816896793397   F   F   F
  0.5055488583813279  0.5588205025913203  0.6502199901565621   T   T   T
  0.4922009500451665  0.4366758245867572  0.4933013002826740   F   F   F
  0.5608844484509063  0.4404139570509003  0.6454865549417619   F   F   F
  0.5773319840318665  0.6162631507261533  0.6138582445199861   T   T   T
  0.5446720725859566  0.6174034541815456  0.3137179483129767   T   T   T
  0.6279290067435597  0.6252779243816562  0.3604429510622899   T   T   T
  0.3766689242116225  0.5550593374713010  0.4130147916954065   T   T   T
  0.4723078164089713  0.4557257050327763  0.5877273803360978   F   F   F
  0.7265423735098830  0.6356500942090061  0.4842998335678773   T   T   T
  0.5050263777763889  0.3682705879014028  0.6862844634133518   T   T   T
  0.3808985698651903  0.4415204003412977  0.6413898483575677   T   T   T
  0.5544592502646992  0.4379899399457940  0.4037542370104745   F   F   F
  0.4356278820204921  0.3648190183558717  0.6124055811092605   T   T   T
  0.5285707378528741  0.3490589267161701  0.5802572992910672   T   T   T
  0.3823505303054164  0.5319304481455028  0.2821043140839453   T   T   T
  0.4051530065198349  0.6059762084694279  0.2946803042092735   T   T   T
  0.3744606821026688  0.5751147216722894  0.2892908900093667   T   T   T
  0.3378607617550398  0.5864751059383778  0.2891306848118785   T   T   T
 
  0.00000000E+00  0.00000000E+00  0.00000000E+00
  0.00000000E+00  0.00000000E+00  0.00000000E+00
  0.00000000E+00  0.00000000E+00  0.00000000E+00
  0.00000000E+00  0.00000000E+00  0.00000000E+00
  0.00000000E+00  0.00000000E+00  0.00000000E+00
  0.00000000E+00  0.00000000E+00  0.00000000E+00
  0.00000000E+00  0.00000000E+00  0.00000000E+00
  0.00000000E+00  0.00000000E+00  0.00000000E+00
  0.00000000E+00  0.00000000E+00  0.00000000E+00
  0.00000000E+00  0.00000000E+00  0.00000000E+00
  0.00000000E+00  0.00000000E+00  0.00000000E+00
  0.00000000E+00  0.00000000E+00  0.00000000E+00
  0.00000000E+00  0.00000000E+00  0.00000000E+00
  0.00000000E+00  0.00000000E+00  0.00000000E+00
  0.00000000E+00  0.00000000E+00  0.00000000E+00
  0.00000000E+00  0.00000000E+00  0.00000000E+00
  0.00000000E+00  0.00000000E+00  0.00000000E+00
  0.00000000E+00  0.00000000E+00  0.00000000E+00
  0.00000000E+00  0.00000000E+00  0.00000000E+00
  0.00000000E+00  0.00000000E+00  0.00000000E+00
  0.00000000E+00  0.00000000E+00  0.00000000E+00
  0.00000000E+00  0.00000000E+00  0.00000000E+00
  0.00000000E+00  0.00000000E+00  0.00000000E+00
  0.00000000E+00  0.00000000E+00  0.00000000E+00
  0.00000000E+00  0.00000000E+00  0.00000000E+00
  0.00000000E+00  0.00000000E+00  0.00000000E+00
  0.00000000E+00  0.00000000E+00  0.00000000E+00
  0.00000000E+00  0.00000000E+00  0.00000000E+00
  0.00000000E+00  0.00000000E+00  0.00000000E+00
  0.00000000E+00  0.00000000E+00  0.00000000E+00
  0.00000000E+00  0.00000000E+00  0.00000000E+00
  0.00000000E+00  0.00000000E+00  0.00000000E+00
  0.00000000E+00  0.00000000E+00  0.00000000E+00
  0.00000000E+00  0.00000000E+00  0.00000000E+00
  0.00000000E+00  0.00000000E+00  0.00000000E+00
  0.00000000E+00  0.00000000E+00  0.00000000E+00
  0.00000000E+00  0.00000000E+00  0.00000000E+00
  0.00000000E+00  0.00000000E+00  0.00000000E+00
  0.00000000E+00  0.00000000E+00  0.00000000E+00
  0.00000000E+00  0.00000000E+00  0.00000000E+00
  0.00000000E+00  0.00000000E+00  0.00000000E+00
  0.00000000E+00  0.00000000E+00  0.00000000E+00
  0.00000000E+00  0.00000000E+00  0.00000000E+00
  0.00000000E+00  0.00000000E+00  0.00000000E+00
  0.00000000E+00  0.00000000E+00  0.00000000E+00
  0.00000000E+00  0.00000000E+00  0.00000000E+00
  0.00000000E+00  0.00000000E+00  0.00000000E+00
  0.00000000E+00  0.00000000E+00  0.00000000E+00
  0.00000000E+00  0.00000000E+00  0.00000000E+00
  0.00000000E+00  0.00000000E+00  0.00000000E+00
  0.00000000E+00  0.00000000E+00  0.00000000E+00
  0.00000000E+00  0.00000000E+00  0.00000000E+00
  0.00000000E+00  0.00000000E+00  0.00000000E+00
  0.00000000E+00  0.00000000E+00  0.00000000E+00
  0.00000000E+00  0.00000000E+00  0.00000000E+00
  0.00000000E+00  0.00000000E+00  0.00000000E+00
  0.00000000E+00  0.00000000E+00  0.00000000E+00
  0.00000000E+00  0.00000000E+00  0.00000000E+00
  0.00000000E+00  0.00000000E+00  0.00000000E+00
  0.00000000E+00  0.00000000E+00  0.00000000E+00
  0.00000000E+00  0.00000000E+00  0.00000000E+00
  0.00000000E+00  0.00000000E+00  0.00000000E+00
  0.00000000E+00  0.00000000E+00  0.00000000E+00
  0.00000000E+00  0.00000000E+00  0.00000000E+00
  0.00000000E+00  0.00000000E+00  0.00000000E+00
  0.00000000E+00  0.00000000E+00  0.00000000E+00
  0.00000000E+00  0.00000000E+00  0.00000000E+00
  0.00000000E+00  0.00000000E+00  0.00000000E+00
  0.00000000E+00  0.00000000E+00  0.00000000E+00
  0.00000000E+00  0.00000000E+00  0.00000000E+00
  0.00000000E+00  0.00000000E+00  0.00000000E+00
  0.00000000E+00  0.00000000E+00  0.00000000E+00
