Bi La Sn O  C  H                        
   1.00000000000000     
    29.0000000000000000    0.0000000000000000    0.0000000000000000
     0.2488180851000000   28.9989325590000000    0.0000000000000000
    -0.0631677343000000   -0.4515975666000000   28.9964147692999994
   Bi   La   Sn   O    C    H 
    22    23    23     2     1     1
Selective dynamics
Direct
  0.7607961425240323  0.4752780039861360  0.3998338892329945   T   T   T
  0.6467254273184734  0.6837835837975016  0.5532525092053814   T   T   T
  0.3602889480421713  0.4602590193433354  0.4264658738938002   T   T   T
  0.5512354751478118  0.7132553906586625  0.5852379735589119   T   T   T
  0.5915029568994470  0.5209714444905416  0.5841479689498996   F   F   F
  0.6410196568998540  0.6812765461653271  0.4468427866359304   T   T   T
  0.6958264855584024  0.5223257191137857  0.6540222589253685   T   T   T
  0.4866333671493837  0.7006741258946744  0.5006629881917761   T   T   T
  0.5004839460855024  0.5502791173970252  0.5477141156400123   F   F   F
  0.3248770069630682  0.4873860290093298  0.5732443334183112   T   T   T
  0.3835932193636272  0.6112388699338275  0.5353416120782446   T   T   T
  0.6667129484492236  0.4827404655721850  0.5105018184570156   F   F   F
  0.5763997220267569  0.4263140504383500  0.5448328182496311   F   F   F
  0.6679462560608340  0.3734102903112353  0.5060713974365165   T   T   T
  0.4624673752031281  0.3382090712290411  0.4995056001191393   T   T   T
  0.6484934028780529  0.5775373212088155  0.4602701624361103   F   F   F
  0.5581624644395341  0.4366508668712524  0.7491737623826491   T   T   T
  0.6033078218187228  0.3521476119750501  0.6698901932643292   T   T   T
  0.4921918737136836  0.2993371980101268  0.4092701272399111   T   T   T
  0.6603243816527131  0.6186710201397930  0.6656270849885167   T   T   T
  0.4945561836180598  0.4101907879042300  0.3091742679466866   T   T   T
  0.6217787907279797  0.3169421585394633  0.5739521768777142   T   T   T
  0.5383624506995871  0.6847773515467875  0.4042347469700862   T   T   T
  0.3903932663410641  0.4161841037686846  0.5264139227102973   T   T   T
  0.6315090027423815  0.5524992553172146  0.2837219878844818   T   T   T
  0.4709521503808543  0.4710625150862152  0.6916672833794765   T   T   T
  0.5683115009887700  0.5094300495444983  0.4784716241115703   F   F   F
  0.4203210565129183  0.5084107200613417  0.5018573595042781   F   F   F
  0.4519608980286589  0.4007442713101193  0.4073190630631624   T   T   T
  0.5659274757405452  0.3475479731632871  0.3559280801887922   T   T   T
  0.4108589574735499  0.5403020349231822  0.6097384777064235   T   T   T
  0.5999896290381034  0.4419129736871196  0.3050427842152338   T   T   T
  0.4551413885272563  0.6080698628135006  0.3624829835995603   T   T   T
  0.4205364160087123  0.4881944441363043  0.3381288488843708   T   T   T
  0.6611298996253856  0.4280766644267390  0.6041592079295247   T   T   T
  0.6739478451146348  0.5781027157946618  0.5637318443956715   T   T   T
  0.5265545433125416  0.5108627722677450  0.3278362060554767   T   T   T
  0.5651368159803833  0.3571987427281094  0.4693501609162753   T   T   T
  0.3175975100923440  0.5438138004173985  0.4898455932854734   T   T   T
  0.6600303801623926  0.4291257812971144  0.4156361351534657   T   T   T
  0.5660841929594156  0.6261437171197244  0.5094829013827464   F   F   F
  0.5956868217413317  0.5291225423895286  0.6898070543556065   T   T   T
  0.4707739556062217  0.6417775801477665  0.5894150903569504   T   T   T
  0.4638241438820453  0.6029262259388019  0.4640660692695279   T   T   T
  0.7178776803201318  0.5715215310143492  0.3842022282174160   T   T   T
  0.5499310510395361  0.5822218838566187  0.4076968008106903   F   F   F
  0.4794126430662260  0.5072205383607624  0.4190535757241776   F   F   F
  0.6961555528271147  0.4792056494592734  0.3254599549374595   T   T   T
  0.7513847720621509  0.4273801760723417  0.4893669713742198   T   T   T
  0.7492491807317234  0.5364287583971387  0.4854319036560676   T   T   T
  0.7490005603733840  0.4896845318142282  0.5726149472587878   T   T   T
  0.6481456804268635  0.4378985626343646  0.7084470649765034   T   T   T
  0.5769505922749677  0.7431068851577726  0.4935983729074107   T   T   T
  0.6192554540844384  0.5183157687966542  0.3801816896793397   F   F   F
  0.5046573664082250  0.5595799889960256  0.6504639426900933   T   T   T
  0.4922009500451665  0.4366758245867572  0.4933013002826740   F   F   F
  0.5608844484509063  0.4404139570509003  0.6454865549417619   F   F   F
  0.5771615480921652  0.6159881247264468  0.6136236375767631   T   T   T
  0.5486009853949297  0.6171030089705358  0.3137574758164424   T   T   T
  0.6306188520686611  0.6253162948141896  0.3627296385184025   T   T   T
  0.3800064979342084  0.5571453626269015  0.4108732430140938   T   T   T
  0.4723078164089713  0.4557257050327763  0.5877273803360978   F   F   F
  0.7278466239306349  0.6339028290576253  0.4840978821577275   T   T   T
  0.5029389288593267  0.3686972639620978  0.6844307088790679   T   T   T
  0.3803572620057478  0.4415228818048690  0.6388786252868819   T   T   T
  0.5544592502646992  0.4379899399457940  0.4037542370104745   F   F   F
  0.4340091986053666  0.3640490495627537  0.6100145318773381   T   T   T
  0.5277920565106834  0.3493406749296132  0.5795731753226212   T   T   T
  0.4704768386337786  0.7055194339621034  0.3594097422214775   T   T   T
  0.4296835575942298  0.6673051051804373  0.3050317677749164   T   T   T
  0.4470939701591424  0.7038490893550566  0.3216339291988731   T   T   T
  0.4422921101485007  0.7366892257094713  0.3030760942301346   T   T   T
 
  0.00000000E+00  0.00000000E+00  0.00000000E+00
  0.00000000E+00  0.00000000E+00  0.00000000E+00
  0.00000000E+00  0.00000000E+00  0.00000000E+00
  0.00000000E+00  0.00000000E+00  0.00000000E+00
  0.00000000E+00  0.00000000E+00  0.00000000E+00
  0.00000000E+00  0.00000000E+00  0.00000000E+00
  0.00000000E+00  0.00000000E+00  0.00000000E+00
  0.00000000E+00  0.00000000E+00  0.00000000E+00
  0.00000000E+00  0.00000000E+00  0.00000000E+00
  0.00000000E+00  0.00000000E+00  0.00000000E+00
  0.00000000E+00  0.00000000E+00  0.00000000E+00
  0.00000000E+00  0.00000000E+00  0.00000000E+00
  0.00000000E+00  0.00000000E+00  0.00000000E+00
  0.00000000E+00  0.00000000E+00  0.00000000E+00
  0.00000000E+00  0.00000000E+00  0.00000000E+00
  0.00000000E+00  0.00000000E+00  0.00000000E+00
  0.00000000E+00  0.00000000E+00  0.00000000E+00
  0.00000000E+00  0.00000000E+00  0.00000000E+00
  0.00000000E+00  0.00000000E+00  0.00000000E+00
  0.00000000E+00  0.00000000E+00  0.00000000E+00
  0.00000000E+00  0.00000000E+00  0.00000000E+00
  0.00000000E+00  0.00000000E+00  0.00000000E+00
  0.00000000E+00  0.00000000E+00  0.00000000E+00
  0.00000000E+00  0.00000000E+00  0.00000000E+00
  0.00000000E+00  0.00000000E+00  0.00000000E+00
  0.00000000E+00  0.00000000E+00  0.00000000E+00
  0.00000000E+00  0.00000000E+00  0.00000000E+00
  0.00000000E+00  0.00000000E+00  0.00000000E+00
  0.00000000E+00  0.00000000E+00  0.00000000E+00
  0.00000000E+00  0.00000000E+00  0.00000000E+00
  0.00000000E+00  0.00000000E+00  0.00000000E+00
  0.00000000E+00  0.00000000E+00  0.00000000E+00
  0.00000000E+00  0.00000000E+00  0.00000000E+00
  0.00000000E+00  0.00000000E+00  0.00000000E+00
  0.00000000E+00  0.00000000E+00  0.00000000E+00
  0.00000000E+00  0.00000000E+00  0.00000000E+00
  0.00000000E+00  0.00000000E+00  0.00000000E+00
  0.00000000E+00  0.00000000E+00  0.00000000E+00
  0.00000000E+00  0.00000000E+00  0.00000000E+00
  0.00000000E+00  0.00000000E+00  0.00000000E+00
  0.00000000E+00  0.00000000E+00  0.00000000E+00
  0.00000000E+00  0.00000000E+00  0.00000000E+00
  0.00000000E+00  0.00000000E+00  0.00000000E+00
  0.00000000E+00  0.00000000E+00  0.00000000E+00
  0.00000000E+00  0.00000000E+00  0.00000000E+00
  0.00000000E+00  0.00000000E+00  0.00000000E+00
  0.00000000E+00  0.00000000E+00  0.00000000E+00
  0.00000000E+00  0.00000000E+00  0.00000000E+00
  0.00000000E+00  0.00000000E+00  0.00000000E+00
  0.00000000E+00  0.00000000E+00  0.00000000E+00
  0.00000000E+00  0.00000000E+00  0.00000000E+00
  0.00000000E+00  0.00000000E+00  0.00000000E+00
  0.00000000E+00  0.00000000E+00  0.00000000E+00
  0.00000000E+00  0.00000000E+00  0.00000000E+00
  0.00000000E+00  0.00000000E+00  0.00000000E+00
  0.00000000E+00  0.00000000E+00  0.00000000E+00
  0.00000000E+00  0.00000000E+00  0.00000000E+00
  0.00000000E+00  0.00000000E+00  0.00000000E+00
  0.00000000E+00  0.00000000E+00  0.00000000E+00
  0.00000000E+00  0.00000000E+00  0.00000000E+00
  0.00000000E+00  0.00000000E+00  0.00000000E+00
  0.00000000E+00  0.00000000E+00  0.00000000E+00
  0.00000000E+00  0.00000000E+00  0.00000000E+00
  0.00000000E+00  0.00000000E+00  0.00000000E+00
  0.00000000E+00  0.00000000E+00  0.00000000E+00
  0.00000000E+00  0.00000000E+00  0.00000000E+00
  0.00000000E+00  0.00000000E+00  0.00000000E+00
  0.00000000E+00  0.00000000E+00  0.00000000E+00
  0.00000000E+00  0.00000000E+00  0.00000000E+00
  0.00000000E+00  0.00000000E+00  0.00000000E+00
  0.00000000E+00  0.00000000E+00  0.00000000E+00
  0.00000000E+00  0.00000000E+00  0.00000000E+00
