Bi O  C  H                              
   1.00000000000000     
    29.0000000000000000    0.0000000000000000    0.0000000000000000
     0.0000000000000000   29.0000000000000000    0.0000000000000000
     0.0000000000000000    0.0000000000000000   29.0000000000000000
   Bi   O    C    H 
    68     2     1     1
Selective dynamics
Direct
  0.5036628040639358  0.5032373336051041  0.7118173004955535   T   T   T
  0.3512924481605871  0.6552708500702638  0.4075148462741885   T   T   T
  0.3463620626438416  0.5795249680106245  0.4850119647570928   T   T   T
  0.5811467705906068  0.4246732054093982  0.4064932224093951   F   F   F
  0.4244332074093933  0.4246732054093982  0.5632067865906052   F   F   F
  0.6595215135315500  0.5788457918691023  0.4849606403963831   T   T   T
  0.4259374965903386  0.5032061244111538  0.3282153191442390   T   T   T
  0.4254881549863966  0.3466011036299818  0.4848788587403614   T   T   T
  0.5807430458468618  0.5032525906979969  0.6425533730683816   T   T   T
  0.3518038462533846  0.4256832273351366  0.6375713241087122   T   T   T
  0.5039078998865836  0.6597729726628581  0.5616408499448176   T   T   T
  0.5792811725413102  0.3511960096052336  0.3329013503711734   T   T   T
  0.4269282011230805  0.6586056877910557  0.4852222995543862   T   T   T
  0.4259897328386039  0.6555865058308830  0.3335385075484660   T   T   T
  0.6594747388077978  0.5023994349632676  0.5611500870821097   T   T   T
  0.6555483152829887  0.5790132531482813  0.3331895778331980   T   T   T
  0.6541949744973377  0.3503944766353465  0.5615021643163800   T   T   T
  0.5027899740000024  0.4274945535347072  0.4848499889999971   F   F   F
  0.3445205221406633  0.4254160752405714  0.4849793510728761   T   T   T
  0.5027899740000024  0.5785654504652982  0.4848499889999971   F   F   F
  0.5027899740000024  0.5030300020000027  0.5603854384652962   F   F   F
  0.4244027930808081  0.6550704412963717  0.6358511700361789   T   T   T
  0.5783254224652978  0.5030300020000027  0.4848499889999971   F   F   F
  0.5026851457345375  0.3465273862443815  0.5611200305929590   T   T   T
  0.2754431480002957  0.5022102603013763  0.4848610968989580   T   T   T
  0.3464539041832558  0.5031735691617804  0.5615736297497860   T   T   T
  0.5029484177643078  0.5027771032302231  0.2580205166770436   T   T   T
  0.3498376446206803  0.4262917368393895  0.3333509085323164   T   T   T
  0.6551831644723438  0.4254360387445126  0.3328690724730508   T   T   T
  0.6602207139906401  0.5026184589042616  0.4073483572267691   T   T   T
  0.4244332074093933  0.4246732054093982  0.4064932224093951   F   F   F
  0.4244332074093933  0.5813867985906072  0.4064932224093951   F   F   F
  0.5811467705906068  0.5813867985906072  0.4064932224093951   F   F   F
  0.5032298210553348  0.6608291173913916  0.4068781326137458   T   T   T
  0.5037934237236779  0.7296679891150127  0.4842091279699116   T   T   T
  0.3478221869995080  0.6553124704614707  0.5634243071782145   T   T   T
  0.6600346991808667  0.4247674425899330  0.4848093063471954   T   T   T
  0.3495085203388145  0.3522528536936901  0.4073369649514117   T   T   T
  0.3498828934668886  0.5798925541884811  0.3336838130747218   T   T   T
  0.4264127671893080  0.3516217196516955  0.6377165424634790   T   T   T
  0.6538678201129837  0.4247236984100772  0.6374953344981633   T   T   T
  0.5811467705906068  0.5813867985906072  0.5632067865906052   F   F   F
  0.5023089165101052  0.4256163689727995  0.3272721076053714   T   T   T
  0.5027899740000024  0.5030300020000027  0.4093145705347041   F   F   F
  0.6553453414398710  0.6550545133492020  0.5612737595619830   T   T   T
  0.5032634072217853  0.5803461126317341  0.6414367760307357   T   T   T
  0.4244332074093933  0.5813867985906072  0.5632067865906052   F   F   F
  0.4266871613970440  0.5038275194414864  0.6409131279375215   T   T   T
  0.5800205490272596  0.5030301061830122  0.3280364217469953   T   T   T
  0.6551201786978602  0.3507069943811258  0.4070107130619299   T   T   T
  0.5811467705906068  0.4246732054093982  0.5632067865906052   F   F   F
  0.3486431305366998  0.5823108034236872  0.6365915694033878   T   T   T
  0.5022821014268879  0.2764918198875299  0.4840701279876448   T   T   T
  0.6553565957259172  0.5795860345154711  0.6364385638313147   T   T   T
  0.3500962313091243  0.3519145959733343  0.5622363589025032   T   T   T
  0.5030317507275681  0.5795818116122452  0.3282084292511873   T   T   T
  0.6549543675294751  0.6547651555076083  0.4072155005826987   T   T   T
  0.5805470758412791  0.6554791066049643  0.3333697273501331   T   T   T
  0.5797265369326866  0.3461005209906952  0.4845458903481271   T   T   T
  0.4272545555347023  0.5030300020000027  0.4848499889999971   F   F   F
  0.5810340791074798  0.6605492536361588  0.4848386319378143   T   T   T
  0.5814971615966984  0.6549737828906810  0.6367118765075053   T   T   T
  0.5021608373695235  0.3458737375035262  0.4071379967356199   T   T   T
  0.4257504355148742  0.3512501659292387  0.3327001688284780   T   T   T
  0.5794780199307958  0.3512014777811547  0.6377063489201197   T   T   T
  0.5029904565829523  0.4257093518130867  0.6427652363006588   T   T   T
  0.7297650460217744  0.5013453212072938  0.4842270471336437   T   T   T
  0.3443518033626743  0.5031141136409020  0.4072897156167793   T   T   T
  0.2740844018298642  0.6823547626368029  0.5963482444959690   T   T   T
  0.2787770899730846  0.6365118683039214  0.6608045025740129   T   T   T
  0.2605352683402604  0.6670157778493027  0.6355505960231526   T   T   T
  0.2281398166436711  0.6832311792149580  0.6487106017753089   T   T   T
 
  0.00000000E+00  0.00000000E+00  0.00000000E+00
  0.00000000E+00  0.00000000E+00  0.00000000E+00
  0.00000000E+00  0.00000000E+00  0.00000000E+00
  0.00000000E+00  0.00000000E+00  0.00000000E+00
  0.00000000E+00  0.00000000E+00  0.00000000E+00
  0.00000000E+00  0.00000000E+00  0.00000000E+00
  0.00000000E+00  0.00000000E+00  0.00000000E+00
  0.00000000E+00  0.00000000E+00  0.00000000E+00
  0.00000000E+00  0.00000000E+00  0.00000000E+00
  0.00000000E+00  0.00000000E+00  0.00000000E+00
  0.00000000E+00  0.00000000E+00  0.00000000E+00
  0.00000000E+00  0.00000000E+00  0.00000000E+00
  0.00000000E+00  0.00000000E+00  0.00000000E+00
  0.00000000E+00  0.00000000E+00  0.00000000E+00
  0.00000000E+00  0.00000000E+00  0.00000000E+00
  0.00000000E+00  0.00000000E+00  0.00000000E+00
  0.00000000E+00  0.00000000E+00  0.00000000E+00
  0.00000000E+00  0.00000000E+00  0.00000000E+00
  0.00000000E+00  0.00000000E+00  0.00000000E+00
  0.00000000E+00  0.00000000E+00  0.00000000E+00
  0.00000000E+00  0.00000000E+00  0.00000000E+00
  0.00000000E+00  0.00000000E+00  0.00000000E+00
  0.00000000E+00  0.00000000E+00  0.00000000E+00
  0.00000000E+00  0.00000000E+00  0.00000000E+00
  0.00000000E+00  0.00000000E+00  0.00000000E+00
  0.00000000E+00  0.00000000E+00  0.00000000E+00
  0.00000000E+00  0.00000000E+00  0.00000000E+00
  0.00000000E+00  0.00000000E+00  0.00000000E+00
  0.00000000E+00  0.00000000E+00  0.00000000E+00
  0.00000000E+00  0.00000000E+00  0.00000000E+00
  0.00000000E+00  0.00000000E+00  0.00000000E+00
  0.00000000E+00  0.00000000E+00  0.00000000E+00
  0.00000000E+00  0.00000000E+00  0.00000000E+00
  0.00000000E+00  0.00000000E+00  0.00000000E+00
  0.00000000E+00  0.00000000E+00  0.00000000E+00
  0.00000000E+00  0.00000000E+00  0.00000000E+00
  0.00000000E+00  0.00000000E+00  0.00000000E+00
  0.00000000E+00  0.00000000E+00  0.00000000E+00
  0.00000000E+00  0.00000000E+00  0.00000000E+00
  0.00000000E+00  0.00000000E+00  0.00000000E+00
  0.00000000E+00  0.00000000E+00  0.00000000E+00
  0.00000000E+00  0.00000000E+00  0.00000000E+00
  0.00000000E+00  0.00000000E+00  0.00000000E+00
  0.00000000E+00  0.00000000E+00  0.00000000E+00
  0.00000000E+00  0.00000000E+00  0.00000000E+00
  0.00000000E+00  0.00000000E+00  0.00000000E+00
  0.00000000E+00  0.00000000E+00  0.00000000E+00
  0.00000000E+00  0.00000000E+00  0.00000000E+00
  0.00000000E+00  0.00000000E+00  0.00000000E+00
  0.00000000E+00  0.00000000E+00  0.00000000E+00
  0.00000000E+00  0.00000000E+00  0.00000000E+00
  0.00000000E+00  0.00000000E+00  0.00000000E+00
  0.00000000E+00  0.00000000E+00  0.00000000E+00
  0.00000000E+00  0.00000000E+00  0.00000000E+00
  0.00000000E+00  0.00000000E+00  0.00000000E+00
  0.00000000E+00  0.00000000E+00  0.00000000E+00
  0.00000000E+00  0.00000000E+00  0.00000000E+00
  0.00000000E+00  0.00000000E+00  0.00000000E+00
  0.00000000E+00  0.00000000E+00  0.00000000E+00
  0.00000000E+00  0.00000000E+00  0.00000000E+00
  0.00000000E+00  0.00000000E+00  0.00000000E+00
  0.00000000E+00  0.00000000E+00  0.00000000E+00
  0.00000000E+00  0.00000000E+00  0.00000000E+00
  0.00000000E+00  0.00000000E+00  0.00000000E+00
  0.00000000E+00  0.00000000E+00  0.00000000E+00
  0.00000000E+00  0.00000000E+00  0.00000000E+00
  0.00000000E+00  0.00000000E+00  0.00000000E+00
  0.00000000E+00  0.00000000E+00  0.00000000E+00
  0.00000000E+00  0.00000000E+00  0.00000000E+00
  0.00000000E+00  0.00000000E+00  0.00000000E+00
  0.00000000E+00  0.00000000E+00  0.00000000E+00
  0.00000000E+00  0.00000000E+00  0.00000000E+00
