Bi O  C  H                              
   1.00000000000000     
    29.0000000000000000    0.0000000000000000    0.0000000000000000
     0.0000000000000000   29.0000000000000000    0.0000000000000000
     0.0000000000000000    0.0000000000000000   29.0000000000000000
   Bi   O    C    H 
    68     2     1     1
Selective dynamics
Direct
  0.5033348546328652  0.5033874601737965  0.7117289931641203   T   T   T
  0.3505149115204312  0.6548364653278378  0.4079421379017092   T   T   T
  0.3464254108058799  0.5789819269016990  0.4847853402277703   T   T   T
  0.5811467705906068  0.4246732054093982  0.4064932224093951   F   F   F
  0.4244332074093933  0.4246732054093982  0.5632067865906052   F   F   F
  0.6592535369110342  0.5783215859906045  0.4847432713471829   T   T   T
  0.4250595979481216  0.5027629410928488  0.3270735509761526   T   T   T
  0.4255310957149572  0.3462671526284538  0.4843370773101599   T   T   T
  0.5796792200330194  0.5039784519145817  0.6414576375400106   T   T   T
  0.3520256301147334  0.4259796604111081  0.6374743965833335   T   T   T
  0.5028359805007138  0.6622544894237067  0.5623799547698608   T   T   T
  0.5791740402733392  0.3523922884312142  0.3311612975760281   T   T   T
  0.4251281342163613  0.6606704815908022  0.4846959224566608   T   T   T
  0.4238668717869715  0.6530072416500158  0.3322530159615237   T   T   T
  0.6607510879135405  0.5021645904797188  0.5626454293402351   T   T   T
  0.6555749669506313  0.5790607851190236  0.3328175244744642   T   T   T
  0.6533648663904464  0.3502787919924891  0.5630445542391341   T   T   T
  0.5027899740000024  0.4274945535347072  0.4848499889999971   F   F   F
  0.3450400592345380  0.4252021576248258  0.4847356288791987   T   T   T
  0.5027899740000024  0.5785654504652982  0.4848499889999971   F   F   F
  0.5027899740000024  0.5030300020000027  0.5603854384652962   F   F   F
  0.4260413342825200  0.6566685075474352  0.6352079837955076   T   T   T
  0.5783254224652978  0.5030300020000027  0.4848499889999971   F   F   F
  0.5024571508306427  0.3455434705586505  0.5620431808152491   T   T   T
  0.2756824372200536  0.5017997320898119  0.4855797141700082   T   T   T
  0.3447735636847395  0.5028001321010352  0.5626943143854559   T   T   T
  0.5027627293228869  0.5036486879237934  0.2571423503412765   T   T   T
  0.3503071812176836  0.4261291690845979  0.3322571138625707   T   T   T
  0.6549499033954150  0.4253889764870489  0.3324189269024174   T   T   T
  0.6594000597049916  0.5021747612465600  0.4083805907044744   T   T   T
  0.4244332074093933  0.4246732054093982  0.4064932224093951   F   F   F
  0.4244332074093933  0.5813867985906072  0.4064932224093951   F   F   F
  0.5811467705906068  0.5813867985906072  0.4064932224093951   F   F   F
  0.5026550153229269  0.6594404222725732  0.4085745412807089   T   T   T
  0.5024134925333783  0.7303817616340755  0.4847436944959494   T   T   T
  0.3508307262527665  0.6552262992335194  0.5621304844086912   T   T   T
  0.6601151718808685  0.4244879583813960  0.4849357131949193   T   T   T
  0.3504676391944621  0.3517250044709598  0.4071068884848476   T   T   T
  0.3500111592360026  0.5788386646433969  0.3321715059385860   T   T   T
  0.4268065325235024  0.3503564936694824  0.6376260544119805   T   T   T
  0.6533635821142433  0.4249696659993962  0.6373556651063844   T   T   T
  0.5811467705906068  0.5813867985906072  0.5632067865906052   F   F   F
  0.5028009615387028  0.4263065516467656  0.3263401758342903   T   T   T
  0.5027899740000024  0.5030300020000027  0.4093145705347041   F   F   F
  0.6549084464615286  0.6551601078131777  0.5615045935598622   T   T   T
  0.5028994689130103  0.5807946389013068  0.6412971556161380   T   T   T
  0.4244332074093933  0.5813867985906072  0.5632067865906052   F   F   F
  0.4264350898478165  0.5039576952786509  0.6417475805575633   T   T   T
  0.5806200232535205  0.5028286513657055  0.3268128295312724   T   T   T
  0.6543067928413810  0.3508875208153158  0.4075533389115760   T   T   T
  0.5811467705906068  0.4246732054093982  0.5632067865906052   F   F   F
  0.3502859036992438  0.5798393084782039  0.6359463171869997   T   T   T
  0.5021252374741880  0.2764666039786778  0.4838581956221795   T   T   T
  0.6560279752566994  0.5798014215629107  0.6354000053416927   T   T   T
  0.3515242702908523  0.3513831941456098  0.5630410646518476   T   T   T
  0.5028984133332236  0.5786242727732794  0.3287577221448741   T   T   T
  0.6551440027614270  0.6549595502237023  0.4087110491421599   T   T   T
  0.5818741290708112  0.6533867082851732  0.3328915602904003   T   T   T
  0.5791076483764366  0.3459388864778389  0.4845316481495183   T   T   T
  0.4272545555347023  0.5030300020000027  0.4848499889999971   F   F   F
  0.5800934434354760  0.6607057343009385  0.4846368856989443   T   T   T
  0.5799446984001793  0.6564468654175972  0.6352351640622715   T   T   T
  0.5025999597781047  0.3469384287745599  0.4070521650513525   T   T   T
  0.4258816014699655  0.3529543188587509  0.3310095103602825   T   T   T
  0.5782032858899475  0.3499591468948658  0.6375801825697923   T   T   T
  0.5028611726816378  0.4261355050878347  0.6419431913569522   T   T   T
  0.7298555840461211  0.5008623299195911  0.4854099230592114   T   T   T
  0.3463429049676784  0.5028418850862767  0.4084743892297756   T   T   T
  0.4992900277707091  0.7398426193671696  0.3613439219078856   T   T   T
  0.5018180892895572  0.6988850016362073  0.2941753088194081   T   T   T
  0.5015261111722714  0.7360277283460874  0.3177033840138982   T   T   T
  0.5033648866173780  0.7689834943895139  0.2977587987175335   T   T   T
 
  0.00000000E+00  0.00000000E+00  0.00000000E+00
  0.00000000E+00  0.00000000E+00  0.00000000E+00
  0.00000000E+00  0.00000000E+00  0.00000000E+00
  0.00000000E+00  0.00000000E+00  0.00000000E+00
  0.00000000E+00  0.00000000E+00  0.00000000E+00
  0.00000000E+00  0.00000000E+00  0.00000000E+00
  0.00000000E+00  0.00000000E+00  0.00000000E+00
  0.00000000E+00  0.00000000E+00  0.00000000E+00
  0.00000000E+00  0.00000000E+00  0.00000000E+00
  0.00000000E+00  0.00000000E+00  0.00000000E+00
  0.00000000E+00  0.00000000E+00  0.00000000E+00
  0.00000000E+00  0.00000000E+00  0.00000000E+00
  0.00000000E+00  0.00000000E+00  0.00000000E+00
  0.00000000E+00  0.00000000E+00  0.00000000E+00
  0.00000000E+00  0.00000000E+00  0.00000000E+00
  0.00000000E+00  0.00000000E+00  0.00000000E+00
  0.00000000E+00  0.00000000E+00  0.00000000E+00
  0.00000000E+00  0.00000000E+00  0.00000000E+00
  0.00000000E+00  0.00000000E+00  0.00000000E+00
  0.00000000E+00  0.00000000E+00  0.00000000E+00
  0.00000000E+00  0.00000000E+00  0.00000000E+00
  0.00000000E+00  0.00000000E+00  0.00000000E+00
  0.00000000E+00  0.00000000E+00  0.00000000E+00
  0.00000000E+00  0.00000000E+00  0.00000000E+00
  0.00000000E+00  0.00000000E+00  0.00000000E+00
  0.00000000E+00  0.00000000E+00  0.00000000E+00
  0.00000000E+00  0.00000000E+00  0.00000000E+00
  0.00000000E+00  0.00000000E+00  0.00000000E+00
  0.00000000E+00  0.00000000E+00  0.00000000E+00
  0.00000000E+00  0.00000000E+00  0.00000000E+00
  0.00000000E+00  0.00000000E+00  0.00000000E+00
  0.00000000E+00  0.00000000E+00  0.00000000E+00
  0.00000000E+00  0.00000000E+00  0.00000000E+00
  0.00000000E+00  0.00000000E+00  0.00000000E+00
  0.00000000E+00  0.00000000E+00  0.00000000E+00
  0.00000000E+00  0.00000000E+00  0.00000000E+00
  0.00000000E+00  0.00000000E+00  0.00000000E+00
  0.00000000E+00  0.00000000E+00  0.00000000E+00
  0.00000000E+00  0.00000000E+00  0.00000000E+00
  0.00000000E+00  0.00000000E+00  0.00000000E+00
  0.00000000E+00  0.00000000E+00  0.00000000E+00
  0.00000000E+00  0.00000000E+00  0.00000000E+00
  0.00000000E+00  0.00000000E+00  0.00000000E+00
  0.00000000E+00  0.00000000E+00  0.00000000E+00
  0.00000000E+00  0.00000000E+00  0.00000000E+00
  0.00000000E+00  0.00000000E+00  0.00000000E+00
  0.00000000E+00  0.00000000E+00  0.00000000E+00
  0.00000000E+00  0.00000000E+00  0.00000000E+00
  0.00000000E+00  0.00000000E+00  0.00000000E+00
  0.00000000E+00  0.00000000E+00  0.00000000E+00
  0.00000000E+00  0.00000000E+00  0.00000000E+00
  0.00000000E+00  0.00000000E+00  0.00000000E+00
  0.00000000E+00  0.00000000E+00  0.00000000E+00
  0.00000000E+00  0.00000000E+00  0.00000000E+00
  0.00000000E+00  0.00000000E+00  0.00000000E+00
  0.00000000E+00  0.00000000E+00  0.00000000E+00
  0.00000000E+00  0.00000000E+00  0.00000000E+00
  0.00000000E+00  0.00000000E+00  0.00000000E+00
  0.00000000E+00  0.00000000E+00  0.00000000E+00
  0.00000000E+00  0.00000000E+00  0.00000000E+00
  0.00000000E+00  0.00000000E+00  0.00000000E+00
  0.00000000E+00  0.00000000E+00  0.00000000E+00
  0.00000000E+00  0.00000000E+00  0.00000000E+00
  0.00000000E+00  0.00000000E+00  0.00000000E+00
  0.00000000E+00  0.00000000E+00  0.00000000E+00
  0.00000000E+00  0.00000000E+00  0.00000000E+00
  0.00000000E+00  0.00000000E+00  0.00000000E+00
  0.00000000E+00  0.00000000E+00  0.00000000E+00
  0.00000000E+00  0.00000000E+00  0.00000000E+00
  0.00000000E+00  0.00000000E+00  0.00000000E+00
  0.00000000E+00  0.00000000E+00  0.00000000E+00
  0.00000000E+00  0.00000000E+00  0.00000000E+00
