Bi O  C  H                              
   1.00000000000000     
    29.0000000000000000    0.0000000000000000    0.0000000000000000
     0.0000000000000000   29.0000000000000000    0.0000000000000000
     0.0000000000000000    0.0000000000000000   29.0000000000000000
   Bi   O    C    H 
    68     2     1     1
Selective dynamics
Direct
  0.5031767131847193  0.5045912327181470  0.7119666652958659   T   T   T
  0.3507740721977605  0.6552648157046976  0.4081593651871134   T   T   T
  0.3460443415024521  0.5801570571424418  0.4846947149018074   T   T   T
  0.5811467705906068  0.4246732054093982  0.4064932224093951   F   F   F
  0.4244332074093933  0.4246732054093982  0.5632067865906052   F   F   F
  0.6594524512101047  0.5802206663907875  0.4841575035243362   T   T   T
  0.4251543258274214  0.5032023802637484  0.3275696214634694   T   T   T
  0.4251353994186020  0.3450570513781545  0.4859551388671536   T   T   T
  0.5798746382574513  0.5033476735453493  0.6418993473360721   T   T   T
  0.3502423151298920  0.4274479204223522  0.6366401982951376   T   T   T
  0.5026348930309851  0.6615783324095792  0.5628000518162485   T   T   T
  0.5803885143951032  0.3512060879577755  0.3333286217938177   T   T   T
  0.4261798586026893  0.6601556615325593  0.4848857859515416   T   T   T
  0.4254361410950924  0.6544963790662839  0.3323577330212190   T   T   T
  0.6607009700125461  0.5033622789725954  0.5619204721548485   T   T   T
  0.6543922334094697  0.5807256905892864  0.3325034938668559   T   T   T
  0.6556105033795074  0.3515728858578174  0.5625341613306640   T   T   T
  0.5027899740000024  0.4274945535347072  0.4848499889999971   F   F   F
  0.3459281219001974  0.4264269863242984  0.4848215121442452   T   T   T
  0.5027899740000024  0.5785654504652982  0.4848499889999971   F   F   F
  0.5027899740000024  0.5030300020000027  0.5603854384652962   F   F   F
  0.4256849785913332  0.6562817797869092  0.6367016921819840   T   T   T
  0.5783254224652978  0.5030300020000027  0.4848499889999971   F   F   F
  0.5027899836481370  0.3456617396980692  0.5624122951031888   T   T   T
  0.2756589366600498  0.5037058228411760  0.4850153209852427   T   T   T
  0.3447911224396988  0.5033232997253009  0.5625740469486777   T   T   T
  0.5024806789225095  0.5025138315344145  0.2577836630252180   T   T   T
  0.3517672855731779  0.4248743696219459  0.3320116839168471   T   T   T
  0.6535131161621452  0.4251960698653683  0.3315901039457316   T   T   T
  0.6593519018611640  0.5028885469396003  0.4076397969769740   T   T   T
  0.4244332074093933  0.4246732054093982  0.4064932224093951   F   F   F
  0.4244332074093933  0.5813867985906072  0.4064932224093951   F   F   F
  0.5811467705906068  0.5813867985906072  0.4064932224093951   F   F   F
  0.5026074704798623  0.6596944679884383  0.4076594461782497   T   T   T
  0.5026313905461421  0.7302921346317691  0.4846635670298600   T   T   T
  0.3513693028398525  0.6553371751767574  0.5623317995426077   T   T   T
  0.6594376570948683  0.4263938970516270  0.4845151540404501   T   T   T
  0.3509931704866115  0.3506406178735743  0.4087703683907926   T   T   T
  0.3501810043728889  0.5806277298928122  0.3332386068048769   T   T   T
  0.4264356142320265  0.3510407709692342  0.6360199933556405   T   T   T
  0.6559528511927807  0.4271640175431636  0.6358303726530723   T   T   T
  0.5811467705906068  0.5813867985906072  0.5632067865906052   F   F   F
  0.5027210663203776  0.4260186106697325  0.3283139309224193   T   T   T
  0.5027899740000024  0.5030300020000027  0.4093145705347041   F   F   F
  0.6542882811317710  0.6553714159774561  0.5618404879036792   T   T   T
  0.5029559493278359  0.5810551165492619  0.6418015721291691   T   T   T
  0.4244332074093933  0.5813867985906072  0.5632067865906052   F   F   F
  0.4264257060904617  0.5033217391911371  0.6416573945433943   T   T   T
  0.5802331185900877  0.5032116718216542  0.3269905070318823   T   T   T
  0.6542615087968026  0.3504712500642086  0.4086944207145257   T   T   T
  0.5811467705906068  0.4246732054093982  0.5632067865906052   F   F   F
  0.3507200248230385  0.5800179319194829  0.6365333381852494   T   T   T
  0.5025124807801694  0.2746517945646430  0.4860670743049844   T   T   T
  0.6551502341271277  0.5801886952494882  0.6361554915602470   T   T   T
  0.3498543769322793  0.3521666598095927  0.5633878057961553   T   T   T
  0.5026298506503802  0.5801158763004384  0.3271446991092298   T   T   T
  0.6539890581113080  0.6557155647790198  0.4077258536951450   T   T   T
  0.5793408089850577  0.6547826856945447  0.3321439550599699   T   T   T
  0.5804868084912712  0.3445681549375388  0.4858739020398770   T   T   T
  0.4272545555347023  0.5030300020000027  0.4848499889999971   F   F   F
  0.5792523527041855  0.6603655174080867  0.4848211117257222   T   T   T
  0.5802203320745596  0.6563992540276898  0.6363733238310927   T   T   T
  0.5027402047175890  0.3468593424569419  0.4109119895845623   T   T   T
  0.4253753389344895  0.3509988503120250  0.3334848091645695   T   T   T
  0.5797896562194705  0.3507369198161284  0.6355954500476085   T   T   T
  0.5031697268806525  0.4268619401759061  0.6419334473254465   T   T   T
  0.7296156494353561  0.5037208324325280  0.4841377195736178   T   T   T
  0.3459472172068684  0.5029020761904824  0.4082536599682265   T   T   T
  0.4986479692381743  0.2234439381729591  0.4090633937625570   T   T   T
  0.5039929668690324  0.2794497001036853  0.3536295866337975   T   T   T
  0.5016320219566985  0.2376020653967474  0.3681170891486176   T   T   T
  0.5023142972249254  0.2108493147137722  0.3403258480331129   T   T   T
 
  0.00000000E+00  0.00000000E+00  0.00000000E+00
  0.00000000E+00  0.00000000E+00  0.00000000E+00
  0.00000000E+00  0.00000000E+00  0.00000000E+00
  0.00000000E+00  0.00000000E+00  0.00000000E+00
  0.00000000E+00  0.00000000E+00  0.00000000E+00
  0.00000000E+00  0.00000000E+00  0.00000000E+00
  0.00000000E+00  0.00000000E+00  0.00000000E+00
  0.00000000E+00  0.00000000E+00  0.00000000E+00
  0.00000000E+00  0.00000000E+00  0.00000000E+00
  0.00000000E+00  0.00000000E+00  0.00000000E+00
  0.00000000E+00  0.00000000E+00  0.00000000E+00
  0.00000000E+00  0.00000000E+00  0.00000000E+00
  0.00000000E+00  0.00000000E+00  0.00000000E+00
  0.00000000E+00  0.00000000E+00  0.00000000E+00
  0.00000000E+00  0.00000000E+00  0.00000000E+00
  0.00000000E+00  0.00000000E+00  0.00000000E+00
  0.00000000E+00  0.00000000E+00  0.00000000E+00
  0.00000000E+00  0.00000000E+00  0.00000000E+00
  0.00000000E+00  0.00000000E+00  0.00000000E+00
  0.00000000E+00  0.00000000E+00  0.00000000E+00
  0.00000000E+00  0.00000000E+00  0.00000000E+00
  0.00000000E+00  0.00000000E+00  0.00000000E+00
  0.00000000E+00  0.00000000E+00  0.00000000E+00
  0.00000000E+00  0.00000000E+00  0.00000000E+00
  0.00000000E+00  0.00000000E+00  0.00000000E+00
  0.00000000E+00  0.00000000E+00  0.00000000E+00
  0.00000000E+00  0.00000000E+00  0.00000000E+00
  0.00000000E+00  0.00000000E+00  0.00000000E+00
  0.00000000E+00  0.00000000E+00  0.00000000E+00
  0.00000000E+00  0.00000000E+00  0.00000000E+00
  0.00000000E+00  0.00000000E+00  0.00000000E+00
  0.00000000E+00  0.00000000E+00  0.00000000E+00
  0.00000000E+00  0.00000000E+00  0.00000000E+00
  0.00000000E+00  0.00000000E+00  0.00000000E+00
  0.00000000E+00  0.00000000E+00  0.00000000E+00
  0.00000000E+00  0.00000000E+00  0.00000000E+00
  0.00000000E+00  0.00000000E+00  0.00000000E+00
  0.00000000E+00  0.00000000E+00  0.00000000E+00
  0.00000000E+00  0.00000000E+00  0.00000000E+00
  0.00000000E+00  0.00000000E+00  0.00000000E+00
  0.00000000E+00  0.00000000E+00  0.00000000E+00
  0.00000000E+00  0.00000000E+00  0.00000000E+00
  0.00000000E+00  0.00000000E+00  0.00000000E+00
  0.00000000E+00  0.00000000E+00  0.00000000E+00
  0.00000000E+00  0.00000000E+00  0.00000000E+00
  0.00000000E+00  0.00000000E+00  0.00000000E+00
  0.00000000E+00  0.00000000E+00  0.00000000E+00
  0.00000000E+00  0.00000000E+00  0.00000000E+00
  0.00000000E+00  0.00000000E+00  0.00000000E+00
  0.00000000E+00  0.00000000E+00  0.00000000E+00
  0.00000000E+00  0.00000000E+00  0.00000000E+00
  0.00000000E+00  0.00000000E+00  0.00000000E+00
  0.00000000E+00  0.00000000E+00  0.00000000E+00
  0.00000000E+00  0.00000000E+00  0.00000000E+00
  0.00000000E+00  0.00000000E+00  0.00000000E+00
  0.00000000E+00  0.00000000E+00  0.00000000E+00
  0.00000000E+00  0.00000000E+00  0.00000000E+00
  0.00000000E+00  0.00000000E+00  0.00000000E+00
  0.00000000E+00  0.00000000E+00  0.00000000E+00
  0.00000000E+00  0.00000000E+00  0.00000000E+00
  0.00000000E+00  0.00000000E+00  0.00000000E+00
  0.00000000E+00  0.00000000E+00  0.00000000E+00
  0.00000000E+00  0.00000000E+00  0.00000000E+00
  0.00000000E+00  0.00000000E+00  0.00000000E+00
  0.00000000E+00  0.00000000E+00  0.00000000E+00
  0.00000000E+00  0.00000000E+00  0.00000000E+00
  0.00000000E+00  0.00000000E+00  0.00000000E+00
  0.00000000E+00  0.00000000E+00  0.00000000E+00
  0.00000000E+00  0.00000000E+00  0.00000000E+00
  0.00000000E+00  0.00000000E+00  0.00000000E+00
  0.00000000E+00  0.00000000E+00  0.00000000E+00
  0.00000000E+00  0.00000000E+00  0.00000000E+00
