Bi O  C  H                              
   1.00000000000000     
    29.0000000000000000    0.0000000000000000    0.0000000000000000
     0.0000000000000000   29.0000000000000000    0.0000000000000000
     0.0000000000000000    0.0000000000000000   29.0000000000000000
   Bi   O    C    H 
    68     2     1     1
Selective dynamics
Direct
  0.5029774232850348  0.5034803397176012  0.7124459368831680   T   T   T
  0.3507253964069634  0.6549912865459703  0.4059131864212404   T   T   T
  0.3440546325193788  0.5813229089615950  0.4839429507493075   T   T   T
  0.5811467705906068  0.4246732054093982  0.4064932224093951   F   F   F
  0.4244332074093933  0.4246732054093982  0.5632067865906052   F   F   F
  0.6594313604145076  0.5842607297143426  0.4839595831995410   T   T   T
  0.4255979533077098  0.5017311863707066  0.3284614532304348   T   T   T
  0.4251331222993023  0.3455756694705108  0.4854702793807427   T   T   T
  0.5799757827369731  0.5032501714290112  0.6422667181855852   T   T   T
  0.3501354529651928  0.4275822392008971  0.6368531485815038   T   T   T
  0.5017041021807706  0.6595022471915476  0.5619259742927722   T   T   T
  0.5803279465859638  0.3482530151619724  0.3358419059507141   T   T   T
  0.4242059199402762  0.6594326616567805  0.4855583671526814   T   T   T
  0.4274884592658608  0.6546097445152599  0.3320860242294388   T   T   T
  0.6587980391936643  0.5051665751314139  0.5598608038431777   T   T   T
  0.6521903231741807  0.5821643036282050  0.3319319703613517   T   T   T
  0.6551626878973013  0.3515415657433045  0.5614416792806929   T   T   T
  0.5027899740000024  0.4274945535347072  0.4848499889999971   F   F   F
  0.3460394135267278  0.4263452875107395  0.4843740034840044   T   T   T
  0.5027899740000024  0.5785654504652982  0.4848499889999971   F   F   F
  0.5027899740000024  0.5030300020000027  0.5603854384652962   F   F   F
  0.4250189828836230  0.6536152979004239  0.6386119704060825   T   T   T
  0.5783254224652978  0.5030300020000027  0.4848499889999971   F   F   F
  0.5020499485993404  0.3468907908553712  0.5621303654932721   T   T   T
  0.2756376586805722  0.5034027891249927  0.4839636303360142   T   T   T
  0.3465893499049480  0.5037390021566170  0.5605188229550765   T   T   T
  0.5013917720341113  0.5008573128906008  0.2577598440481202   T   T   T
  0.3498056381582822  0.4251173383341246  0.3336629343793320   T   T   T
  0.6545590135150697  0.4254351433739384  0.3333539020978470   T   T   T
  0.6602826557267342  0.5041308707883546  0.4052368272632578   T   T   T
  0.4244332074093933  0.4246732054093982  0.4064932224093951   F   F   F
  0.4244332074093933  0.5813867985906072  0.4064932224093951   F   F   F
  0.5811467705906068  0.5813867985906072  0.4064932224093951   F   F   F
  0.5021772084538582  0.6597810307338799  0.4085021966076154   T   T   T
  0.4998345833324814  0.7302224191514544  0.4857369901102194   T   T   T
  0.3488736892236459  0.6533065274447785  0.5625024292007788   T   T   T
  0.6601509849515671  0.4299615262388580  0.4846094025359454   T   T   T
  0.3506641319538812  0.3503016822663259  0.4078537470803292   T   T   T
  0.3512633459929183  0.5801081684491923  0.3323309528214756   T   T   T
  0.4240139715528559  0.3528440691781521  0.6377795647297967   T   T   T
  0.6559981186618251  0.4270155484554035  0.6353532833344702   T   T   T
  0.5811467705906068  0.5813867985906072  0.5632067865906052   F   F   F
  0.5025575053550144  0.4246189543673320  0.3282210426151542   T   T   T
  0.5027899740000024  0.5030300020000027  0.4093145705347041   F   F   F
  0.6536870823488836  0.6561842964091013  0.5616831988491738   T   T   T
  0.5024550902749041  0.5809099174172968  0.6429854320742797   T   T   T
  0.4244332074093933  0.5813867985906072  0.5632067865906052   F   F   F
  0.4259898855606857  0.5027102048365725  0.6421336916683026   T   T   T
  0.5792277782079298  0.5017897666174523  0.3271344388598241   T   T   T
  0.6552271727890042  0.3514539133951142  0.4095474809581355   T   T   T
  0.5811467705906068  0.4246732054093982  0.5632067865906052   F   F   F
  0.3507274089001944  0.5796551822781388  0.6376009320897583   T   T   T
  0.5024693524665457  0.2759986917070360  0.4859478779334819   T   T   T
  0.6537045445353389  0.5815443880776900  0.6375374365410788   T   T   T
  0.3503578000256679  0.3514370020227290  0.5617997282966610   T   T   T
  0.5029184096592754  0.5789542063282621  0.3275749717698178   T   T   T
  0.6519624098647930  0.6570872701361444  0.4064032773591579   T   T   T
  0.5755853772982341  0.6560991358836716  0.3317727802365683   T   T   T
  0.5795792978485208  0.3462486813812609  0.4851950454126286   T   T   T
  0.4272545555347023  0.5030300020000027  0.4848499889999971   F   F   F
  0.5782089003452423  0.6614568978012224  0.4855795586986819   T   T   T
  0.5787447148647943  0.6544689984349665  0.6382985182039383   T   T   T
  0.5023017724057505  0.3447998521966988  0.4078554431924787   T   T   T
  0.4253004011927974  0.3493211026888718  0.3337484418812002   T   T   T
  0.5828216710816624  0.3515751898604953  0.6362787038037668   T   T   T
  0.5030512069468532  0.4269310887361202  0.6420132965026184   T   T   T
  0.7288166369940994  0.5095581675687989  0.4819132084293418   T   T   T
  0.3448454721914348  0.5032100163340364  0.4068307589810953   T   T   T
  0.7409161294780767  0.4446065509182778  0.5728672750887105   T   T   T
  0.7383183207312930  0.3924923320161372  0.5137848416710173   T   T   T
  0.7579882778624207  0.4138659924327788  0.5472284842871673   T   T   T
  0.7946482980729160  0.4036792551861122  0.5537757331408436   T   T   T
 
  0.00000000E+00  0.00000000E+00  0.00000000E+00
  0.00000000E+00  0.00000000E+00  0.00000000E+00
  0.00000000E+00  0.00000000E+00  0.00000000E+00
  0.00000000E+00  0.00000000E+00  0.00000000E+00
  0.00000000E+00  0.00000000E+00  0.00000000E+00
  0.00000000E+00  0.00000000E+00  0.00000000E+00
  0.00000000E+00  0.00000000E+00  0.00000000E+00
  0.00000000E+00  0.00000000E+00  0.00000000E+00
  0.00000000E+00  0.00000000E+00  0.00000000E+00
  0.00000000E+00  0.00000000E+00  0.00000000E+00
  0.00000000E+00  0.00000000E+00  0.00000000E+00
  0.00000000E+00  0.00000000E+00  0.00000000E+00
  0.00000000E+00  0.00000000E+00  0.00000000E+00
  0.00000000E+00  0.00000000E+00  0.00000000E+00
  0.00000000E+00  0.00000000E+00  0.00000000E+00
  0.00000000E+00  0.00000000E+00  0.00000000E+00
  0.00000000E+00  0.00000000E+00  0.00000000E+00
  0.00000000E+00  0.00000000E+00  0.00000000E+00
  0.00000000E+00  0.00000000E+00  0.00000000E+00
  0.00000000E+00  0.00000000E+00  0.00000000E+00
  0.00000000E+00  0.00000000E+00  0.00000000E+00
  0.00000000E+00  0.00000000E+00  0.00000000E+00
  0.00000000E+00  0.00000000E+00  0.00000000E+00
  0.00000000E+00  0.00000000E+00  0.00000000E+00
  0.00000000E+00  0.00000000E+00  0.00000000E+00
  0.00000000E+00  0.00000000E+00  0.00000000E+00
  0.00000000E+00  0.00000000E+00  0.00000000E+00
  0.00000000E+00  0.00000000E+00  0.00000000E+00
  0.00000000E+00  0.00000000E+00  0.00000000E+00
  0.00000000E+00  0.00000000E+00  0.00000000E+00
  0.00000000E+00  0.00000000E+00  0.00000000E+00
  0.00000000E+00  0.00000000E+00  0.00000000E+00
  0.00000000E+00  0.00000000E+00  0.00000000E+00
  0.00000000E+00  0.00000000E+00  0.00000000E+00
  0.00000000E+00  0.00000000E+00  0.00000000E+00
  0.00000000E+00  0.00000000E+00  0.00000000E+00
  0.00000000E+00  0.00000000E+00  0.00000000E+00
  0.00000000E+00  0.00000000E+00  0.00000000E+00
  0.00000000E+00  0.00000000E+00  0.00000000E+00
  0.00000000E+00  0.00000000E+00  0.00000000E+00
  0.00000000E+00  0.00000000E+00  0.00000000E+00
  0.00000000E+00  0.00000000E+00  0.00000000E+00
  0.00000000E+00  0.00000000E+00  0.00000000E+00
  0.00000000E+00  0.00000000E+00  0.00000000E+00
  0.00000000E+00  0.00000000E+00  0.00000000E+00
  0.00000000E+00  0.00000000E+00  0.00000000E+00
  0.00000000E+00  0.00000000E+00  0.00000000E+00
  0.00000000E+00  0.00000000E+00  0.00000000E+00
  0.00000000E+00  0.00000000E+00  0.00000000E+00
  0.00000000E+00  0.00000000E+00  0.00000000E+00
  0.00000000E+00  0.00000000E+00  0.00000000E+00
  0.00000000E+00  0.00000000E+00  0.00000000E+00
  0.00000000E+00  0.00000000E+00  0.00000000E+00
  0.00000000E+00  0.00000000E+00  0.00000000E+00
  0.00000000E+00  0.00000000E+00  0.00000000E+00
  0.00000000E+00  0.00000000E+00  0.00000000E+00
  0.00000000E+00  0.00000000E+00  0.00000000E+00
  0.00000000E+00  0.00000000E+00  0.00000000E+00
  0.00000000E+00  0.00000000E+00  0.00000000E+00
  0.00000000E+00  0.00000000E+00  0.00000000E+00
  0.00000000E+00  0.00000000E+00  0.00000000E+00
  0.00000000E+00  0.00000000E+00  0.00000000E+00
  0.00000000E+00  0.00000000E+00  0.00000000E+00
  0.00000000E+00  0.00000000E+00  0.00000000E+00
  0.00000000E+00  0.00000000E+00  0.00000000E+00
  0.00000000E+00  0.00000000E+00  0.00000000E+00
  0.00000000E+00  0.00000000E+00  0.00000000E+00
  0.00000000E+00  0.00000000E+00  0.00000000E+00
  0.00000000E+00  0.00000000E+00  0.00000000E+00
  0.00000000E+00  0.00000000E+00  0.00000000E+00
  0.00000000E+00  0.00000000E+00  0.00000000E+00
  0.00000000E+00  0.00000000E+00  0.00000000E+00
