Bi O  C  H                              
   1.00000000000000     
    29.0000000000000000    0.0000000000000000    0.0000000000000000
     0.0000000000000000   29.0000000000000000    0.0000000000000000
     0.0000000000000000    0.0000000000000000   29.0000000000000000
   Bi   O    C    H 
    68     2     1     1
Selective dynamics
Direct
  0.5033693170558678  0.5035554468032731  0.7117302002733031   T   T   T
  0.3500557265416211  0.6541325897829068  0.4079469767377064   T   T   T
  0.3449136496632277  0.5811801109901985  0.4851224378745554   T   T   T
  0.5811467705906068  0.4246732054093982  0.4064932224093951   F   F   F
  0.4244332074093933  0.4246732054093982  0.5632067865906052   F   F   F
  0.6607400350836286  0.5800199190240737  0.4850343570391826   T   T   T
  0.4254688179713946  0.5033113623804577  0.3272075186647079   T   T   T
  0.4248556333283078  0.3466512096993271  0.4850241189519396   T   T   T
  0.5801890276450211  0.5025695148305023  0.6423208349361959   T   T   T
  0.3505492594044708  0.4267320915527411  0.6365911339330194   T   T   T
  0.5030452119447615  0.6602270537651456  0.5611515116286442   T   T   T
  0.5809440936183052  0.3507757518404607  0.3342718410686431   T   T   T
  0.4265677353221186  0.6595885181902779  0.4835870123095503   T   T   T
  0.4260647243999198  0.6526822955384104  0.3306642370384965   T   T   T
  0.6599889459825420  0.5020972548066183  0.5626444400830808   T   T   T
  0.6553869549081166  0.5790487600867190  0.3327380746151161   T   T   T
  0.6532276949141647  0.3487047034875863  0.5622734376014161   T   T   T
  0.5027899740000024  0.4274945535347072  0.4848499889999971   F   F   F
  0.3452125060360205  0.4267326869832634  0.4855405815155826   T   T   T
  0.5027899740000024  0.5785654504652982  0.4848499889999971   F   F   F
  0.5027899740000024  0.5030300020000027  0.5603854384652962   F   F   F
  0.4274271582221791  0.6563028016388980  0.6370863624214597   T   T   T
  0.5783254224652978  0.5030300020000027  0.4848499889999971   F   F   F
  0.5020683191485281  0.3450618509755543  0.5624318934695125   T   T   T
  0.2755437531653621  0.5043378500079300  0.4860835754855284   T   T   T
  0.3452511956298062  0.5037003705173648  0.5628901461694348   T   T   T
  0.5032567870735237  0.5028535034387157  0.2572452795450230   T   T   T
  0.3501231222033544  0.4271897196864723  0.3329533664154447   T   T   T
  0.6543002891556704  0.4252526291355286  0.3326299853944660   T   T   T
  0.6588803078269081  0.5023905807131657  0.4088625830163781   T   T   T
  0.4244332074093933  0.4246732054093982  0.4064932224093951   F   F   F
  0.4244332074093933  0.5813867985906072  0.4064932224093951   F   F   F
  0.5811467705906068  0.5813867985906072  0.4064932224093951   F   F   F
  0.5027696111052226  0.6594066675249136  0.4063084253431466   T   T   T
  0.5032774872971040  0.7296835774465978  0.4834896745481610   T   T   T
  0.3521202632470803  0.6555451275770988  0.5621419094138339   T   T   T
  0.6584275051116248  0.4252438830202981  0.4849699933009105   T   T   T
  0.3502230853711209  0.3519740330730858  0.4077239162457837   T   T   T
  0.3500200052447320  0.5804215676945395  0.3332036108978587   T   T   T
  0.4259311863098614  0.3505033584094314  0.6366876910989197   T   T   T
  0.6539269729885600  0.4247648131090535  0.6369567261570640   T   T   T
  0.5811467705906068  0.5813867985906072  0.5632067865906052   F   F   F
  0.5023779469178040  0.4279123147596316  0.3293570704124398   T   T   T
  0.5027899740000024  0.5030300020000027  0.4093145705347041   F   F   F
  0.6538030763484528  0.6554655078322990  0.5612996990313670   T   T   T
  0.5031656497524365  0.5807478797342506  0.6419574926231545   T   T   T
  0.4244332074093933  0.5813867985906072  0.5632067865906052   F   F   F
  0.4267528985350980  0.5033308174375983  0.6415429854407315   T   T   T
  0.5807475077737623  0.5026996885155277  0.3265144610501911   T   T   T
  0.6534353960296144  0.3483676668249318  0.4094229186206987   T   T   T
  0.5811467705906068  0.4246732054093982  0.5632067865906052   F   F   F
  0.3521496359523233  0.5816834971009309  0.6374911921993789   T   T   T
  0.5009120314333660  0.2757966220114101  0.4849984887381309   T   T   T
  0.6536325426861181  0.5812846554463386  0.6365167088672606   T   T   T
  0.3497054563731347  0.3520056439661517  0.5633608034789487   T   T   T
  0.5030559875455334  0.5800633328690744  0.3257019791969043   T   T   T
  0.6556258281499517  0.6539773484648519  0.4078077153786962   T   T   T
  0.5805748151490010  0.6528032917528050  0.3310686574686583   T   T   T
  0.5794714502919540  0.3443544517068234  0.4857146705271649   T   T   T
  0.4272545555347023  0.5030300020000027  0.4848499889999971   F   F   F
  0.5797612421240111  0.6598291935503853  0.4834904907880062   T   T   T
  0.5794662038903073  0.6564982078626613  0.6366782654966905   T   T   T
  0.5021097399188209  0.3467474006064905  0.4089991674637121   T   T   T
  0.4251094389278729  0.3518774984505280  0.3329455680457533   T   T   T
  0.5785026236549933  0.3495787154126039  0.6363797130570041   T   T   T
  0.5025739244657577  0.4258521731931966  0.6417750702665063   T   T   T
  0.7293027247541042  0.5020992932958368  0.4861070246217997   T   T   T
  0.3461148397858374  0.5031287082204197  0.4089702658822757   T   T   T
  0.5372755169906196  0.3879883175250601  0.2494080927979157   T   T   T
  0.5041105433128854  0.3223466486356477  0.2768398839324706   T   T   T
  0.5183123955788348  0.3485343838218945  0.2446825358169488   T   T   T
  0.5145291233174422  0.3356020446692788  0.2086030806619456   T   T   T
 
  0.00000000E+00  0.00000000E+00  0.00000000E+00
  0.00000000E+00  0.00000000E+00  0.00000000E+00
  0.00000000E+00  0.00000000E+00  0.00000000E+00
  0.00000000E+00  0.00000000E+00  0.00000000E+00
  0.00000000E+00  0.00000000E+00  0.00000000E+00
  0.00000000E+00  0.00000000E+00  0.00000000E+00
  0.00000000E+00  0.00000000E+00  0.00000000E+00
  0.00000000E+00  0.00000000E+00  0.00000000E+00
  0.00000000E+00  0.00000000E+00  0.00000000E+00
  0.00000000E+00  0.00000000E+00  0.00000000E+00
  0.00000000E+00  0.00000000E+00  0.00000000E+00
  0.00000000E+00  0.00000000E+00  0.00000000E+00
  0.00000000E+00  0.00000000E+00  0.00000000E+00
  0.00000000E+00  0.00000000E+00  0.00000000E+00
  0.00000000E+00  0.00000000E+00  0.00000000E+00
  0.00000000E+00  0.00000000E+00  0.00000000E+00
  0.00000000E+00  0.00000000E+00  0.00000000E+00
  0.00000000E+00  0.00000000E+00  0.00000000E+00
  0.00000000E+00  0.00000000E+00  0.00000000E+00
  0.00000000E+00  0.00000000E+00  0.00000000E+00
  0.00000000E+00  0.00000000E+00  0.00000000E+00
  0.00000000E+00  0.00000000E+00  0.00000000E+00
  0.00000000E+00  0.00000000E+00  0.00000000E+00
  0.00000000E+00  0.00000000E+00  0.00000000E+00
  0.00000000E+00  0.00000000E+00  0.00000000E+00
  0.00000000E+00  0.00000000E+00  0.00000000E+00
  0.00000000E+00  0.00000000E+00  0.00000000E+00
  0.00000000E+00  0.00000000E+00  0.00000000E+00
  0.00000000E+00  0.00000000E+00  0.00000000E+00
  0.00000000E+00  0.00000000E+00  0.00000000E+00
  0.00000000E+00  0.00000000E+00  0.00000000E+00
  0.00000000E+00  0.00000000E+00  0.00000000E+00
  0.00000000E+00  0.00000000E+00  0.00000000E+00
  0.00000000E+00  0.00000000E+00  0.00000000E+00
  0.00000000E+00  0.00000000E+00  0.00000000E+00
  0.00000000E+00  0.00000000E+00  0.00000000E+00
  0.00000000E+00  0.00000000E+00  0.00000000E+00
  0.00000000E+00  0.00000000E+00  0.00000000E+00
  0.00000000E+00  0.00000000E+00  0.00000000E+00
  0.00000000E+00  0.00000000E+00  0.00000000E+00
  0.00000000E+00  0.00000000E+00  0.00000000E+00
  0.00000000E+00  0.00000000E+00  0.00000000E+00
  0.00000000E+00  0.00000000E+00  0.00000000E+00
  0.00000000E+00  0.00000000E+00  0.00000000E+00
  0.00000000E+00  0.00000000E+00  0.00000000E+00
  0.00000000E+00  0.00000000E+00  0.00000000E+00
  0.00000000E+00  0.00000000E+00  0.00000000E+00
  0.00000000E+00  0.00000000E+00  0.00000000E+00
  0.00000000E+00  0.00000000E+00  0.00000000E+00
  0.00000000E+00  0.00000000E+00  0.00000000E+00
  0.00000000E+00  0.00000000E+00  0.00000000E+00
  0.00000000E+00  0.00000000E+00  0.00000000E+00
  0.00000000E+00  0.00000000E+00  0.00000000E+00
  0.00000000E+00  0.00000000E+00  0.00000000E+00
  0.00000000E+00  0.00000000E+00  0.00000000E+00
  0.00000000E+00  0.00000000E+00  0.00000000E+00
  0.00000000E+00  0.00000000E+00  0.00000000E+00
  0.00000000E+00  0.00000000E+00  0.00000000E+00
  0.00000000E+00  0.00000000E+00  0.00000000E+00
  0.00000000E+00  0.00000000E+00  0.00000000E+00
  0.00000000E+00  0.00000000E+00  0.00000000E+00
  0.00000000E+00  0.00000000E+00  0.00000000E+00
  0.00000000E+00  0.00000000E+00  0.00000000E+00
  0.00000000E+00  0.00000000E+00  0.00000000E+00
  0.00000000E+00  0.00000000E+00  0.00000000E+00
  0.00000000E+00  0.00000000E+00  0.00000000E+00
  0.00000000E+00  0.00000000E+00  0.00000000E+00
  0.00000000E+00  0.00000000E+00  0.00000000E+00
  0.00000000E+00  0.00000000E+00  0.00000000E+00
  0.00000000E+00  0.00000000E+00  0.00000000E+00
  0.00000000E+00  0.00000000E+00  0.00000000E+00
  0.00000000E+00  0.00000000E+00  0.00000000E+00
