Bi O  C  H                              
   1.00000000000000     
    29.0000000000000000    0.0000000000000000    0.0000000000000000
     0.0000000000000000   29.0000000000000000    0.0000000000000000
     0.0000000000000000    0.0000000000000000   29.0000000000000000
   Bi   O    C    H 
    68     2     1     1
Selective dynamics
Direct
  0.5035149207687836  0.5033248669808746  0.7120774735017638   T   T   T
  0.3505840977523509  0.6548430101199931  0.4067792216755260   T   T   T
  0.3461764617129919  0.5800279649579325  0.4843898211572586   T   T   T
  0.5811467705906068  0.4246732054093982  0.4064932224093951   F   F   F
  0.4244332074093933  0.4246732054093982  0.5632067865906052   F   F   F
  0.6593207217329519  0.5790411674696534  0.4848262145077289   T   T   T
  0.4269636145813234  0.5032295512170065  0.3285933697704334   T   T   T
  0.4259362475644435  0.3466619386260058  0.4848438753591719   T   T   T
  0.5802553876211973  0.5032677997750129  0.6427882959367294   T   T   T
  0.3506389638262335  0.4263807843432735  0.6365134767545565   T   T   T
  0.5013002441802651  0.6595717669142003  0.5619596916053980   T   T   T
  0.5803695711648159  0.3512368191329061  0.3327361771936954   T   T   T
  0.4254370316706889  0.6596939729001025  0.4848068661442198   T   T   T
  0.4257937724737670  0.6544255680508787  0.3326261465220741   T   T   T
  0.6590897950908751  0.5031516485670424  0.5619831532657413   T   T   T
  0.6552206790011802  0.5795023866124556  0.3332106518917123   T   T   T
  0.6542440882590298  0.3506262003312006  0.5617285130794585   T   T   T
  0.5027899740000024  0.4274945535347072  0.4848499889999971   F   F   F
  0.3445011930070180  0.4250453006582229  0.4849932902060589   T   T   T
  0.5027899740000024  0.5785654504652982  0.4848499889999971   F   F   F
  0.5027899740000024  0.5030300020000027  0.5603854384652962   F   F   F
  0.4237550450786300  0.6539871856519367  0.6387070482100502   T   T   T
  0.5783254224652978  0.5030300020000027  0.4848499889999971   F   F   F
  0.5025137759521858  0.3463855993383612  0.5620957307655350   T   T   T
  0.2759629371397541  0.5027287234960545  0.4850488245921361   T   T   T
  0.3468144204642814  0.5035769050080100  0.5616097025179992   T   T   T
  0.5041946604666019  0.5025249014754813  0.2577336274983557   T   T   T
  0.3510262905544821  0.4255366224010573  0.3329500094623208   T   T   T
  0.6553414430794897  0.4250487031156564  0.3326598376297109   T   T   T
  0.6595751853768012  0.5025093957432971  0.4078921544681680   T   T   T
  0.4244332074093933  0.4246732054093982  0.4064932224093951   F   F   F
  0.4244332074093933  0.5813867985906072  0.4064932224093951   F   F   F
  0.5811467705906068  0.5813867985906072  0.4064932224093951   F   F   F
  0.5023776723942631  0.6604291566766219  0.4074896748043405   T   T   T
  0.5029120781429073  0.7298786520242406  0.4843954053027939   T   T   T
  0.3503749217382332  0.6540393198454149  0.5638467518327923   T   T   T
  0.6600188474828244  0.4249165386819065  0.4853139813128121   T   T   T
  0.3499293329649820  0.3520227997258955  0.4075876608158115   T   T   T
  0.3505343202706595  0.5792774720035656  0.3328241257582335   T   T   T
  0.4260470592473661  0.3520338370547484  0.6381905989635417   T   T   T
  0.6535658413085554  0.4249818871524648  0.6378138789639796   T   T   T
  0.5811467705906068  0.5813867985906072  0.5632067865906052   F   F   F
  0.5032698785541491  0.4253603389548915  0.3270703605812858   T   T   T
  0.5027899740000024  0.5030300020000027  0.4093145705347041   F   F   F
  0.6543572658438074  0.6556268367112598  0.5614679947232510   T   T   T
  0.5031732238010769  0.5799634225172854  0.6413691427579694   T   T   T
  0.4244332074093933  0.5813867985906072  0.5632067865906052   F   F   F
  0.4265870556732870  0.5035954293900424  0.6409899359268700   T   T   T
  0.5812082315944582  0.5027255442604092  0.3272188074987206   T   T   T
  0.6547087810144588  0.3507886251453050  0.4085809261298973   T   T   T
  0.5811467705906068  0.4246732054093982  0.5632067865906052   F   F   F
  0.3489249101573882  0.5813649664070459  0.6393432825628860   T   T   T
  0.5024921600332842  0.2763800917122417  0.4849915089054438   T   T   T
  0.6540522559452071  0.5805479561796099  0.6373393159391467   T   T   T
  0.3502005304822726  0.3517972489587228  0.5624967550755977   T   T   T
  0.5035064839528293  0.5792665966112570  0.3280575255252939   T   T   T
  0.6540370492288636  0.6560927083418907  0.4084487841750180   T   T   T
  0.5810641348076733  0.6554133624992606  0.3337628516071350   T   T   T
  0.5798052677678431  0.3456388975967707  0.4851706039527188   T   T   T
  0.4272545555347023  0.5030300020000027  0.4848499889999971   F   F   F
  0.5799800622169277  0.6606771119650074  0.4850643907389229   T   T   T
  0.5799862071871380  0.6561562984404445  0.6356333800899829   T   T   T
  0.5025801798789246  0.3464000269690446  0.4078925905974549   T   T   T
  0.4266905924312618  0.3516993256743351  0.3320990568305182   T   T   T
  0.5792770141840664  0.3515100245568248  0.6382499519349052   T   T   T
  0.5027476885715809  0.4257115341461936  0.6432008783373467   T   T   T
  0.7293203832227679  0.5016899776916549  0.4851437759534861   T   T   T
  0.3452715288502905  0.5029902127065312  0.4078895234158768   T   T   T
  0.3003763708840014  0.6089799256019545  0.7016660887065159   T   T   T
  0.3498968855805448  0.6704733369575635  0.7022295172675956   T   T   T
  0.3149990151325845  0.6486381443311596  0.7157556571874325   T   T   T
  0.2931529303845538  0.6644977686378529  0.7432206238455131   T   T   T
 
  0.00000000E+00  0.00000000E+00  0.00000000E+00
  0.00000000E+00  0.00000000E+00  0.00000000E+00
  0.00000000E+00  0.00000000E+00  0.00000000E+00
  0.00000000E+00  0.00000000E+00  0.00000000E+00
  0.00000000E+00  0.00000000E+00  0.00000000E+00
  0.00000000E+00  0.00000000E+00  0.00000000E+00
  0.00000000E+00  0.00000000E+00  0.00000000E+00
  0.00000000E+00  0.00000000E+00  0.00000000E+00
  0.00000000E+00  0.00000000E+00  0.00000000E+00
  0.00000000E+00  0.00000000E+00  0.00000000E+00
  0.00000000E+00  0.00000000E+00  0.00000000E+00
  0.00000000E+00  0.00000000E+00  0.00000000E+00
  0.00000000E+00  0.00000000E+00  0.00000000E+00
  0.00000000E+00  0.00000000E+00  0.00000000E+00
  0.00000000E+00  0.00000000E+00  0.00000000E+00
  0.00000000E+00  0.00000000E+00  0.00000000E+00
  0.00000000E+00  0.00000000E+00  0.00000000E+00
  0.00000000E+00  0.00000000E+00  0.00000000E+00
  0.00000000E+00  0.00000000E+00  0.00000000E+00
  0.00000000E+00  0.00000000E+00  0.00000000E+00
  0.00000000E+00  0.00000000E+00  0.00000000E+00
  0.00000000E+00  0.00000000E+00  0.00000000E+00
  0.00000000E+00  0.00000000E+00  0.00000000E+00
  0.00000000E+00  0.00000000E+00  0.00000000E+00
  0.00000000E+00  0.00000000E+00  0.00000000E+00
  0.00000000E+00  0.00000000E+00  0.00000000E+00
  0.00000000E+00  0.00000000E+00  0.00000000E+00
  0.00000000E+00  0.00000000E+00  0.00000000E+00
  0.00000000E+00  0.00000000E+00  0.00000000E+00
  0.00000000E+00  0.00000000E+00  0.00000000E+00
  0.00000000E+00  0.00000000E+00  0.00000000E+00
  0.00000000E+00  0.00000000E+00  0.00000000E+00
  0.00000000E+00  0.00000000E+00  0.00000000E+00
  0.00000000E+00  0.00000000E+00  0.00000000E+00
  0.00000000E+00  0.00000000E+00  0.00000000E+00
  0.00000000E+00  0.00000000E+00  0.00000000E+00
  0.00000000E+00  0.00000000E+00  0.00000000E+00
  0.00000000E+00  0.00000000E+00  0.00000000E+00
  0.00000000E+00  0.00000000E+00  0.00000000E+00
  0.00000000E+00  0.00000000E+00  0.00000000E+00
  0.00000000E+00  0.00000000E+00  0.00000000E+00
  0.00000000E+00  0.00000000E+00  0.00000000E+00
  0.00000000E+00  0.00000000E+00  0.00000000E+00
  0.00000000E+00  0.00000000E+00  0.00000000E+00
  0.00000000E+00  0.00000000E+00  0.00000000E+00
  0.00000000E+00  0.00000000E+00  0.00000000E+00
  0.00000000E+00  0.00000000E+00  0.00000000E+00
  0.00000000E+00  0.00000000E+00  0.00000000E+00
  0.00000000E+00  0.00000000E+00  0.00000000E+00
  0.00000000E+00  0.00000000E+00  0.00000000E+00
  0.00000000E+00  0.00000000E+00  0.00000000E+00
  0.00000000E+00  0.00000000E+00  0.00000000E+00
  0.00000000E+00  0.00000000E+00  0.00000000E+00
  0.00000000E+00  0.00000000E+00  0.00000000E+00
  0.00000000E+00  0.00000000E+00  0.00000000E+00
  0.00000000E+00  0.00000000E+00  0.00000000E+00
  0.00000000E+00  0.00000000E+00  0.00000000E+00
  0.00000000E+00  0.00000000E+00  0.00000000E+00
  0.00000000E+00  0.00000000E+00  0.00000000E+00
  0.00000000E+00  0.00000000E+00  0.00000000E+00
  0.00000000E+00  0.00000000E+00  0.00000000E+00
  0.00000000E+00  0.00000000E+00  0.00000000E+00
  0.00000000E+00  0.00000000E+00  0.00000000E+00
  0.00000000E+00  0.00000000E+00  0.00000000E+00
  0.00000000E+00  0.00000000E+00  0.00000000E+00
  0.00000000E+00  0.00000000E+00  0.00000000E+00
  0.00000000E+00  0.00000000E+00  0.00000000E+00
  0.00000000E+00  0.00000000E+00  0.00000000E+00
  0.00000000E+00  0.00000000E+00  0.00000000E+00
  0.00000000E+00  0.00000000E+00  0.00000000E+00
  0.00000000E+00  0.00000000E+00  0.00000000E+00
  0.00000000E+00  0.00000000E+00  0.00000000E+00
