Bi O  C  H                              
   1.00000000000000     
    29.0000000000000000    0.0000000000000000    0.0000000000000000
     0.0000000000000000   29.0000000000000000    0.0000000000000000
     0.0000000000000000    0.0000000000000000   29.0000000000000000
   Bi   O    C    H 
    68     2     1     1
Selective dynamics
Direct
  0.5024081041245275  0.5032319287670437  0.7119059121180004   T   T   T
  0.3508839154004412  0.6555606760030998  0.4077155866584795   T   T   T
  0.3460060580786233  0.5800375256784287  0.4848628465064525   T   T   T
  0.5811467705906068  0.4246732054093982  0.4064932224093951   F   F   F
  0.4244332074093933  0.4246732054093982  0.5632067865906052   F   F   F
  0.6589857767782470  0.5765551467371146  0.4850444340004957   T   T   T
  0.4256027337736182  0.5035568327074370  0.3278097307853202   T   T   T
  0.4243526883935271  0.3462128814672951  0.4849146591631632   T   T   T
  0.5793541530217731  0.5031924138035540  0.6416692802511245   T   T   T
  0.3506350258032995  0.4259300223208960  0.6365234034202092   T   T   T
  0.5020208812243292  0.6604401802024161  0.5623650228643935   T   T   T
  0.5777279755516431  0.3510459145681455  0.3320610557530290   T   T   T
  0.4252144418790179  0.6604864981862817  0.4846768166973370   T   T   T
  0.4248818975513339  0.6544179059061744  0.3325248496169665   T   T   T
  0.6608411495764318  0.5014731241481024  0.5629365353779557   T   T   T
  0.6554375015658973  0.5791315608144556  0.3333522301678601   T   T   T
  0.6540174879626588  0.3510756165202637  0.5617261202879784   T   T   T
  0.5027899740000024  0.4274945535347072  0.4848499889999971   F   F   F
  0.3443818304538413  0.4248925304740338  0.4847752437953508   T   T   T
  0.5027899740000024  0.5785654504652982  0.4848499889999971   F   F   F
  0.5027899740000024  0.5030300020000027  0.5603854384652962   F   F   F
  0.4247719580275895  0.6549434255256807  0.6370712645532517   T   T   T
  0.5783254224652978  0.5030300020000027  0.4848499889999971   F   F   F
  0.5021542007702151  0.3460933653521652  0.5616214319500520   T   T   T
  0.2755929044152659  0.5028949279172114  0.4850686211931360   T   T   T
  0.3456600778170609  0.5027653859203171  0.5614699168372380   T   T   T
  0.5024158160577558  0.5031057570990963  0.2575839194263453   T   T   T
  0.3507830895759793  0.4260011813763281  0.3331121444524194   T   T   T
  0.6535459682818071  0.4239436421354051  0.3320746706223355   T   T   T
  0.6609067883080664  0.5015756777693847  0.4072537434320259   T   T   T
  0.4244332074093933  0.4246732054093982  0.4064932224093951   F   F   F
  0.4244332074093933  0.5813867985906072  0.4064932224093951   F   F   F
  0.5811467705906068  0.5813867985906072  0.4064932224093951   F   F   F
  0.5026184205062567  0.6601549877428190  0.4072478848561034   T   T   T
  0.5028853437514251  0.7297508490740848  0.4847062174228403   T   T   T
  0.3510108127028017  0.6555567023724820  0.5618217573451280   T   T   T
  0.6596414132822400  0.4246405094439866  0.4850029798960204   T   T   T
  0.3497734990882792  0.3510276508368789  0.4070619516383498   T   T   T
  0.3499754295781854  0.5797728135436367  0.3332746869939345   T   T   T
  0.4257544558449824  0.3512472313812918  0.6369974276552405   T   T   T
  0.6535017255384798  0.4241249611691122  0.6379723383297128   T   T   T
  0.5811467705906068  0.5813867985906072  0.5632067865906052   F   F   F
  0.5024642847465078  0.4256631779107142  0.3270102931171743   T   T   T
  0.5027899740000024  0.5030300020000027  0.4093145705347041   F   F   F
  0.6545668907334644  0.6543825643049874  0.5624527298700973   T   T   T
  0.5027727346957050  0.5799536568962619  0.6416309232894766   T   T   T
  0.4244332074093933  0.5813867985906072  0.5632067865906052   F   F   F
  0.4257459089982943  0.5035136941295100  0.6417270027271926   T   T   T
  0.5795157510271044  0.5030410485881345  0.3278940036098882   T   T   T
  0.6538323728950843  0.3509579657780312  0.4082997113790937   T   T   T
  0.5811467705906068  0.4246732054093982  0.5632067865906052   F   F   F
  0.3501182680711588  0.5797471186425444  0.6363398798769621   T   T   T
  0.5003281182621072  0.2758987898141179  0.4848375151871191   T   T   T
  0.6551530131449861  0.5793141531043021  0.6364581662881754   T   T   T
  0.3496898137888702  0.3512053041419271  0.5625571044785126   T   T   T
  0.5030744188909959  0.5797627771641340  0.3278455427196401   T   T   T
  0.6549826530057293  0.6540498260470347  0.4076372524067094   T   T   T
  0.5809642738155519  0.6559225005830082  0.3339650293870115   T   T   T
  0.5783223187391117  0.3457160452600525  0.4850698521642629   T   T   T
  0.4272545555347023  0.5030300020000027  0.4848499889999971   F   F   F
  0.5795208908037074  0.6593389037988141  0.4848675747853119   T   T   T
  0.5800670099876319  0.6562930403467575  0.6354353462115543   T   T   T
  0.5021890398515020  0.3463369321392692  0.4083815209953640   T   T   T
  0.4259871622174238  0.3512991566232541  0.3326859357026704   T   T   T
  0.5777875527568094  0.3509402650400222  0.6376658078236490   T   T   T
  0.5024608412046363  0.4256675930098337  0.6425066388553717   T   T   T
  0.7305239133739637  0.5006445204327147  0.4850851000760261   T   T   T
  0.3457653586143820  0.5028143188705596  0.4084639168070868   T   T   T
  0.7814308694024914  0.5779481911882351  0.4796556506860905   T   T   T
  0.7262222731723891  0.6341182659994588  0.4859022079118915   T   T   T
  0.7678657073835169  0.6190111336918699  0.4832980249824606   T   T   T
  0.7950236480836546  0.6463063436824208  0.4844335928614111   T   T   T
 
  0.00000000E+00  0.00000000E+00  0.00000000E+00
  0.00000000E+00  0.00000000E+00  0.00000000E+00
  0.00000000E+00  0.00000000E+00  0.00000000E+00
  0.00000000E+00  0.00000000E+00  0.00000000E+00
  0.00000000E+00  0.00000000E+00  0.00000000E+00
  0.00000000E+00  0.00000000E+00  0.00000000E+00
  0.00000000E+00  0.00000000E+00  0.00000000E+00
  0.00000000E+00  0.00000000E+00  0.00000000E+00
  0.00000000E+00  0.00000000E+00  0.00000000E+00
  0.00000000E+00  0.00000000E+00  0.00000000E+00
  0.00000000E+00  0.00000000E+00  0.00000000E+00
  0.00000000E+00  0.00000000E+00  0.00000000E+00
  0.00000000E+00  0.00000000E+00  0.00000000E+00
  0.00000000E+00  0.00000000E+00  0.00000000E+00
  0.00000000E+00  0.00000000E+00  0.00000000E+00
  0.00000000E+00  0.00000000E+00  0.00000000E+00
  0.00000000E+00  0.00000000E+00  0.00000000E+00
  0.00000000E+00  0.00000000E+00  0.00000000E+00
  0.00000000E+00  0.00000000E+00  0.00000000E+00
  0.00000000E+00  0.00000000E+00  0.00000000E+00
  0.00000000E+00  0.00000000E+00  0.00000000E+00
  0.00000000E+00  0.00000000E+00  0.00000000E+00
  0.00000000E+00  0.00000000E+00  0.00000000E+00
  0.00000000E+00  0.00000000E+00  0.00000000E+00
  0.00000000E+00  0.00000000E+00  0.00000000E+00
  0.00000000E+00  0.00000000E+00  0.00000000E+00
  0.00000000E+00  0.00000000E+00  0.00000000E+00
  0.00000000E+00  0.00000000E+00  0.00000000E+00
  0.00000000E+00  0.00000000E+00  0.00000000E+00
  0.00000000E+00  0.00000000E+00  0.00000000E+00
  0.00000000E+00  0.00000000E+00  0.00000000E+00
  0.00000000E+00  0.00000000E+00  0.00000000E+00
  0.00000000E+00  0.00000000E+00  0.00000000E+00
  0.00000000E+00  0.00000000E+00  0.00000000E+00
  0.00000000E+00  0.00000000E+00  0.00000000E+00
  0.00000000E+00  0.00000000E+00  0.00000000E+00
  0.00000000E+00  0.00000000E+00  0.00000000E+00
  0.00000000E+00  0.00000000E+00  0.00000000E+00
  0.00000000E+00  0.00000000E+00  0.00000000E+00
  0.00000000E+00  0.00000000E+00  0.00000000E+00
  0.00000000E+00  0.00000000E+00  0.00000000E+00
  0.00000000E+00  0.00000000E+00  0.00000000E+00
  0.00000000E+00  0.00000000E+00  0.00000000E+00
  0.00000000E+00  0.00000000E+00  0.00000000E+00
  0.00000000E+00  0.00000000E+00  0.00000000E+00
  0.00000000E+00  0.00000000E+00  0.00000000E+00
  0.00000000E+00  0.00000000E+00  0.00000000E+00
  0.00000000E+00  0.00000000E+00  0.00000000E+00
  0.00000000E+00  0.00000000E+00  0.00000000E+00
  0.00000000E+00  0.00000000E+00  0.00000000E+00
  0.00000000E+00  0.00000000E+00  0.00000000E+00
  0.00000000E+00  0.00000000E+00  0.00000000E+00
  0.00000000E+00  0.00000000E+00  0.00000000E+00
  0.00000000E+00  0.00000000E+00  0.00000000E+00
  0.00000000E+00  0.00000000E+00  0.00000000E+00
  0.00000000E+00  0.00000000E+00  0.00000000E+00
  0.00000000E+00  0.00000000E+00  0.00000000E+00
  0.00000000E+00  0.00000000E+00  0.00000000E+00
  0.00000000E+00  0.00000000E+00  0.00000000E+00
  0.00000000E+00  0.00000000E+00  0.00000000E+00
  0.00000000E+00  0.00000000E+00  0.00000000E+00
  0.00000000E+00  0.00000000E+00  0.00000000E+00
  0.00000000E+00  0.00000000E+00  0.00000000E+00
  0.00000000E+00  0.00000000E+00  0.00000000E+00
  0.00000000E+00  0.00000000E+00  0.00000000E+00
  0.00000000E+00  0.00000000E+00  0.00000000E+00
  0.00000000E+00  0.00000000E+00  0.00000000E+00
  0.00000000E+00  0.00000000E+00  0.00000000E+00
  0.00000000E+00  0.00000000E+00  0.00000000E+00
  0.00000000E+00  0.00000000E+00  0.00000000E+00
  0.00000000E+00  0.00000000E+00  0.00000000E+00
  0.00000000E+00  0.00000000E+00  0.00000000E+00
