Bi O  C  H                              
   1.00000000000000     
    29.0000000000000000    0.0000000000000000    0.0000000000000000
     0.0000000000000000   29.0000000000000000    0.0000000000000000
     0.0000000000000000    0.0000000000000000   29.0000000000000000
   Bi   O    C    H 
    68     2     1     1
Selective dynamics
Direct
  0.5023059721949757  0.5037516831322373  0.7123166129166710   T   T   T
  0.3504886096053060  0.6547503650112417  0.4079708100976968   T   T   T
  0.3453508303497562  0.5802756993485265  0.4854131267285965   T   T   T
  0.5811467705906068  0.4246732054093982  0.4064932224093951   F   F   F
  0.4244332074093933  0.4246732054093982  0.5632067865906052   F   F   F
  0.6606827263608217  0.5811721898909045  0.4841077297807744   T   T   T
  0.4249536024712508  0.5032634269640903  0.3273747973663332   T   T   T
  0.4244816916389893  0.3451707190878595  0.4846067190041310   T   T   T
  0.5792828178487864  0.5030654468090735  0.6412298559293245   T   T   T
  0.3517799533936142  0.4261315308610690  0.6380601536267064   T   T   T
  0.5024764739496361  0.6597455531998530  0.5619313731349229   T   T   T
  0.5793809249977754  0.3510278224644949  0.3328357023494465   T   T   T
  0.4247276364528313  0.6602867889982404  0.4850786511843543   T   T   T
  0.4247492228195056  0.6542636004648869  0.3322664156739072   T   T   T
  0.6585660955655450  0.5026700361197568  0.5602428701123218   T   T   T
  0.6546266664858325  0.5811921125205953  0.3327575335375868   T   T   T
  0.6548593960592940  0.3523400927007431  0.5629392466370613   T   T   T
  0.5027899740000024  0.4274945535347072  0.4848499889999971   F   F   F
  0.3457190435309699  0.4261974588079657  0.4852211126962569   T   T   T
  0.5027899740000024  0.5785654504652982  0.4848499889999971   F   F   F
  0.5027899740000024  0.5030300020000027  0.5603854384652962   F   F   F
  0.4248413396411118  0.6540981878029309  0.6378662523451432   T   T   T
  0.5783254224652978  0.5030300020000027  0.4848499889999971   F   F   F
  0.5031488180830836  0.3472076718050273  0.5611057191932259   T   T   T
  0.2759024462897645  0.5030859296586077  0.4851085374220989   T   T   T
  0.3461483756643131  0.5029520698527907  0.5620665567587459   T   T   T
  0.5018353185016153  0.5035211909722096  0.2576240598573270   T   T   T
  0.3504105464755743  0.4268900181650886  0.3328422600635972   T   T   T
  0.6548183116361547  0.4261596764884988  0.3326320801249223   T   T   T
  0.6602065946763095  0.5031048558896964  0.4064920679730512   T   T   T
  0.4244332074093933  0.4246732054093982  0.4064932224093951   F   F   F
  0.4244332074093933  0.5813867985906072  0.4064932224093951   F   F   F
  0.5811467705906068  0.5813867985906072  0.4064932224093951   F   F   F
  0.5026580082913356  0.6596881924375119  0.4072327660958921   T   T   T
  0.5016197537092618  0.7295108723296853  0.4845264928023801   T   T   T
  0.3508964682234617  0.6551810352359602  0.5619219365791317   T   T   T
  0.6596588584468093  0.4260296541341116  0.4834016677771005   T   T   T
  0.3509928824910092  0.3504681600253473  0.4073033443426181   T   T   T
  0.3500325498270993  0.5801094919183141  0.3327157102583298   T   T   T
  0.4258401036653593  0.3509650981393491  0.6366800244179874   T   T   T
  0.6549526265597266  0.4250216273028271  0.6390995815106638   T   T   T
  0.5811467705906068  0.5813867985906072  0.5632067865906052   F   F   F
  0.5026094272158694  0.4267055181591327  0.3279245759270179   T   T   T
  0.5027899740000024  0.5030300020000027  0.4093145705347041   F   F   F
  0.6553017010520232  0.6543799715646088  0.5615320832792149   T   T   T
  0.5028802215085552  0.5803548359830224  0.6427817520058665   T   T   T
  0.4244332074093933  0.5813867985906072  0.5632067865906052   F   F   F
  0.4249237289199549  0.5030896829218228  0.6434125265037508   T   T   T
  0.5791126436425852  0.5031009320988320  0.3278876260603376   T   T   T
  0.6550459238496840  0.3509029822806703  0.4065059615253067   T   T   T
  0.5811467705906068  0.4246732054093982  0.5632067865906052   F   F   F
  0.3514550476182385  0.5797867662165860  0.6383474215185813   T   T   T
  0.5018507289170588  0.2764989916099880  0.4839510669027073   T   T   T
  0.6559373853635370  0.5800497663909877  0.6355647688515799   T   T   T
  0.3514503289542740  0.3503530788145501  0.5621938687543163   T   T   T
  0.5027552288202197  0.5804260763183329  0.3270814449398750   T   T   T
  0.6552003938743494  0.6551843747070207  0.4070411590875901   T   T   T
  0.5789737593820219  0.6553543085910121  0.3324723741487108   T   T   T
  0.5793799987579767  0.3468527297479999  0.4842913828343083   T   T   T
  0.4272545555347023  0.5030300020000027  0.4848499889999971   F   F   F
  0.5787891656350882  0.6595534821445446  0.4847051750945747   T   T   T
  0.5798472585297481  0.6538113304170954  0.6376073469142102   T   T   T
  0.5024739827687520  0.3457093633209522  0.4068974149751906   T   T   T
  0.4248382908314201  0.3513251320735921  0.3326047269761793   T   T   T
  0.5814794991645693  0.3517648242318359  0.6389723602255868   T   T   T
  0.5030328728977506  0.4267174586197268  0.6415928272692607   T   T   T
  0.7294811070566536  0.5036663419109768  0.4835102058273620   T   T   T
  0.3461795251558017  0.5031296442504103  0.4083299143581144   T   T   T
  0.6758552137626360  0.3962540139977093  0.7165601613087664   T   T   T
  0.6385811638204940  0.3271674928286226  0.7059822736583403   T   T   T
  0.6665839350966377  0.3540524391649467  0.7258989017037886   T   T   T
  0.6861367695945269  0.3395871569417808  0.7557841736884264   T   T   T
 
  0.00000000E+00  0.00000000E+00  0.00000000E+00
  0.00000000E+00  0.00000000E+00  0.00000000E+00
  0.00000000E+00  0.00000000E+00  0.00000000E+00
  0.00000000E+00  0.00000000E+00  0.00000000E+00
  0.00000000E+00  0.00000000E+00  0.00000000E+00
  0.00000000E+00  0.00000000E+00  0.00000000E+00
  0.00000000E+00  0.00000000E+00  0.00000000E+00
  0.00000000E+00  0.00000000E+00  0.00000000E+00
  0.00000000E+00  0.00000000E+00  0.00000000E+00
  0.00000000E+00  0.00000000E+00  0.00000000E+00
  0.00000000E+00  0.00000000E+00  0.00000000E+00
  0.00000000E+00  0.00000000E+00  0.00000000E+00
  0.00000000E+00  0.00000000E+00  0.00000000E+00
  0.00000000E+00  0.00000000E+00  0.00000000E+00
  0.00000000E+00  0.00000000E+00  0.00000000E+00
  0.00000000E+00  0.00000000E+00  0.00000000E+00
  0.00000000E+00  0.00000000E+00  0.00000000E+00
  0.00000000E+00  0.00000000E+00  0.00000000E+00
  0.00000000E+00  0.00000000E+00  0.00000000E+00
  0.00000000E+00  0.00000000E+00  0.00000000E+00
  0.00000000E+00  0.00000000E+00  0.00000000E+00
  0.00000000E+00  0.00000000E+00  0.00000000E+00
  0.00000000E+00  0.00000000E+00  0.00000000E+00
  0.00000000E+00  0.00000000E+00  0.00000000E+00
  0.00000000E+00  0.00000000E+00  0.00000000E+00
  0.00000000E+00  0.00000000E+00  0.00000000E+00
  0.00000000E+00  0.00000000E+00  0.00000000E+00
  0.00000000E+00  0.00000000E+00  0.00000000E+00
  0.00000000E+00  0.00000000E+00  0.00000000E+00
  0.00000000E+00  0.00000000E+00  0.00000000E+00
  0.00000000E+00  0.00000000E+00  0.00000000E+00
  0.00000000E+00  0.00000000E+00  0.00000000E+00
  0.00000000E+00  0.00000000E+00  0.00000000E+00
  0.00000000E+00  0.00000000E+00  0.00000000E+00
  0.00000000E+00  0.00000000E+00  0.00000000E+00
  0.00000000E+00  0.00000000E+00  0.00000000E+00
  0.00000000E+00  0.00000000E+00  0.00000000E+00
  0.00000000E+00  0.00000000E+00  0.00000000E+00
  0.00000000E+00  0.00000000E+00  0.00000000E+00
  0.00000000E+00  0.00000000E+00  0.00000000E+00
  0.00000000E+00  0.00000000E+00  0.00000000E+00
  0.00000000E+00  0.00000000E+00  0.00000000E+00
  0.00000000E+00  0.00000000E+00  0.00000000E+00
  0.00000000E+00  0.00000000E+00  0.00000000E+00
  0.00000000E+00  0.00000000E+00  0.00000000E+00
  0.00000000E+00  0.00000000E+00  0.00000000E+00
  0.00000000E+00  0.00000000E+00  0.00000000E+00
  0.00000000E+00  0.00000000E+00  0.00000000E+00
  0.00000000E+00  0.00000000E+00  0.00000000E+00
  0.00000000E+00  0.00000000E+00  0.00000000E+00
  0.00000000E+00  0.00000000E+00  0.00000000E+00
  0.00000000E+00  0.00000000E+00  0.00000000E+00
  0.00000000E+00  0.00000000E+00  0.00000000E+00
  0.00000000E+00  0.00000000E+00  0.00000000E+00
  0.00000000E+00  0.00000000E+00  0.00000000E+00
  0.00000000E+00  0.00000000E+00  0.00000000E+00
  0.00000000E+00  0.00000000E+00  0.00000000E+00
  0.00000000E+00  0.00000000E+00  0.00000000E+00
  0.00000000E+00  0.00000000E+00  0.00000000E+00
  0.00000000E+00  0.00000000E+00  0.00000000E+00
  0.00000000E+00  0.00000000E+00  0.00000000E+00
  0.00000000E+00  0.00000000E+00  0.00000000E+00
  0.00000000E+00  0.00000000E+00  0.00000000E+00
  0.00000000E+00  0.00000000E+00  0.00000000E+00
  0.00000000E+00  0.00000000E+00  0.00000000E+00
  0.00000000E+00  0.00000000E+00  0.00000000E+00
  0.00000000E+00  0.00000000E+00  0.00000000E+00
  0.00000000E+00  0.00000000E+00  0.00000000E+00
  0.00000000E+00  0.00000000E+00  0.00000000E+00
  0.00000000E+00  0.00000000E+00  0.00000000E+00
  0.00000000E+00  0.00000000E+00  0.00000000E+00
  0.00000000E+00  0.00000000E+00  0.00000000E+00
