Bi O  C  H                              
   1.00000000000000     
    29.0000000000000000    0.0000000000000000    0.0000000000000000
     0.0000000000000000   29.0000000000000000    0.0000000000000000
     0.0000000000000000    0.0000000000000000   29.0000000000000000
   Bi   O    C    H 
    68     2     1     1
Selective dynamics
Direct
  0.5032722530133820  0.5033493208271353  0.7117439839250237   T   T   T
  0.3507023476052697  0.6550489548980658  0.4071367000342176   T   T   T
  0.3450499488731406  0.5815456930071551  0.4848757851971677   T   T   T
  0.5811467705906068  0.4246732054093982  0.4064932224093951   F   F   F
  0.4244332074093933  0.4246732054093982  0.5632067865906052   F   F   F
  0.6602021243524293  0.5809153113633749  0.4843929235759769   T   T   T
  0.4260035590369417  0.5029715136918771  0.3276731744767082   T   T   T
  0.4261142730263421  0.3473297667418017  0.4851573053333281   T   T   T
  0.5802268286481994  0.5029842733882789  0.6423291841943989   T   T   T
  0.3485370830015501  0.4239050549070067  0.6373415458091810   T   T   T
  0.5028459214404726  0.6598709624604646  0.5613779919521635   T   T   T
  0.5802056564268592  0.3499046697585227  0.3335577002817631   T   T   T
  0.4258644962366667  0.6601796845683573  0.4850403780581685   T   T   T
  0.4270398309857736  0.6555754435051634  0.3327337542939637   T   T   T
  0.6595993273272904  0.5032007979478523  0.5609018526669355   T   T   T
  0.6550376471310786  0.5809112739448240  0.3327807551459327   T   T   T
  0.6554671403241360  0.3515001059581341  0.5615130824527047   T   T   T
  0.5027899740000024  0.4274945535347072  0.4848499889999971   F   F   F
  0.3465714130427138  0.4272092659895112  0.4845529931709808   T   T   T
  0.5027899740000024  0.5785654504652982  0.4848499889999971   F   F   F
  0.5027899740000024  0.5030300020000027  0.5603854384652962   F   F   F
  0.4259587342046982  0.6543404224828517  0.6377663030580848   T   T   T
  0.5783254224652978  0.5030300020000027  0.4848499889999971   F   F   F
  0.5032860773499054  0.3463517973303558  0.5617540008174536   T   T   T
  0.2759803403677476  0.5047436769756581  0.4838295523757543   T   T   T
  0.3467263855861603  0.5031773778494347  0.5610988608943087   T   T   T
  0.5031862447229739  0.5032789881014801  0.2578257064778216   T   T   T
  0.3504133876252596  0.4263155286420311  0.3332003517162919   T   T   T
  0.6552107908065118  0.4262909114902195  0.3331537431791325   T   T   T
  0.6603662361720306  0.5032857001362163  0.4068657831004763   T   T   T
  0.4244332074093933  0.4246732054093982  0.4064932224093951   F   F   F
  0.4244332074093933  0.5813867985906072  0.4064932224093951   F   F   F
  0.5811467705906068  0.5813867985906072  0.4064932224093951   F   F   F
  0.5025698241314872  0.6603522872811518  0.4076032212975268   T   T   T
  0.5031760635254706  0.7300443384313513  0.4846671860057632   T   T   T
  0.3505662248572077  0.6550239882471558  0.5622025356574341   T   T   T
  0.6596785947242171  0.4269947186614910  0.4845645612043310   T   T   T
  0.3513476248163029  0.3508654708120273  0.4073274314572878   T   T   T
  0.3508202928987142  0.5808568979444715  0.3329696884354977   T   T   T
  0.4236939920174858  0.3514120184403878  0.6361946521448912   T   T   T
  0.6551260982510732  0.4265001997066858  0.6365912972130214   T   T   T
  0.5811467705906068  0.5813867985906072  0.5632067865906052   F   F   F
  0.5030328925107689  0.4265696161614020  0.3279098092901972   T   T   T
  0.5027899740000024  0.5030300020000027  0.4093145705347041   F   F   F
  0.6551996528810253  0.6546436634134578  0.5615106145705892   T   T   T
  0.5030328643817079  0.5807687971588358  0.6425565075388153   T   T   T
  0.4244332074093933  0.5813867985906072  0.5632067865906052   F   F   F
  0.4262735467864764  0.5022184295048161  0.6408352459347383   T   T   T
  0.5798801106703712  0.5030283936778259  0.3282708503153682   T   T   T
  0.6548981424137165  0.3508540587280872  0.4072087592974219   T   T   T
  0.5811467705906068  0.4246732054093982  0.5632067865906052   F   F   F
  0.3515462273775088  0.5801788264647491  0.6373503116364795   T   T   T
  0.5031566879966479  0.2765315220500725  0.4842544378489322   T   T   T
  0.6548937834790822  0.5803989853438013  0.6368436184106174   T   T   T
  0.3485066234316695  0.3506283435736687  0.5636389219159131   T   T   T
  0.5025961514300766  0.5804478792368286  0.3274444573292180   T   T   T
  0.6552112342876372  0.6552693806461763  0.4068786945645343   T   T   T
  0.5792286131142276  0.6553228925235377  0.3329474097308185   T   T   T
  0.5805367550860825  0.3456316876526830  0.4850876127944415   T   T   T
  0.4272545555347023  0.5030300020000027  0.4848499889999971   F   F   F
  0.5798696069413128  0.6596737634933483  0.4847753104197542   T   T   T
  0.5802239543023291  0.6542835089835588  0.6377655398962725   T   T   T
  0.5031548068332750  0.3454753035146656  0.4069479331861936   T   T   T
  0.4260560054978004  0.3504526756443158  0.3333695541109188   T   T   T
  0.5809260078383751  0.3509939694135251  0.6364390055202882   T   T   T
  0.5033089927023622  0.4259667096499433  0.6416770438569063   T   T   T
  0.7298554724375834  0.5041144438436179  0.4838860369222950   T   T   T
  0.3448603915288121  0.5035761657096200  0.4066076825597721   T   T   T
  0.2947088486077349  0.3658183734616602  0.6760316403229942   T   T   T
  0.2933876763355722  0.3111518226166999  0.6187786755190461   T   T   T
  0.2850227721893354  0.3265786658790860  0.6590599730866948   T   T   T
  0.2667702307507033  0.3021986205495714  0.6826610305739309   T   T   T
 
  0.00000000E+00  0.00000000E+00  0.00000000E+00
  0.00000000E+00  0.00000000E+00  0.00000000E+00
  0.00000000E+00  0.00000000E+00  0.00000000E+00
  0.00000000E+00  0.00000000E+00  0.00000000E+00
  0.00000000E+00  0.00000000E+00  0.00000000E+00
  0.00000000E+00  0.00000000E+00  0.00000000E+00
  0.00000000E+00  0.00000000E+00  0.00000000E+00
  0.00000000E+00  0.00000000E+00  0.00000000E+00
  0.00000000E+00  0.00000000E+00  0.00000000E+00
  0.00000000E+00  0.00000000E+00  0.00000000E+00
  0.00000000E+00  0.00000000E+00  0.00000000E+00
  0.00000000E+00  0.00000000E+00  0.00000000E+00
  0.00000000E+00  0.00000000E+00  0.00000000E+00
  0.00000000E+00  0.00000000E+00  0.00000000E+00
  0.00000000E+00  0.00000000E+00  0.00000000E+00
  0.00000000E+00  0.00000000E+00  0.00000000E+00
  0.00000000E+00  0.00000000E+00  0.00000000E+00
  0.00000000E+00  0.00000000E+00  0.00000000E+00
  0.00000000E+00  0.00000000E+00  0.00000000E+00
  0.00000000E+00  0.00000000E+00  0.00000000E+00
  0.00000000E+00  0.00000000E+00  0.00000000E+00
  0.00000000E+00  0.00000000E+00  0.00000000E+00
  0.00000000E+00  0.00000000E+00  0.00000000E+00
  0.00000000E+00  0.00000000E+00  0.00000000E+00
  0.00000000E+00  0.00000000E+00  0.00000000E+00
  0.00000000E+00  0.00000000E+00  0.00000000E+00
  0.00000000E+00  0.00000000E+00  0.00000000E+00
  0.00000000E+00  0.00000000E+00  0.00000000E+00
  0.00000000E+00  0.00000000E+00  0.00000000E+00
  0.00000000E+00  0.00000000E+00  0.00000000E+00
  0.00000000E+00  0.00000000E+00  0.00000000E+00
  0.00000000E+00  0.00000000E+00  0.00000000E+00
  0.00000000E+00  0.00000000E+00  0.00000000E+00
  0.00000000E+00  0.00000000E+00  0.00000000E+00
  0.00000000E+00  0.00000000E+00  0.00000000E+00
  0.00000000E+00  0.00000000E+00  0.00000000E+00
  0.00000000E+00  0.00000000E+00  0.00000000E+00
  0.00000000E+00  0.00000000E+00  0.00000000E+00
  0.00000000E+00  0.00000000E+00  0.00000000E+00
  0.00000000E+00  0.00000000E+00  0.00000000E+00
  0.00000000E+00  0.00000000E+00  0.00000000E+00
  0.00000000E+00  0.00000000E+00  0.00000000E+00
  0.00000000E+00  0.00000000E+00  0.00000000E+00
  0.00000000E+00  0.00000000E+00  0.00000000E+00
  0.00000000E+00  0.00000000E+00  0.00000000E+00
  0.00000000E+00  0.00000000E+00  0.00000000E+00
  0.00000000E+00  0.00000000E+00  0.00000000E+00
  0.00000000E+00  0.00000000E+00  0.00000000E+00
  0.00000000E+00  0.00000000E+00  0.00000000E+00
  0.00000000E+00  0.00000000E+00  0.00000000E+00
  0.00000000E+00  0.00000000E+00  0.00000000E+00
  0.00000000E+00  0.00000000E+00  0.00000000E+00
  0.00000000E+00  0.00000000E+00  0.00000000E+00
  0.00000000E+00  0.00000000E+00  0.00000000E+00
  0.00000000E+00  0.00000000E+00  0.00000000E+00
  0.00000000E+00  0.00000000E+00  0.00000000E+00
  0.00000000E+00  0.00000000E+00  0.00000000E+00
  0.00000000E+00  0.00000000E+00  0.00000000E+00
  0.00000000E+00  0.00000000E+00  0.00000000E+00
  0.00000000E+00  0.00000000E+00  0.00000000E+00
  0.00000000E+00  0.00000000E+00  0.00000000E+00
  0.00000000E+00  0.00000000E+00  0.00000000E+00
  0.00000000E+00  0.00000000E+00  0.00000000E+00
  0.00000000E+00  0.00000000E+00  0.00000000E+00
  0.00000000E+00  0.00000000E+00  0.00000000E+00
  0.00000000E+00  0.00000000E+00  0.00000000E+00
  0.00000000E+00  0.00000000E+00  0.00000000E+00
  0.00000000E+00  0.00000000E+00  0.00000000E+00
  0.00000000E+00  0.00000000E+00  0.00000000E+00
  0.00000000E+00  0.00000000E+00  0.00000000E+00
  0.00000000E+00  0.00000000E+00  0.00000000E+00
  0.00000000E+00  0.00000000E+00  0.00000000E+00
