Bi O  C  H                              
   1.00000000000000     
    29.0000000000000000    0.0000000000000000    0.0000000000000000
     0.0000000000000000   29.0000000000000000    0.0000000000000000
     0.0000000000000000    0.0000000000000000   29.0000000000000000
   Bi   O    C    H 
    68     2     1     1
Selective dynamics
Direct
  0.5069112216496018  0.5069250747023052  0.7108693751178978   T   T   T
  0.3494057896710533  0.6545074432056168  0.4073420557497000   T   T   T
  0.3442441154286027  0.5809292735591042  0.4841325457986129   T   T   T
  0.5811467705906068  0.4246732054093982  0.4064932224093951   F   F   F
  0.4244332074093933  0.4246732054093982  0.5632067865906052   F   F   F
  0.6598003539179675  0.5793697101447348  0.4850062887174220   T   T   T
  0.4260399312013444  0.5032237070462277  0.3283527742864109   T   T   T
  0.4266504849415893  0.3466419191143730  0.4839774774917313   T   T   T
  0.5833996865423846  0.5042144597477382  0.6425200238164314   T   T   T
  0.3521004608297522  0.4267729847416895  0.6377866632006429   T   T   T
  0.5016891196626836  0.6608492138495737  0.5615497869019838   T   T   T
  0.5798876879767021  0.3500050258380103  0.3330416547132329   T   T   T
  0.4250030835938153  0.6596210546368180  0.4847573587482679   T   T   T
  0.4254117172882549  0.6547669435316755  0.3322507765912421   T   T   T
  0.6605444664217055  0.5019933059108751  0.5611274216420274   T   T   T
  0.6543603330729607  0.5808665933956024  0.3328693178130845   T   T   T
  0.6530224272126885  0.3486215526245294  0.5615794740174270   T   T   T
  0.5027899740000024  0.4274945535347072  0.4848499889999971   F   F   F
  0.3462976552252127  0.4270270656499828  0.4838864654100460   T   T   T
  0.5027899740000024  0.5785654504652982  0.4848499889999971   F   F   F
  0.5027899740000024  0.5030300020000027  0.5603854384652962   F   F   F
  0.4251689123114051  0.6543573845221942  0.6369396049152386   T   T   T
  0.5783254224652978  0.5030300020000027  0.4848499889999971   F   F   F
  0.5026789775972724  0.3460505956586050  0.5612848650240765   T   T   T
  0.2750785128342519  0.5034992207503710  0.4837514645891960   T   T   T
  0.3458274350614754  0.5033127785533500  0.5606868697778923   T   T   T
  0.5031555267343863  0.5031991820103082  0.2580835943831972   T   T   T
  0.3502678416781845  0.4263265643844874  0.3331735792783211   T   T   T
  0.6543183810004158  0.4250275431085689  0.3324679670083873   T   T   T
  0.6594074495423498  0.5020693534717340  0.4073155957059469   T   T   T
  0.4244332074093933  0.4246732054093982  0.4064932224093951   F   F   F
  0.4244332074093933  0.5813867985906072  0.4064932224093951   F   F   F
  0.5811467705906068  0.5813867985906072  0.4064932224093951   F   F   F
  0.5016499815426113  0.6597069602800560  0.4077697236309366   T   T   T
  0.5016440467570638  0.7300231161591615  0.4839136925057103   T   T   T
  0.3483471817975621  0.6529243884892928  0.5617619742294830   T   T   T
  0.6592892914770838  0.4252940013936494  0.4844866635920759   T   T   T
  0.3507922221965538  0.3508170402172140  0.4063801085412253   T   T   T
  0.3503372684600211  0.5805375836503188  0.3327818235255025   T   T   T
  0.4255387901001894  0.3531522951776683  0.6382861562741315   T   T   T
  0.6547704567846622  0.4255513142582086  0.6364953226591312   T   T   T
  0.5811467705906068  0.5813867985906072  0.5632067865906052   F   F   F
  0.5029606123370105  0.4260969539000942  0.3284430130060465   T   T   T
  0.5027899740000024  0.5030300020000027  0.4093145705347041   F   F   F
  0.6561370298465968  0.6561205239251776  0.5587803656392383   T   T   T
  0.5041957128508592  0.5834648730738297  0.6426829691977112   T   T   T
  0.4244332074093933  0.5813867985906072  0.5632067865906052   F   F   F
  0.4289751978507895  0.5049486580437791  0.6404736842278214   T   T   T
  0.5805055612152732  0.5028096725520466  0.3270123715991824   T   T   T
  0.6538943985385053  0.3492373279107574  0.4076809883971025   T   T   T
  0.5811467705906068  0.4246732054093982  0.5632067865906052   F   F   F
  0.3500063207963834  0.5796716763830327  0.6364045639133975   T   T   T
  0.5029788703361148  0.2754573946669474  0.4846256168396068   T   T   T
  0.6564743712868814  0.5818842343253722  0.6345464608342588   T   T   T
  0.3514781259934845  0.3519251331253523  0.5632788759260187   T   T   T
  0.5026910023452864  0.5807255838405198  0.3270288338110089   T   T   T
  0.6545399427027586  0.6549739754779250  0.4091410499187764   T   T   T
  0.5799885018699459  0.6551917794465540  0.3331632400111269   T   T   T
  0.5802870094517971  0.3446599224812037  0.4846733528160938   T   T   T
  0.4272545555347023  0.5030300020000027  0.4848499889999971   F   F   F
  0.5790609763096272  0.6600161564859038  0.4852801245967493   T   T   T
  0.5818366338159312  0.6564650593459659  0.6347992919298655   T   T   T
  0.5027665473938303  0.3449877972772296  0.4072524813700366   T   T   T
  0.4262893988375484  0.3502633263840335  0.3332081778392435   T   T   T
  0.5798366998180632  0.3503666138901365  0.6362803120718905   T   T   T
  0.5045867932971726  0.4292030312220496  0.6404788232981353   T   T   T
  0.7297564517541832  0.5018968912571122  0.4833578182537185   T   T   T
  0.3447853454620010  0.5030428015836230  0.4068985108211038   T   T   T
  0.3973642389049639  0.4525037058211293  0.7211958259303282   T   T   T
  0.4529626527814337  0.3962867612179747  0.7212021464470829   T   T   T
  0.4264865087538181  0.4257531067155324  0.7401974549171023   T   T   T
  0.4297758099187090  0.4289517092837554  0.7785122582872014   T   T   T
 
  0.00000000E+00  0.00000000E+00  0.00000000E+00
  0.00000000E+00  0.00000000E+00  0.00000000E+00
  0.00000000E+00  0.00000000E+00  0.00000000E+00
  0.00000000E+00  0.00000000E+00  0.00000000E+00
  0.00000000E+00  0.00000000E+00  0.00000000E+00
  0.00000000E+00  0.00000000E+00  0.00000000E+00
  0.00000000E+00  0.00000000E+00  0.00000000E+00
  0.00000000E+00  0.00000000E+00  0.00000000E+00
  0.00000000E+00  0.00000000E+00  0.00000000E+00
  0.00000000E+00  0.00000000E+00  0.00000000E+00
  0.00000000E+00  0.00000000E+00  0.00000000E+00
  0.00000000E+00  0.00000000E+00  0.00000000E+00
  0.00000000E+00  0.00000000E+00  0.00000000E+00
  0.00000000E+00  0.00000000E+00  0.00000000E+00
  0.00000000E+00  0.00000000E+00  0.00000000E+00
  0.00000000E+00  0.00000000E+00  0.00000000E+00
  0.00000000E+00  0.00000000E+00  0.00000000E+00
  0.00000000E+00  0.00000000E+00  0.00000000E+00
  0.00000000E+00  0.00000000E+00  0.00000000E+00
  0.00000000E+00  0.00000000E+00  0.00000000E+00
  0.00000000E+00  0.00000000E+00  0.00000000E+00
  0.00000000E+00  0.00000000E+00  0.00000000E+00
  0.00000000E+00  0.00000000E+00  0.00000000E+00
  0.00000000E+00  0.00000000E+00  0.00000000E+00
  0.00000000E+00  0.00000000E+00  0.00000000E+00
  0.00000000E+00  0.00000000E+00  0.00000000E+00
  0.00000000E+00  0.00000000E+00  0.00000000E+00
  0.00000000E+00  0.00000000E+00  0.00000000E+00
  0.00000000E+00  0.00000000E+00  0.00000000E+00
  0.00000000E+00  0.00000000E+00  0.00000000E+00
  0.00000000E+00  0.00000000E+00  0.00000000E+00
  0.00000000E+00  0.00000000E+00  0.00000000E+00
  0.00000000E+00  0.00000000E+00  0.00000000E+00
  0.00000000E+00  0.00000000E+00  0.00000000E+00
  0.00000000E+00  0.00000000E+00  0.00000000E+00
  0.00000000E+00  0.00000000E+00  0.00000000E+00
  0.00000000E+00  0.00000000E+00  0.00000000E+00
  0.00000000E+00  0.00000000E+00  0.00000000E+00
  0.00000000E+00  0.00000000E+00  0.00000000E+00
  0.00000000E+00  0.00000000E+00  0.00000000E+00
  0.00000000E+00  0.00000000E+00  0.00000000E+00
  0.00000000E+00  0.00000000E+00  0.00000000E+00
  0.00000000E+00  0.00000000E+00  0.00000000E+00
  0.00000000E+00  0.00000000E+00  0.00000000E+00
  0.00000000E+00  0.00000000E+00  0.00000000E+00
  0.00000000E+00  0.00000000E+00  0.00000000E+00
  0.00000000E+00  0.00000000E+00  0.00000000E+00
  0.00000000E+00  0.00000000E+00  0.00000000E+00
  0.00000000E+00  0.00000000E+00  0.00000000E+00
  0.00000000E+00  0.00000000E+00  0.00000000E+00
  0.00000000E+00  0.00000000E+00  0.00000000E+00
  0.00000000E+00  0.00000000E+00  0.00000000E+00
  0.00000000E+00  0.00000000E+00  0.00000000E+00
  0.00000000E+00  0.00000000E+00  0.00000000E+00
  0.00000000E+00  0.00000000E+00  0.00000000E+00
  0.00000000E+00  0.00000000E+00  0.00000000E+00
  0.00000000E+00  0.00000000E+00  0.00000000E+00
  0.00000000E+00  0.00000000E+00  0.00000000E+00
  0.00000000E+00  0.00000000E+00  0.00000000E+00
  0.00000000E+00  0.00000000E+00  0.00000000E+00
  0.00000000E+00  0.00000000E+00  0.00000000E+00
  0.00000000E+00  0.00000000E+00  0.00000000E+00
  0.00000000E+00  0.00000000E+00  0.00000000E+00
  0.00000000E+00  0.00000000E+00  0.00000000E+00
  0.00000000E+00  0.00000000E+00  0.00000000E+00
  0.00000000E+00  0.00000000E+00  0.00000000E+00
  0.00000000E+00  0.00000000E+00  0.00000000E+00
  0.00000000E+00  0.00000000E+00  0.00000000E+00
  0.00000000E+00  0.00000000E+00  0.00000000E+00
  0.00000000E+00  0.00000000E+00  0.00000000E+00
  0.00000000E+00  0.00000000E+00  0.00000000E+00
  0.00000000E+00  0.00000000E+00  0.00000000E+00
