Sn C  O  H                              
   1.00000000000000     
    29.0000000000000000    0.0000000000000000    0.0000000000000000
     0.0000000000000000   29.0000000000000000    0.0000000000000000
     0.0000000000000000    0.0000000000000000   29.0000000000000000
   Sn   C    O    H 
    68     1     2     1
Selective dynamics
Direct
  0.5351006029274489  0.5164808181291060  0.7510680499054390   T   T   T
  0.3881150180075941  0.6676425664704734  0.4515609331127111   T   T   T
  0.3791933261996799  0.5980871193426865  0.5240961746855191   T   T   T
  0.6076089470065611  0.4504110489934376  0.4498710309934353   F   F   F
  0.4613510339934379  0.4504110489934376  0.5961189590065601   F   F   F
  0.6896782267826318  0.5981843980018351  0.5238697375294166   T   T   T
  0.4594423469793370  0.5229130520172709  0.3682991177912162   T   T   T
  0.4578137814243078  0.3718749358511865  0.5234242741002633   T   T   T
  0.6078115680377327  0.5239225398061985  0.6779911724785024   T   T   T
  0.3902425176759355  0.4528113040858604  0.6709959531934087   T   T   T
  0.5345798321799055  0.6812968990497752  0.6035192588581615   T   T   T
  0.6064288437884041  0.3785467999477819  0.3759617256498725   T   T   T
  0.4583403957471840  0.6760564403005993  0.5250478802796895   T   T   T
  0.4629641241434647  0.6684386632807743  0.3762575154862894   T   T   T
  0.6880443402714065  0.5217192674383735  0.5978416861886356   T   T   T
  0.6799878729968718  0.5958053290092178  0.3760824547993736   T   T   T
  0.6832483974320778  0.3820825762510936  0.5946791161986411   T   T   T
  0.5344799760000001  0.4444887396173627  0.5229899879999991   F   F   F
  0.3781308130300827  0.4500888631812192  0.5201734157959003   T   T   T
  0.5344799760000001  0.6025912403826368  0.5229899879999991   F   F   F
  0.5344799760000001  0.5235400199999987  0.6020412683826351   F   F   F
  0.4599485055073944  0.6669270732604397  0.6714354488344360   T   T   T
  0.6135312563826361  0.5235400199999987  0.5229899879999991   F   F   F
  0.5345300209453786  0.3694430594841289  0.5976774572904661   T   T   T
  0.3061402445520666  0.5256273770384549  0.5283166839142782   T   T   T
  0.3812622175923049  0.5217164583166340  0.5980456770487536   T   T   T
  0.5344180720489079  0.5232680045356926  0.2967474049811189   T   T   T
  0.3881046464641365  0.4525844524530937  0.3789071870748149   T   T   T
  0.6800246166902171  0.4526354291550034  0.3783385223638847   T   T   T
  0.6883831368936536  0.5253429033064761  0.4487805164025065   T   T   T
  0.4613510339934379  0.4504110489934376  0.4498710309934353   F   F   F
  0.4613510339934379  0.5966689310065618  0.4498710309934353   F   F   F
  0.6076089470065611  0.5966689310065618  0.4498710309934353   F   F   F
  0.5343937756475619  0.6749660780848936  0.4472433430937869   T   T   T
  0.5341438078546034  0.7433408558779603  0.5215627984744383   T   T   T
  0.3879079117206924  0.6690821945069249  0.5960077077522296   T   T   T
  0.6905475224600862  0.4499109547792508  0.5201306351747552   T   T   T
  0.3887818530010497  0.3768469866629539  0.4506612937435506   T   T   T
  0.3890602519863219  0.5956597103168326  0.3759388029809639   T   T   T
  0.4623268424412050  0.3764056511666790  0.6672079070588494   T   T   T
  0.6788742505105643  0.4527503670337372  0.6708965162517350   T   T   T
  0.6076089470065611  0.5966689310065618  0.5961189590065601   F   F   F
  0.5346231604966115  0.4493631324726909  0.3678253474207935   T   T   T
  0.5344799760000001  0.5235400199999987  0.4439487216173603   F   F   F
  0.6811317463080541  0.6690753554554064  0.5957746416326883   T   T   T
  0.5345104195843572  0.5985622701825846  0.6773127261822645   T   T   T
  0.4613510339934379  0.5966689310065618  0.5961189590065601   F   F   F
  0.4615481521777731  0.5239019114769466  0.6782053971353531   T   T   T
  0.6091647515985663  0.5234901309542330  0.3681630372631899   T   T   T
  0.6802947935431584  0.3768918463735642  0.4504739280963443   T   T   T
  0.6076089470065611  0.4504110489934376  0.5961189590065601   F   F   F
  0.3887346301093357  0.5925076092747769  0.6685974350767465   T   T   T
  0.5341998725829666  0.3028243505842561  0.5199846025566000   T   T   T
  0.6805115118048118  0.5924390399415124  0.6683927260188661   T   T   T
  0.3856832674887402  0.3822301133586983  0.5947609457715213   T   T   T
  0.5339788380727729  0.5970014288776821  0.3679684810425869   T   T   T
  0.6803916709779145  0.6679986952367908  0.4514447863333552   T   T   T
  0.6054018182630594  0.6680120752227380  0.3759949971593722   T   T   T
  0.6111069569676366  0.3717227225973021  0.5232872303200354   T   T   T
  0.4554287246173629  0.5235400199999987  0.5229899879999991   F   F   F
  0.6104240650353285  0.6761676933767927  0.5251004122168127   T   T   T
  0.6092208733340256  0.6667697500747030  0.6714573017199031   T   T   T
  0.5342508153481945  0.3719390639716032  0.4462878807466163   T   T   T
  0.4623650457700720  0.3790663159471791  0.3755784254838119   T   T   T
  0.6068175693980251  0.3762849051982809  0.6671134164752190   T   T   T
  0.5346289793183904  0.4469912765098509  0.6763277574816983   T   T   T
  0.7624309007585898  0.5250508193012313  0.5265450271273993   T   T   T
  0.3804941426408099  0.5255894608150109  0.4490453301435459   T   T   T
  0.5346764257751063  0.7536462984807484  0.6365308171862606   T   T   T
  0.5344209925826885  0.7898957999462356  0.6146640817722501   T   T   T
  0.5351707971131939  0.7537125979505745  0.6840799224535068   T   T   T
  0.5353230049113331  0.7861882570823880  0.6941316992395471   T   T   T
 
  0.00000000E+00  0.00000000E+00  0.00000000E+00
  0.00000000E+00  0.00000000E+00  0.00000000E+00
  0.00000000E+00  0.00000000E+00  0.00000000E+00
  0.00000000E+00  0.00000000E+00  0.00000000E+00
  0.00000000E+00  0.00000000E+00  0.00000000E+00
  0.00000000E+00  0.00000000E+00  0.00000000E+00
  0.00000000E+00  0.00000000E+00  0.00000000E+00
  0.00000000E+00  0.00000000E+00  0.00000000E+00
  0.00000000E+00  0.00000000E+00  0.00000000E+00
  0.00000000E+00  0.00000000E+00  0.00000000E+00
  0.00000000E+00  0.00000000E+00  0.00000000E+00
  0.00000000E+00  0.00000000E+00  0.00000000E+00
  0.00000000E+00  0.00000000E+00  0.00000000E+00
  0.00000000E+00  0.00000000E+00  0.00000000E+00
  0.00000000E+00  0.00000000E+00  0.00000000E+00
  0.00000000E+00  0.00000000E+00  0.00000000E+00
  0.00000000E+00  0.00000000E+00  0.00000000E+00
  0.00000000E+00  0.00000000E+00  0.00000000E+00
  0.00000000E+00  0.00000000E+00  0.00000000E+00
  0.00000000E+00  0.00000000E+00  0.00000000E+00
  0.00000000E+00  0.00000000E+00  0.00000000E+00
  0.00000000E+00  0.00000000E+00  0.00000000E+00
  0.00000000E+00  0.00000000E+00  0.00000000E+00
  0.00000000E+00  0.00000000E+00  0.00000000E+00
  0.00000000E+00  0.00000000E+00  0.00000000E+00
  0.00000000E+00  0.00000000E+00  0.00000000E+00
  0.00000000E+00  0.00000000E+00  0.00000000E+00
  0.00000000E+00  0.00000000E+00  0.00000000E+00
  0.00000000E+00  0.00000000E+00  0.00000000E+00
  0.00000000E+00  0.00000000E+00  0.00000000E+00
  0.00000000E+00  0.00000000E+00  0.00000000E+00
  0.00000000E+00  0.00000000E+00  0.00000000E+00
  0.00000000E+00  0.00000000E+00  0.00000000E+00
  0.00000000E+00  0.00000000E+00  0.00000000E+00
  0.00000000E+00  0.00000000E+00  0.00000000E+00
  0.00000000E+00  0.00000000E+00  0.00000000E+00
  0.00000000E+00  0.00000000E+00  0.00000000E+00
  0.00000000E+00  0.00000000E+00  0.00000000E+00
  0.00000000E+00  0.00000000E+00  0.00000000E+00
  0.00000000E+00  0.00000000E+00  0.00000000E+00
  0.00000000E+00  0.00000000E+00  0.00000000E+00
  0.00000000E+00  0.00000000E+00  0.00000000E+00
  0.00000000E+00  0.00000000E+00  0.00000000E+00
  0.00000000E+00  0.00000000E+00  0.00000000E+00
  0.00000000E+00  0.00000000E+00  0.00000000E+00
  0.00000000E+00  0.00000000E+00  0.00000000E+00
  0.00000000E+00  0.00000000E+00  0.00000000E+00
  0.00000000E+00  0.00000000E+00  0.00000000E+00
  0.00000000E+00  0.00000000E+00  0.00000000E+00
  0.00000000E+00  0.00000000E+00  0.00000000E+00
  0.00000000E+00  0.00000000E+00  0.00000000E+00
  0.00000000E+00  0.00000000E+00  0.00000000E+00
  0.00000000E+00  0.00000000E+00  0.00000000E+00
  0.00000000E+00  0.00000000E+00  0.00000000E+00
  0.00000000E+00  0.00000000E+00  0.00000000E+00
  0.00000000E+00  0.00000000E+00  0.00000000E+00
  0.00000000E+00  0.00000000E+00  0.00000000E+00
  0.00000000E+00  0.00000000E+00  0.00000000E+00
  0.00000000E+00  0.00000000E+00  0.00000000E+00
  0.00000000E+00  0.00000000E+00  0.00000000E+00
  0.00000000E+00  0.00000000E+00  0.00000000E+00
  0.00000000E+00  0.00000000E+00  0.00000000E+00
  0.00000000E+00  0.00000000E+00  0.00000000E+00
  0.00000000E+00  0.00000000E+00  0.00000000E+00
  0.00000000E+00  0.00000000E+00  0.00000000E+00
  0.00000000E+00  0.00000000E+00  0.00000000E+00
  0.00000000E+00  0.00000000E+00  0.00000000E+00
  0.00000000E+00  0.00000000E+00  0.00000000E+00
  0.00000000E+00  0.00000000E+00  0.00000000E+00
  0.00000000E+00  0.00000000E+00  0.00000000E+00
  0.00000000E+00  0.00000000E+00  0.00000000E+00
  0.00000000E+00  0.00000000E+00  0.00000000E+00
