Sn C  O  H                              
   1.00000000000000     
    29.0000000000000000    0.0000000000000000    0.0000000000000000
     0.0000000000000000   29.0000000000000000    0.0000000000000000
     0.0000000000000000    0.0000000000000000   29.0000000000000000
   Sn   C    O    H 
    68     1     2     1
Selective dynamics
Direct
  0.5355877794862491  0.5219090748015672  0.7478719025799420   T   T   T
  0.3884404724491854  0.6688730816840027  0.4512477425407761   T   T   T
  0.3804332959506586  0.5985862447987026  0.5231685897972806   T   T   T
  0.6076089470065611  0.4504110489934376  0.4498710309934353   F   F   F
  0.4613510339934379  0.4504110489934376  0.5961189590065601   F   F   F
  0.6888665825634993  0.5986100087812762  0.5235773433563915   T   T   T
  0.4597499082778596  0.5231827873251839  0.3689116909379552   T   T   T
  0.4594945973176383  0.3691738920729086  0.5226778417060302   T   T   T
  0.6107485761060739  0.5226244552117223  0.6770608756680102   T   T   T
  0.3883200848171930  0.4511731473701936  0.6685566277319137   T   T   T
  0.5347692832902410  0.6764515804608694  0.5996208266273638   T   T   T
  0.6068681803570359  0.3774131020744150  0.3782355032589916   T   T   T
  0.4590120251736577  0.6772789493890254  0.5231332873756406   T   T   T
  0.4632439144959081  0.6688995034877828  0.3774537035363529   T   T   T
  0.6888564266992656  0.5224847026265542  0.5973993029407085   T   T   T
  0.6804191931010973  0.5953660625466536  0.3767723547122040   T   T   T
  0.6802446738560498  0.3787893567146078  0.5925459990460673   T   T   T
  0.5344799760000001  0.4444887396173627  0.5229899879999991   F   F   F
  0.3809166424232444  0.4478537564670136  0.5226626588877143   T   T   T
  0.5344799760000001  0.6025912403826368  0.5229899879999991   F   F   F
  0.5344799760000001  0.5235400199999987  0.6020412683826351   F   F   F
  0.4631288857757401  0.6672935752478547  0.6708783881345789   T   T   T
  0.6135312563826361  0.5235400199999987  0.5229899879999991   F   F   F
  0.5347259471894213  0.3690085750569495  0.5974136004566288   T   T   T
  0.3114636866887053  0.5229674079017907  0.5235684024038376   T   T   T
  0.3810351082963429  0.5230999887079170  0.5986791353329500   T   T   T
  0.5353250773393680  0.5228255577556099  0.2998256132775817   T   T   T
  0.3882579316787297  0.4518725097736777  0.3778150381881852   T   T   T
  0.6822558415192095  0.4514623564273824  0.3800310607964067   T   T   T
  0.6891386721155739  0.5249876547314924  0.4481811336207175   T   T   T
  0.4613510339934379  0.4504110489934376  0.4498710309934353   F   F   F
  0.4613510339934379  0.5966689310065618  0.4498710309934353   F   F   F
  0.6076089470065611  0.5966689310065618  0.4498710309934353   F   F   F
  0.5344463325006391  0.6777013752067745  0.4481483728842326   T   T   T
  0.5348395487948043  0.7457151460102374  0.5248009984063100   T   T   T
  0.3893218046669923  0.6681975813145894  0.5962695350588486   T   T   T
  0.6899889466714956  0.4487607203022479  0.5210579519264499   T   T   T
  0.3887578864477711  0.3769625841523149  0.4512349978312833   T   T   T
  0.3889603321340185  0.5945838015798812  0.3774909596957019   T   T   T
  0.4627793621951802  0.3770792900002953  0.6679696950111361   T   T   T
  0.6821099277468418  0.4503089621324661  0.6671420401928309   T   T   T
  0.6076089470065611  0.5966689310065618  0.5961189590065601   F   F   F
  0.5346279993146899  0.4477153098267468  0.3694798033144118   T   T   T
  0.5344799760000001  0.5235400199999987  0.4439487216173603   F   F   F
  0.6805403556259126  0.6695582903014764  0.5948512288956150   T   T   T
  0.5363302651205684  0.5977284346879623  0.6781537387772504   T   T   T
  0.4613510339934379  0.5966689310065618  0.5961189590065601   F   F   F
  0.4597587085140383  0.5222493229493562  0.6776930896812225   T   T   T
  0.6106683179390349  0.5227023009806724  0.3695870722719141   T   T   T
  0.6805247483599726  0.3758923142502996  0.4521077526044319   T   T   T
  0.6076089470065611  0.4504110489934376  0.5961189590065601   F   F   F
  0.3892143738445212  0.5943600742919384  0.6700234595556978   T   T   T
  0.5343683557656045  0.2986222059814987  0.5224457213677892   T   T   T
  0.6809829120684772  0.5949591584640636  0.6676210328803941   T   T   T
  0.3888512684176622  0.3774744056669962  0.5944371738488932   T   T   T
  0.5353434052047362  0.5984111426733106  0.3691339110963993   T   T   T
  0.6812163883545351  0.6685612114256291  0.4515527749857803   T   T   T
  0.6064717887495900  0.6702360838991994  0.3782952266644711   T   T   T
  0.6093228618006105  0.3685833410377773  0.5224201148372518   T   T   T
  0.4554287246173629  0.5235400199999987  0.5229899879999991   F   F   F
  0.6102664661142054  0.6770040844364046  0.5228701590193718   T   T   T
  0.6070740148969213  0.6696468967144997  0.6692142271880537   T   T   T
  0.5340963074051868  0.3691637424639335  0.4476468348375451   T   T   T
  0.4624915751766140  0.3772885090594507  0.3773054647373373   T   T   T
  0.6069376757945145  0.3763035937244194  0.6672943723187155   T   T   T
  0.5349446477807276  0.4472920273819485  0.6767681925189837   T   T   T
  0.7599193941369652  0.5241087504002375  0.5233225362916918   T   T   T
  0.3806093806394918  0.5234075270074202  0.4481130724043114   T   T   T
  0.7284777198797200  0.3204979159471252  0.6120907724028363   T   T   T
  0.7503526984691462  0.3171392243685274  0.6477428888905484   T   T   T
  0.7306946592488747  0.2890669062415894  0.5766866394696342   T   T   T
  0.7527000736427560  0.2648522686402346  0.5861400873817408   T   T   T
 
  0.00000000E+00  0.00000000E+00  0.00000000E+00
  0.00000000E+00  0.00000000E+00  0.00000000E+00
  0.00000000E+00  0.00000000E+00  0.00000000E+00
  0.00000000E+00  0.00000000E+00  0.00000000E+00
  0.00000000E+00  0.00000000E+00  0.00000000E+00
  0.00000000E+00  0.00000000E+00  0.00000000E+00
  0.00000000E+00  0.00000000E+00  0.00000000E+00
  0.00000000E+00  0.00000000E+00  0.00000000E+00
  0.00000000E+00  0.00000000E+00  0.00000000E+00
  0.00000000E+00  0.00000000E+00  0.00000000E+00
  0.00000000E+00  0.00000000E+00  0.00000000E+00
  0.00000000E+00  0.00000000E+00  0.00000000E+00
  0.00000000E+00  0.00000000E+00  0.00000000E+00
  0.00000000E+00  0.00000000E+00  0.00000000E+00
  0.00000000E+00  0.00000000E+00  0.00000000E+00
  0.00000000E+00  0.00000000E+00  0.00000000E+00
  0.00000000E+00  0.00000000E+00  0.00000000E+00
  0.00000000E+00  0.00000000E+00  0.00000000E+00
  0.00000000E+00  0.00000000E+00  0.00000000E+00
  0.00000000E+00  0.00000000E+00  0.00000000E+00
  0.00000000E+00  0.00000000E+00  0.00000000E+00
  0.00000000E+00  0.00000000E+00  0.00000000E+00
  0.00000000E+00  0.00000000E+00  0.00000000E+00
  0.00000000E+00  0.00000000E+00  0.00000000E+00
  0.00000000E+00  0.00000000E+00  0.00000000E+00
  0.00000000E+00  0.00000000E+00  0.00000000E+00
  0.00000000E+00  0.00000000E+00  0.00000000E+00
  0.00000000E+00  0.00000000E+00  0.00000000E+00
  0.00000000E+00  0.00000000E+00  0.00000000E+00
  0.00000000E+00  0.00000000E+00  0.00000000E+00
  0.00000000E+00  0.00000000E+00  0.00000000E+00
  0.00000000E+00  0.00000000E+00  0.00000000E+00
  0.00000000E+00  0.00000000E+00  0.00000000E+00
  0.00000000E+00  0.00000000E+00  0.00000000E+00
  0.00000000E+00  0.00000000E+00  0.00000000E+00
  0.00000000E+00  0.00000000E+00  0.00000000E+00
  0.00000000E+00  0.00000000E+00  0.00000000E+00
  0.00000000E+00  0.00000000E+00  0.00000000E+00
  0.00000000E+00  0.00000000E+00  0.00000000E+00
  0.00000000E+00  0.00000000E+00  0.00000000E+00
  0.00000000E+00  0.00000000E+00  0.00000000E+00
  0.00000000E+00  0.00000000E+00  0.00000000E+00
  0.00000000E+00  0.00000000E+00  0.00000000E+00
  0.00000000E+00  0.00000000E+00  0.00000000E+00
  0.00000000E+00  0.00000000E+00  0.00000000E+00
  0.00000000E+00  0.00000000E+00  0.00000000E+00
  0.00000000E+00  0.00000000E+00  0.00000000E+00
  0.00000000E+00  0.00000000E+00  0.00000000E+00
  0.00000000E+00  0.00000000E+00  0.00000000E+00
  0.00000000E+00  0.00000000E+00  0.00000000E+00
  0.00000000E+00  0.00000000E+00  0.00000000E+00
  0.00000000E+00  0.00000000E+00  0.00000000E+00
  0.00000000E+00  0.00000000E+00  0.00000000E+00
  0.00000000E+00  0.00000000E+00  0.00000000E+00
  0.00000000E+00  0.00000000E+00  0.00000000E+00
  0.00000000E+00  0.00000000E+00  0.00000000E+00
  0.00000000E+00  0.00000000E+00  0.00000000E+00
  0.00000000E+00  0.00000000E+00  0.00000000E+00
  0.00000000E+00  0.00000000E+00  0.00000000E+00
  0.00000000E+00  0.00000000E+00  0.00000000E+00
  0.00000000E+00  0.00000000E+00  0.00000000E+00
  0.00000000E+00  0.00000000E+00  0.00000000E+00
  0.00000000E+00  0.00000000E+00  0.00000000E+00
  0.00000000E+00  0.00000000E+00  0.00000000E+00
  0.00000000E+00  0.00000000E+00  0.00000000E+00
  0.00000000E+00  0.00000000E+00  0.00000000E+00
  0.00000000E+00  0.00000000E+00  0.00000000E+00
  0.00000000E+00  0.00000000E+00  0.00000000E+00
  0.00000000E+00  0.00000000E+00  0.00000000E+00
  0.00000000E+00  0.00000000E+00  0.00000000E+00
  0.00000000E+00  0.00000000E+00  0.00000000E+00
  0.00000000E+00  0.00000000E+00  0.00000000E+00
