Sn C  O  H                              
   1.00000000000000     
    29.0000000000000000    0.0000000000000000    0.0000000000000000
     0.0000000000000000   29.0000000000000000    0.0000000000000000
     0.0000000000000000    0.0000000000000000   29.0000000000000000
   Sn   C    O    H 
    68     1     2     1
Selective dynamics
Direct
  0.5342096656765202  0.5236198867316383  0.7476947013111822   T   T   T
  0.3886673117459739  0.6699081640186387  0.4517338056993012   T   T   T
  0.3808840865906610  0.5989498833244010  0.5233495690842245   T   T   T
  0.6076089470065611  0.4504110489934376  0.4498710309934353   F   F   F
  0.4613510339934379  0.4504110489934376  0.5961189590065601   F   F   F
  0.6889108546124079  0.5976382049681269  0.5237278778988110   T   T   T
  0.4595220022000039  0.5232710107078188  0.3690226316634536   T   T   T
  0.4595287377466946  0.3696719499323736  0.5231041536799074   T   T   T
  0.6091124541654780  0.5237648048591815  0.6781089679902356   T   T   T
  0.3882920329191482  0.4518266772659488  0.6689058897525240   T   T   T
  0.5345231195254573  0.6775895385807834  0.5988051426942342   T   T   T
  0.6066923255268669  0.3785496230975023  0.3766728719283255   T   T   T
  0.4594286781405660  0.6779346798635100  0.5235575593125863   T   T   T
  0.4631632970451764  0.6713255360971090  0.3791679572241500   T   T   T
  0.6896720256202662  0.5223886523021772  0.5983536401418116   T   T   T
  0.6807267950573452  0.5952546488090081  0.3771594442417789   T   T   T
  0.6820634834107107  0.3806698926802424  0.5957700710279684   T   T   T
  0.5344799760000001  0.4444887396173627  0.5229899879999991   F   F   F
  0.3806645011540198  0.4489235918766034  0.5233714854998958   T   T   T
  0.5344799760000001  0.6025912403826368  0.5229899879999991   F   F   F
  0.5344799760000001  0.5235400199999987  0.6020412683826351   F   F   F
  0.4624581397875130  0.6691699743421582  0.6691030909976475   T   T   T
  0.6135312563826361  0.5235400199999987  0.5229899879999991   F   F   F
  0.5345381323164831  0.3699203564503780  0.5989152331475450   T   T   T
  0.3112433241592306  0.5241128892985966  0.5232227229741656   T   T   T
  0.3806126668579921  0.5236623976961425  0.5987176592030656   T   T   T
  0.5354600039063958  0.5246969493532683  0.3006424553801312   T   T   T
  0.3887136579684233  0.4516937625125762  0.3768411294686869   T   T   T
  0.6808840235669336  0.4518549669511538  0.3771742805567378   T   T   T
  0.6890006784813597  0.5234383964538681  0.4478136636391898   T   T   T
  0.4613510339934379  0.4504110489934376  0.4498710309934353   F   F   F
  0.4613510339934379  0.5966689310065618  0.4498710309934353   F   F   F
  0.6076089470065611  0.5966689310065618  0.4498710309934353   F   F   F
  0.5365470635074908  0.6783302995227405  0.4483987641042736   T   T   T
  0.5353061587747187  0.7482297326547317  0.5235609010179467   T   T   T
  0.3883513999309480  0.6692507203798505  0.5950079378386989   T   T   T
  0.6891341385878186  0.4491630323197157  0.5224424210121946   T   T   T
  0.3883249451480104  0.3786332622699203  0.4520444937847819   T   T   T
  0.3899245795913270  0.5962282736306656  0.3776982042085566   T   T   T
  0.4625155724196754  0.3783974796056179  0.6697981659240072   T   T   T
  0.6798796731347861  0.4530306803261953  0.6710980657867359   T   T   T
  0.6076089470065611  0.5966689310065618  0.5961189590065601   F   F   F
  0.5345826379022187  0.4483865572274418  0.3689815489352620   T   T   T
  0.5344799760000001  0.5235400199999987  0.4439487216173603   F   F   F
  0.6824059494425606  0.6671334434003634  0.5963641861102785   T   T   T
  0.5341049875233256  0.5982261282688741  0.6772301015400872   T   T   T
  0.4613510339934379  0.5966689310065618  0.5961189590065601   F   F   F
  0.4590763693826281  0.5233009757615978  0.6772778481921964   T   T   T
  0.6104508218423490  0.5235093701535329  0.3696203995466413   T   T   T
  0.6812873640433245  0.3783658156519719  0.4518567822315973   T   T   T
  0.6076089470065611  0.4504110489934376  0.5961189590065601   F   F   F
  0.3887328399142413  0.5953397725412620  0.6690786436135904   T   T   T
  0.5354066346361646  0.3005678322557713  0.5232937429452883   T   T   T
  0.6802830075058879  0.5936216612718671  0.6689968610309212   T   T   T
  0.3884929273648030  0.3781823625058823  0.5946461950613189   T   T   T
  0.5347728119523667  0.5998191469980179  0.3698270835337006   T   T   T
  0.6808460143758469  0.6681680027953588  0.4515542823987289   T   T   T
  0.6070934803215933  0.6692932843389600  0.3763866457875637   T   T   T
  0.6110418584803824  0.3705681483034537  0.5239374953270903   T   T   T
  0.4554287246173629  0.5235400199999987  0.5229899879999991   F   F   F
  0.6108404250431231  0.6776350511105134  0.5240534559046048   T   T   T
  0.6062748505386828  0.6680314261425169  0.6698206321036749   T   T   T
  0.5354312548692186  0.3699215250555935  0.4480672671261698   T   T   T
  0.4629950501006277  0.3778557540027159  0.3779601908934774   T   T   T
  0.6065394504440332  0.3786947527454879  0.6694731989276043   T   T   T
  0.5342703570579161  0.4486012317343073  0.6774690319307001   T   T   T
  0.7599127733129660  0.5237964552408616  0.5234788977537067   T   T   T
  0.3805369615912837  0.5233756051072522  0.4476316167452526   T   T   T
  0.7267248729285987  0.6171900750353396  0.7275201112874001   T   T   T
  0.7573251524949156  0.6457783815673636  0.7244275914293782   T   T   T
  0.7166369689866454  0.5937905345129088  0.7673972237081914   T   T   T
  0.7384922470084382  0.6045377779075485  0.7912183277426121   T   T   T
 
  0.00000000E+00  0.00000000E+00  0.00000000E+00
  0.00000000E+00  0.00000000E+00  0.00000000E+00
  0.00000000E+00  0.00000000E+00  0.00000000E+00
  0.00000000E+00  0.00000000E+00  0.00000000E+00
  0.00000000E+00  0.00000000E+00  0.00000000E+00
  0.00000000E+00  0.00000000E+00  0.00000000E+00
  0.00000000E+00  0.00000000E+00  0.00000000E+00
  0.00000000E+00  0.00000000E+00  0.00000000E+00
  0.00000000E+00  0.00000000E+00  0.00000000E+00
  0.00000000E+00  0.00000000E+00  0.00000000E+00
  0.00000000E+00  0.00000000E+00  0.00000000E+00
  0.00000000E+00  0.00000000E+00  0.00000000E+00
  0.00000000E+00  0.00000000E+00  0.00000000E+00
  0.00000000E+00  0.00000000E+00  0.00000000E+00
  0.00000000E+00  0.00000000E+00  0.00000000E+00
  0.00000000E+00  0.00000000E+00  0.00000000E+00
  0.00000000E+00  0.00000000E+00  0.00000000E+00
  0.00000000E+00  0.00000000E+00  0.00000000E+00
  0.00000000E+00  0.00000000E+00  0.00000000E+00
  0.00000000E+00  0.00000000E+00  0.00000000E+00
  0.00000000E+00  0.00000000E+00  0.00000000E+00
  0.00000000E+00  0.00000000E+00  0.00000000E+00
  0.00000000E+00  0.00000000E+00  0.00000000E+00
  0.00000000E+00  0.00000000E+00  0.00000000E+00
  0.00000000E+00  0.00000000E+00  0.00000000E+00
  0.00000000E+00  0.00000000E+00  0.00000000E+00
  0.00000000E+00  0.00000000E+00  0.00000000E+00
  0.00000000E+00  0.00000000E+00  0.00000000E+00
  0.00000000E+00  0.00000000E+00  0.00000000E+00
  0.00000000E+00  0.00000000E+00  0.00000000E+00
  0.00000000E+00  0.00000000E+00  0.00000000E+00
  0.00000000E+00  0.00000000E+00  0.00000000E+00
  0.00000000E+00  0.00000000E+00  0.00000000E+00
  0.00000000E+00  0.00000000E+00  0.00000000E+00
  0.00000000E+00  0.00000000E+00  0.00000000E+00
  0.00000000E+00  0.00000000E+00  0.00000000E+00
  0.00000000E+00  0.00000000E+00  0.00000000E+00
  0.00000000E+00  0.00000000E+00  0.00000000E+00
  0.00000000E+00  0.00000000E+00  0.00000000E+00
  0.00000000E+00  0.00000000E+00  0.00000000E+00
  0.00000000E+00  0.00000000E+00  0.00000000E+00
  0.00000000E+00  0.00000000E+00  0.00000000E+00
  0.00000000E+00  0.00000000E+00  0.00000000E+00
  0.00000000E+00  0.00000000E+00  0.00000000E+00
  0.00000000E+00  0.00000000E+00  0.00000000E+00
  0.00000000E+00  0.00000000E+00  0.00000000E+00
  0.00000000E+00  0.00000000E+00  0.00000000E+00
  0.00000000E+00  0.00000000E+00  0.00000000E+00
  0.00000000E+00  0.00000000E+00  0.00000000E+00
  0.00000000E+00  0.00000000E+00  0.00000000E+00
  0.00000000E+00  0.00000000E+00  0.00000000E+00
  0.00000000E+00  0.00000000E+00  0.00000000E+00
  0.00000000E+00  0.00000000E+00  0.00000000E+00
  0.00000000E+00  0.00000000E+00  0.00000000E+00
  0.00000000E+00  0.00000000E+00  0.00000000E+00
  0.00000000E+00  0.00000000E+00  0.00000000E+00
  0.00000000E+00  0.00000000E+00  0.00000000E+00
  0.00000000E+00  0.00000000E+00  0.00000000E+00
  0.00000000E+00  0.00000000E+00  0.00000000E+00
  0.00000000E+00  0.00000000E+00  0.00000000E+00
  0.00000000E+00  0.00000000E+00  0.00000000E+00
  0.00000000E+00  0.00000000E+00  0.00000000E+00
  0.00000000E+00  0.00000000E+00  0.00000000E+00
  0.00000000E+00  0.00000000E+00  0.00000000E+00
  0.00000000E+00  0.00000000E+00  0.00000000E+00
  0.00000000E+00  0.00000000E+00  0.00000000E+00
  0.00000000E+00  0.00000000E+00  0.00000000E+00
  0.00000000E+00  0.00000000E+00  0.00000000E+00
  0.00000000E+00  0.00000000E+00  0.00000000E+00
  0.00000000E+00  0.00000000E+00  0.00000000E+00
  0.00000000E+00  0.00000000E+00  0.00000000E+00
  0.00000000E+00  0.00000000E+00  0.00000000E+00
