Sn C  O  H                              
   1.00000000000000     
    29.0000000000000000    0.0000000000000000    0.0000000000000000
     0.0000000000000000   29.0000000000000000    0.0000000000000000
     0.0000000000000000    0.0000000000000000   29.0000000000000000
   Sn   C    O    H 
    68     1     2     1
Selective dynamics
Direct
  0.5349764559528888  0.5241370491839029  0.7454687988058329   T   T   T
  0.3881553066072858  0.6688299572228261  0.4511724544137720   T   T   T
  0.3806842898933291  0.5991337017873027  0.5235302975601234   T   T   T
  0.6076089470065611  0.4504110489934376  0.4498710309934353   F   F   F
  0.4613510339934379  0.4504110489934376  0.5961189590065601   F   F   F
  0.6900523215867412  0.5981884158772491  0.5250198090721832   T   T   T
  0.4597443667453133  0.5242576003925139  0.3685669980110350   T   T   T
  0.4593986823381973  0.3693900279087169  0.5226731750336490   T   T   T
  0.6108150266451723  0.5241339572755331  0.6761747420538674   T   T   T
  0.3890400122930074  0.4520023366035383  0.6683432766167682   T   T   T
  0.5338046512000868  0.6785347624470393  0.5975910476858355   T   T   T
  0.6072310217216659  0.3778322562978233  0.3769052356685251   T   T   T
  0.4593645770081813  0.6780507648184092  0.5225597880425581   T   T   T
  0.4628342347226260  0.6701802451656246  0.3781195762428026   T   T   T
  0.6891510800195171  0.5224604897192843  0.5978926195189648   T   T   T
  0.6830727843247808  0.5968144955039993  0.3795901336792132   T   T   T
  0.6806861448456235  0.3776173864291473  0.5943014882185417   T   T   T
  0.5344799760000001  0.4444887396173627  0.5229899879999991   F   F   F
  0.3806414642708768  0.4481675245223585  0.5226587617585660   T   T   T
  0.5344799760000001  0.6025912403826368  0.5229899879999991   F   F   F
  0.5344799760000001  0.5235400199999987  0.6020412683826351   F   F   F
  0.4627847632257410  0.6702387760037718  0.6682155564692348   T   T   T
  0.6135312563826361  0.5235400199999987  0.5229899879999991   F   F   F
  0.5343274933481769  0.3691367514653567  0.5974187997903609   T   T   T
  0.3113428331076247  0.5236739997746471  0.5221988315576382   T   T   T
  0.3804121495226717  0.5235100438478677  0.5978392435586010   T   T   T
  0.5363860451436875  0.5258416448585659  0.2988207280172664   T   T   T
  0.3890464378224889  0.4524891922772302  0.3761134780814507   T   T   T
  0.6816084021545217  0.4524122758160966  0.3789733364566052   T   T   T
  0.6893529741097104  0.5244997644541046  0.4493844390383438   T   T   T
  0.4613510339934379  0.4504110489934376  0.4498710309934353   F   F   F
  0.4613510339934379  0.5966689310065618  0.4498710309934353   F   F   F
  0.6076089470065611  0.5966689310065618  0.4498710309934353   F   F   F
  0.5349302592793601  0.6780195449709787  0.4485240048022338   T   T   T
  0.5343082902144982  0.7489982272815675  0.5224397826714466   T   T   T
  0.3889833951979100  0.6705248048196162  0.5943632503368824   T   T   T
  0.6888092853532195  0.4481936797170772  0.5228843420330278   T   T   T
  0.3897576418715854  0.3782475668243171  0.4496096485663749   T   T   T
  0.3887952231429244  0.5957087492177866  0.3766117183414452   T   T   T
  0.4631695298095804  0.3777522336915655  0.6683679138322500   T   T   T
  0.6807016366911077  0.4515022009027890  0.6684393431639469   T   T   T
  0.6076089470065611  0.5966689310065618  0.5961189590065601   F   F   F
  0.5365388649541619  0.4495508104668772  0.3680105357587250   T   T   T
  0.5344799760000001  0.5235400199999987  0.4439487216173603   F   F   F
  0.6805311788111622  0.6711283351300480  0.5938800662868053   T   T   T
  0.5347676505554315  0.5998714235880146  0.6762349747144530   T   T   T
  0.4613510339934379  0.5966689310065618  0.5961189590065601   F   F   F
  0.4591900482528560  0.5241402006596124  0.6766251414391468   T   T   T
  0.6114877846010001  0.5247066752752526  0.3695204125972671   T   T   T
  0.6804758175701852  0.3772121775684953  0.4513618786700963   T   T   T
  0.6076089470065611  0.4504110489934376  0.5961189590065601   F   F   F
  0.3880102017921943  0.5958082988785203  0.6675980506631454   T   T   T
  0.5348535582297458  0.3003488993344527  0.5212201059700641   T   T   T
  0.6816007021733966  0.5961304742851364  0.6665006662345080   T   T   T
  0.3887767132601529  0.3776131135369691  0.5944956146877747   T   T   T
  0.5348095601696482  0.5999065881847508  0.3696252183069324   T   T   T
  0.6801023080196950  0.6686048661420134  0.4537031832317079   T   T   T
  0.6072762718640140  0.6701950725761964  0.3782956110338010   T   T   T
  0.6099842864881463  0.3696825663820267  0.5229424755779293   T   T   T
  0.4554287246173629  0.5235400199999987  0.5229899879999991   F   F   F
  0.6090582685929864  0.6787636838413220  0.5237283241554060   T   T   T
  0.6064117736292264  0.6706785879575285  0.6670802573705864   T   T   T
  0.5349354394448181  0.3703996878483321  0.4466612284840767   T   T   T
  0.4634355178874644  0.3800812591399260  0.3749457787747155   T   T   T
  0.6060071350419292  0.3765777825057584  0.6673778872247054   T   T   T
  0.5350745066168433  0.4483647030715995  0.6763034512975438   T   T   T
  0.7604586581068847  0.5230053970106322  0.5236852900856064   T   T   T
  0.3811009274435212  0.5242072484112440  0.4473344761009366   T   T   T
  0.7255176992239076  0.7272211885960979  0.4294782013051993   T   T   T
  0.7546386821488248  0.7245063249659464  0.3993729183845015   T   T   T
  0.7166844379261298  0.7666533910680980  0.4541151898033447   T   T   T
  0.7380315186345222  0.7905728682168447  0.4426681320799125   T   T   T
 
  0.00000000E+00  0.00000000E+00  0.00000000E+00
  0.00000000E+00  0.00000000E+00  0.00000000E+00
  0.00000000E+00  0.00000000E+00  0.00000000E+00
  0.00000000E+00  0.00000000E+00  0.00000000E+00
  0.00000000E+00  0.00000000E+00  0.00000000E+00
  0.00000000E+00  0.00000000E+00  0.00000000E+00
  0.00000000E+00  0.00000000E+00  0.00000000E+00
  0.00000000E+00  0.00000000E+00  0.00000000E+00
  0.00000000E+00  0.00000000E+00  0.00000000E+00
  0.00000000E+00  0.00000000E+00  0.00000000E+00
  0.00000000E+00  0.00000000E+00  0.00000000E+00
  0.00000000E+00  0.00000000E+00  0.00000000E+00
  0.00000000E+00  0.00000000E+00  0.00000000E+00
  0.00000000E+00  0.00000000E+00  0.00000000E+00
  0.00000000E+00  0.00000000E+00  0.00000000E+00
  0.00000000E+00  0.00000000E+00  0.00000000E+00
  0.00000000E+00  0.00000000E+00  0.00000000E+00
  0.00000000E+00  0.00000000E+00  0.00000000E+00
  0.00000000E+00  0.00000000E+00  0.00000000E+00
  0.00000000E+00  0.00000000E+00  0.00000000E+00
  0.00000000E+00  0.00000000E+00  0.00000000E+00
  0.00000000E+00  0.00000000E+00  0.00000000E+00
  0.00000000E+00  0.00000000E+00  0.00000000E+00
  0.00000000E+00  0.00000000E+00  0.00000000E+00
  0.00000000E+00  0.00000000E+00  0.00000000E+00
  0.00000000E+00  0.00000000E+00  0.00000000E+00
  0.00000000E+00  0.00000000E+00  0.00000000E+00
  0.00000000E+00  0.00000000E+00  0.00000000E+00
  0.00000000E+00  0.00000000E+00  0.00000000E+00
  0.00000000E+00  0.00000000E+00  0.00000000E+00
  0.00000000E+00  0.00000000E+00  0.00000000E+00
  0.00000000E+00  0.00000000E+00  0.00000000E+00
  0.00000000E+00  0.00000000E+00  0.00000000E+00
  0.00000000E+00  0.00000000E+00  0.00000000E+00
  0.00000000E+00  0.00000000E+00  0.00000000E+00
  0.00000000E+00  0.00000000E+00  0.00000000E+00
  0.00000000E+00  0.00000000E+00  0.00000000E+00
  0.00000000E+00  0.00000000E+00  0.00000000E+00
  0.00000000E+00  0.00000000E+00  0.00000000E+00
  0.00000000E+00  0.00000000E+00  0.00000000E+00
  0.00000000E+00  0.00000000E+00  0.00000000E+00
  0.00000000E+00  0.00000000E+00  0.00000000E+00
  0.00000000E+00  0.00000000E+00  0.00000000E+00
  0.00000000E+00  0.00000000E+00  0.00000000E+00
  0.00000000E+00  0.00000000E+00  0.00000000E+00
  0.00000000E+00  0.00000000E+00  0.00000000E+00
  0.00000000E+00  0.00000000E+00  0.00000000E+00
  0.00000000E+00  0.00000000E+00  0.00000000E+00
  0.00000000E+00  0.00000000E+00  0.00000000E+00
  0.00000000E+00  0.00000000E+00  0.00000000E+00
  0.00000000E+00  0.00000000E+00  0.00000000E+00
  0.00000000E+00  0.00000000E+00  0.00000000E+00
  0.00000000E+00  0.00000000E+00  0.00000000E+00
  0.00000000E+00  0.00000000E+00  0.00000000E+00
  0.00000000E+00  0.00000000E+00  0.00000000E+00
  0.00000000E+00  0.00000000E+00  0.00000000E+00
  0.00000000E+00  0.00000000E+00  0.00000000E+00
  0.00000000E+00  0.00000000E+00  0.00000000E+00
  0.00000000E+00  0.00000000E+00  0.00000000E+00
  0.00000000E+00  0.00000000E+00  0.00000000E+00
  0.00000000E+00  0.00000000E+00  0.00000000E+00
  0.00000000E+00  0.00000000E+00  0.00000000E+00
  0.00000000E+00  0.00000000E+00  0.00000000E+00
  0.00000000E+00  0.00000000E+00  0.00000000E+00
  0.00000000E+00  0.00000000E+00  0.00000000E+00
  0.00000000E+00  0.00000000E+00  0.00000000E+00
  0.00000000E+00  0.00000000E+00  0.00000000E+00
  0.00000000E+00  0.00000000E+00  0.00000000E+00
  0.00000000E+00  0.00000000E+00  0.00000000E+00
  0.00000000E+00  0.00000000E+00  0.00000000E+00
  0.00000000E+00  0.00000000E+00  0.00000000E+00
  0.00000000E+00  0.00000000E+00  0.00000000E+00
