Sn C  O  H                              
   1.00000000000000     
    29.0000000000000000    0.0000000000000000    0.0000000000000000
     0.0000000000000000   29.0000000000000000    0.0000000000000000
     0.0000000000000000    0.0000000000000000   29.0000000000000000
   Sn   C    O    H 
    68     1     2     1
Selective dynamics
Direct
  0.5332383742316960  0.5242964745062936  0.7421767546430742   T   T   T
  0.3885257757578318  0.6683598187426341  0.4523525650695789   T   T   T
  0.3797508344897463  0.5982372762651482  0.5237331338842822   T   T   T
  0.6076089470065611  0.4504110489934376  0.4498710309934353   F   F   F
  0.4613510339934379  0.4504110489934376  0.5961189590065601   F   F   F
  0.6905000075152695  0.5957309091247779  0.5216257654004360   T   T   T
  0.4576282153608987  0.5232599893573774  0.3714567278862750   T   T   T
  0.4604991189178172  0.3691811693961465  0.5256867553878176   T   T   T
  0.6154415096850422  0.5219603758331908  0.6808361935200977   T   T   T
  0.3884352005917719  0.4523543926024749  0.6682226635936732   T   T   T
  0.5349034035885848  0.6791855896197015  0.5970057434723418   T   T   T
  0.6054807013797500  0.3741464744326654  0.3822423124479117   T   T   T
  0.4604129492357306  0.6775316593198950  0.5240880761663511   T   T   T
  0.4620631757954493  0.6708071695564108  0.3785166021543986   T   T   T
  0.6891613432000774  0.5249564901252791  0.5975341835477694   T   T   T
  0.6791714487146316  0.5955126007392555  0.3764890996129209   T   T   T
  0.6782267170018855  0.3755480452774923  0.5916465329748899   T   T   T
  0.5344799760000001  0.4444887396173627  0.5229899879999991   F   F   F
  0.3798366370559388  0.4489177856784448  0.5226420599840939   T   T   T
  0.5344799760000001  0.6025912403826368  0.5229899879999991   F   F   F
  0.5344799760000001  0.5235400199999987  0.6020412683826351   F   F   F
  0.4636089944381019  0.6693288625808753  0.6677629042923452   T   T   T
  0.6135312563826361  0.5235400199999987  0.5229899879999991   F   F   F
  0.5361189416348955  0.3682360227185831  0.5979897335744858   T   T   T
  0.3084019747480984  0.5233678465085707  0.5233260217721075   T   T   T
  0.3794466287173588  0.5235888344434653  0.5971068811622409   T   T   T
  0.5310562645828528  0.5242378143444859  0.3020744419223587   T   T   T
  0.3864567712817388  0.4517974513554309  0.3790260208207768   T   T   T
  0.6767423625332204  0.4507832687131347  0.3736696516114043   T   T   T
  0.6874886394696975  0.5218235297441666  0.4455588862667246   T   T   T
  0.4613510339934379  0.4504110489934376  0.4498710309934353   F   F   F
  0.4613510339934379  0.5966689310065618  0.4498710309934353   F   F   F
  0.6076089470065611  0.5966689310065618  0.4498710309934353   F   F   F
  0.5329442307569631  0.6803347965985221  0.4504723161441365   T   T   T
  0.5418929668151173  0.7522739130812757  0.5250960623234034   T   T   T
  0.3884975752876772  0.6698352185312425  0.5951636058797836   T   T   T
  0.6893447929039893  0.4499109537616112  0.5246345979527990   T   T   T
  0.3907526358101260  0.3771759164709996  0.4526233201478652   T   T   T
  0.3878138694850221  0.5959962603182988  0.3779183662962966   T   T   T
  0.4632668229468175  0.3770305824474419  0.6671812727607582   T   T   T
  0.6846597164537762  0.4486283172851854  0.6637099432975362   T   T   T
  0.6076089470065611  0.5966689310065618  0.5961189590065601   F   F   F
  0.5348872135323066  0.4469735779889706  0.3712364894883755   T   T   T
  0.5344799760000001  0.5235400199999987  0.4439487216173603   F   F   F
  0.6824462828559508  0.6666347643051745  0.5921007144997101   T   T   T
  0.5377148181956988  0.5998620572601228  0.6750205227486425   T   T   T
  0.4613510339934379  0.5966689310065618  0.5961189590065601   F   F   F
  0.4587200843234794  0.5244124896953980  0.6744387810907100   T   T   T
  0.6085881867605377  0.5241054465197976  0.3685698458877895   T   T   T
  0.6826669000047354  0.3802637815890698  0.4519374383136425   T   T   T
  0.6076089470065611  0.4504110489934376  0.5961189590065601   F   F   F
  0.3874632265686063  0.5954880162064924  0.6675686076260733   T   T   T
  0.5382750737394046  0.2952018063394886  0.5252281345766063   T   T   T
  0.6812432570195892  0.5974944375963874  0.6683035747335856   T   T   T
  0.3871709662869391  0.3786264549128262  0.5952457190012039   T   T   T
  0.5340822370144871  0.6007888638683327  0.3715089412376087   T   T   T
  0.6822337486669692  0.6681538659025118  0.4522034882277760   T   T   T
  0.6061331653041960  0.6720785073825286  0.3814181439952258   T   T   T
  0.6087715874633344  0.3699612684159150  0.5200262236201544   T   T   T
  0.4554287246173629  0.5235400199999987  0.5229899879999991   F   F   F
  0.6104905801374443  0.6765019103290674  0.5225416742900473   T   T   T
  0.6077510188642498  0.6712405586437790  0.6669483679182534   T   T   T
  0.5302925403463938  0.3670772253617945  0.4493115466642866   T   T   T
  0.4611465465105865  0.3786973343652192  0.3755304546760702   T   T   T
  0.6075797003414780  0.3783711321357914  0.6700177250630935   T   T   T
  0.5359095246498918  0.4479291789425811  0.6754833561321583   T   T   T
  0.7626071099479289  0.5219112686607167  0.5140840449146727   T   T   T
  0.3790976580740875  0.5242999362609413  0.4490262337115174   T   T   T
  0.6462185893514492  0.5185169125454433  0.7540656125300729   T   T   T
  0.6230060637818506  0.5193167706912355  0.7895784327282447   T   T   T
  0.6935105164954432  0.5156842373218090  0.7560640035587010   T   T   T
  0.7021743332830825  0.5147166685985518  0.7889937705066716   T   T   T
 
  0.00000000E+00  0.00000000E+00  0.00000000E+00
  0.00000000E+00  0.00000000E+00  0.00000000E+00
  0.00000000E+00  0.00000000E+00  0.00000000E+00
  0.00000000E+00  0.00000000E+00  0.00000000E+00
  0.00000000E+00  0.00000000E+00  0.00000000E+00
  0.00000000E+00  0.00000000E+00  0.00000000E+00
  0.00000000E+00  0.00000000E+00  0.00000000E+00
  0.00000000E+00  0.00000000E+00  0.00000000E+00
  0.00000000E+00  0.00000000E+00  0.00000000E+00
  0.00000000E+00  0.00000000E+00  0.00000000E+00
  0.00000000E+00  0.00000000E+00  0.00000000E+00
  0.00000000E+00  0.00000000E+00  0.00000000E+00
  0.00000000E+00  0.00000000E+00  0.00000000E+00
  0.00000000E+00  0.00000000E+00  0.00000000E+00
  0.00000000E+00  0.00000000E+00  0.00000000E+00
  0.00000000E+00  0.00000000E+00  0.00000000E+00
  0.00000000E+00  0.00000000E+00  0.00000000E+00
  0.00000000E+00  0.00000000E+00  0.00000000E+00
  0.00000000E+00  0.00000000E+00  0.00000000E+00
  0.00000000E+00  0.00000000E+00  0.00000000E+00
  0.00000000E+00  0.00000000E+00  0.00000000E+00
  0.00000000E+00  0.00000000E+00  0.00000000E+00
  0.00000000E+00  0.00000000E+00  0.00000000E+00
  0.00000000E+00  0.00000000E+00  0.00000000E+00
  0.00000000E+00  0.00000000E+00  0.00000000E+00
  0.00000000E+00  0.00000000E+00  0.00000000E+00
  0.00000000E+00  0.00000000E+00  0.00000000E+00
  0.00000000E+00  0.00000000E+00  0.00000000E+00
  0.00000000E+00  0.00000000E+00  0.00000000E+00
  0.00000000E+00  0.00000000E+00  0.00000000E+00
  0.00000000E+00  0.00000000E+00  0.00000000E+00
  0.00000000E+00  0.00000000E+00  0.00000000E+00
  0.00000000E+00  0.00000000E+00  0.00000000E+00
  0.00000000E+00  0.00000000E+00  0.00000000E+00
  0.00000000E+00  0.00000000E+00  0.00000000E+00
  0.00000000E+00  0.00000000E+00  0.00000000E+00
  0.00000000E+00  0.00000000E+00  0.00000000E+00
  0.00000000E+00  0.00000000E+00  0.00000000E+00
  0.00000000E+00  0.00000000E+00  0.00000000E+00
  0.00000000E+00  0.00000000E+00  0.00000000E+00
  0.00000000E+00  0.00000000E+00  0.00000000E+00
  0.00000000E+00  0.00000000E+00  0.00000000E+00
  0.00000000E+00  0.00000000E+00  0.00000000E+00
  0.00000000E+00  0.00000000E+00  0.00000000E+00
  0.00000000E+00  0.00000000E+00  0.00000000E+00
  0.00000000E+00  0.00000000E+00  0.00000000E+00
  0.00000000E+00  0.00000000E+00  0.00000000E+00
  0.00000000E+00  0.00000000E+00  0.00000000E+00
  0.00000000E+00  0.00000000E+00  0.00000000E+00
  0.00000000E+00  0.00000000E+00  0.00000000E+00
  0.00000000E+00  0.00000000E+00  0.00000000E+00
  0.00000000E+00  0.00000000E+00  0.00000000E+00
  0.00000000E+00  0.00000000E+00  0.00000000E+00
  0.00000000E+00  0.00000000E+00  0.00000000E+00
  0.00000000E+00  0.00000000E+00  0.00000000E+00
  0.00000000E+00  0.00000000E+00  0.00000000E+00
  0.00000000E+00  0.00000000E+00  0.00000000E+00
  0.00000000E+00  0.00000000E+00  0.00000000E+00
  0.00000000E+00  0.00000000E+00  0.00000000E+00
  0.00000000E+00  0.00000000E+00  0.00000000E+00
  0.00000000E+00  0.00000000E+00  0.00000000E+00
  0.00000000E+00  0.00000000E+00  0.00000000E+00
  0.00000000E+00  0.00000000E+00  0.00000000E+00
  0.00000000E+00  0.00000000E+00  0.00000000E+00
  0.00000000E+00  0.00000000E+00  0.00000000E+00
  0.00000000E+00  0.00000000E+00  0.00000000E+00
  0.00000000E+00  0.00000000E+00  0.00000000E+00
  0.00000000E+00  0.00000000E+00  0.00000000E+00
  0.00000000E+00  0.00000000E+00  0.00000000E+00
  0.00000000E+00  0.00000000E+00  0.00000000E+00
  0.00000000E+00  0.00000000E+00  0.00000000E+00
  0.00000000E+00  0.00000000E+00  0.00000000E+00
