Sn C  O  H                              
   1.00000000000000     
    29.0000000000000000    0.0000000000000000    0.0000000000000000
     0.0000000000000000   29.0000000000000000    0.0000000000000000
     0.0000000000000000    0.0000000000000000   29.0000000000000000
   Sn   C    O    H 
    68     1     2     1
Selective dynamics
Direct
  0.5350598298822119  0.5233748927422079  0.7477120309554295   T   T   T
  0.3878322490665730  0.6684922482572161  0.4513204716100265   T   T   T
  0.3796879984888389  0.5981544764852159  0.5225505600522347   T   T   T
  0.6076089470065611  0.4504110489934376  0.4498710309934353   F   F   F
  0.4613510339934379  0.4504110489934376  0.5961189590065601   F   F   F
  0.6883084249861969  0.5983868166685565  0.5229845696121523   T   T   T
  0.4587616136226633  0.5233433711687877  0.3694387012744595   T   T   T
  0.4578780163362745  0.3700458317390409  0.5242366053827716   T   T   T
  0.6099418346738005  0.5232720897817529  0.6773123908186764   T   T   T
  0.3893256797544490  0.4537021047720808  0.6689058737553351   T   T   T
  0.5341999834471255  0.6770903055788235  0.5990177997096874   T   T   T
  0.6055806568134353  0.3756959080877607  0.3790239500002416   T   T   T
  0.4581143230390136  0.6767069024328752  0.5236188082957414   T   T   T
  0.4625367322248953  0.6681886769709531  0.3763880937384829   T   T   T
  0.6882933611704781  0.5237232345626264  0.5984913972960860   T   T   T
  0.6800877938967028  0.5954331713649326  0.3767222824975945   T   T   T
  0.6803442865371794  0.3774356156214411  0.5949189295374143   T   T   T
  0.5344799760000001  0.4444887396173627  0.5229899879999991   F   F   F
  0.3798124053466193  0.4498258273641365  0.5238436527338396   T   T   T
  0.5344799760000001  0.6025912403826368  0.5229899879999991   F   F   F
  0.5344799760000001  0.5235400199999987  0.6020412683826351   F   F   F
  0.4627295233041164  0.6677819041074525  0.6699747452470133   T   T   T
  0.6135312563826361  0.5235400199999987  0.5229899879999991   F   F   F
  0.5340846744334126  0.3696787677233435  0.5991382313580310   T   T   T
  0.3089322908653983  0.5236963152368065  0.5231304362554523   T   T   T
  0.3792426107095488  0.5249898605622080  0.5982561997930350   T   T   T
  0.5338938913787895  0.5220400020625698  0.3002144101780232   T   T   T
  0.3882013744195265  0.4516692862655189  0.3771319663200292   T   T   T
  0.6792444719039188  0.4505515503765461  0.3778365013660511   T   T   T
  0.6881663281343769  0.5236280148912879  0.4474598492692019   T   T   T
  0.4613510339934379  0.4504110489934376  0.4498710309934353   F   F   F
  0.4613510339934379  0.5966689310065618  0.4498710309934353   F   F   F
  0.6076089470065611  0.5966689310065618  0.4498710309934353   F   F   F
  0.5336336634427468  0.6772806332461165  0.4480871631398798   T   T   T
  0.5333324579973067  0.7469193936720329  0.5236683991227536   T   T   T
  0.3873249307908381  0.6671714523574502  0.5955974464824290   T   T   T
  0.6878511678010133  0.4477501119105640  0.5233225045547457   T   T   T
  0.3876948545042804  0.3791494065616366  0.4520014488211918   T   T   T
  0.3882076616609460  0.5949692302360089  0.3768610232785566   T   T   T
  0.4619700844405630  0.3787757238833356  0.6701720150986649   T   T   T
  0.6807288979384641  0.4516168033182607  0.6685187881520375   T   T   T
  0.6076089470065611  0.5966689310065618  0.5961189590065601   F   F   F
  0.5339923425925920  0.4470512620854741  0.3696810930057955   T   T   T
  0.5344799760000001  0.5235400199999987  0.4439487216173603   F   F   F
  0.6807328945138489  0.6685339669025626  0.5946799704127524   T   T   T
  0.5353942289920742  0.5984886560256197  0.6776019067655814   T   T   T
  0.4613510339934379  0.5966689310065618  0.5961189590065601   F   F   F
  0.4600513513779624  0.5242767372438574  0.6781407790155838   T   T   T
  0.6094318559289666  0.5235193395524309  0.3689818978646508   T   T   T
  0.6796675039294306  0.3764382133670789  0.4517285481632344   T   T   T
  0.6076089470065611  0.4504110489934376  0.5961189590065601   F   F   F
  0.3886856955719414  0.5944633180037612  0.6706713613491082   T   T   T
  0.5326671415207108  0.2989810659794913  0.5241606802722789   T   T   T
  0.6803100087160959  0.5950745309031356  0.6692352516634942   T   T   T
  0.3862005728613961  0.3801902291696437  0.5962579347197408   T   T   T
  0.5343461412459752  0.5982672324184902  0.3688755466311980   T   T   T
  0.6799988954118493  0.6687386153883806  0.4515284265102882   T   T   T
  0.6055599471941087  0.6690689556797742  0.3773914602499535   T   T   T
  0.6090548796230280  0.3688233314852788  0.5237826751489244   T   T   T
  0.4554287246173629  0.5235400199999987  0.5229899879999991   F   F   F
  0.6092364824932690  0.6774987541767853  0.5233509102011031   T   T   T
  0.6063885878574179  0.6692574184092136  0.6693426560364154   T   T   T
  0.5325705281736670  0.3686891449942488  0.4485769931004808   T   T   T
  0.4615984557877503  0.3773966793780454  0.3771295783060519   T   T   T
  0.6063919795164718  0.3784155766303023  0.6693180093611855   T   T   T
  0.5343051687428981  0.4488461406924512  0.6773568035265433   T   T   T
  0.7573679011700615  0.5228512063557624  0.5230675970854254   T   T   T
  0.3797949923345767  0.5237144580043480  0.4477638880459697   T   T   T
  0.3398417706714357  0.4275237599291746  0.7233933195635506   T   T   T
  0.3146589455856129  0.3941261932080600  0.7196524533524239   T   T   T
  0.3414507153694051  0.4551814636429181  0.7617909274673884   T   T   T
  0.3189874720492560  0.4426369128679599  0.7840894667531626   T   T   T
 
  0.00000000E+00  0.00000000E+00  0.00000000E+00
  0.00000000E+00  0.00000000E+00  0.00000000E+00
  0.00000000E+00  0.00000000E+00  0.00000000E+00
  0.00000000E+00  0.00000000E+00  0.00000000E+00
  0.00000000E+00  0.00000000E+00  0.00000000E+00
  0.00000000E+00  0.00000000E+00  0.00000000E+00
  0.00000000E+00  0.00000000E+00  0.00000000E+00
  0.00000000E+00  0.00000000E+00  0.00000000E+00
  0.00000000E+00  0.00000000E+00  0.00000000E+00
  0.00000000E+00  0.00000000E+00  0.00000000E+00
  0.00000000E+00  0.00000000E+00  0.00000000E+00
  0.00000000E+00  0.00000000E+00  0.00000000E+00
  0.00000000E+00  0.00000000E+00  0.00000000E+00
  0.00000000E+00  0.00000000E+00  0.00000000E+00
  0.00000000E+00  0.00000000E+00  0.00000000E+00
  0.00000000E+00  0.00000000E+00  0.00000000E+00
  0.00000000E+00  0.00000000E+00  0.00000000E+00
  0.00000000E+00  0.00000000E+00  0.00000000E+00
  0.00000000E+00  0.00000000E+00  0.00000000E+00
  0.00000000E+00  0.00000000E+00  0.00000000E+00
  0.00000000E+00  0.00000000E+00  0.00000000E+00
  0.00000000E+00  0.00000000E+00  0.00000000E+00
  0.00000000E+00  0.00000000E+00  0.00000000E+00
  0.00000000E+00  0.00000000E+00  0.00000000E+00
  0.00000000E+00  0.00000000E+00  0.00000000E+00
  0.00000000E+00  0.00000000E+00  0.00000000E+00
  0.00000000E+00  0.00000000E+00  0.00000000E+00
  0.00000000E+00  0.00000000E+00  0.00000000E+00
  0.00000000E+00  0.00000000E+00  0.00000000E+00
  0.00000000E+00  0.00000000E+00  0.00000000E+00
  0.00000000E+00  0.00000000E+00  0.00000000E+00
  0.00000000E+00  0.00000000E+00  0.00000000E+00
  0.00000000E+00  0.00000000E+00  0.00000000E+00
  0.00000000E+00  0.00000000E+00  0.00000000E+00
  0.00000000E+00  0.00000000E+00  0.00000000E+00
  0.00000000E+00  0.00000000E+00  0.00000000E+00
  0.00000000E+00  0.00000000E+00  0.00000000E+00
  0.00000000E+00  0.00000000E+00  0.00000000E+00
  0.00000000E+00  0.00000000E+00  0.00000000E+00
  0.00000000E+00  0.00000000E+00  0.00000000E+00
  0.00000000E+00  0.00000000E+00  0.00000000E+00
  0.00000000E+00  0.00000000E+00  0.00000000E+00
  0.00000000E+00  0.00000000E+00  0.00000000E+00
  0.00000000E+00  0.00000000E+00  0.00000000E+00
  0.00000000E+00  0.00000000E+00  0.00000000E+00
  0.00000000E+00  0.00000000E+00  0.00000000E+00
  0.00000000E+00  0.00000000E+00  0.00000000E+00
  0.00000000E+00  0.00000000E+00  0.00000000E+00
  0.00000000E+00  0.00000000E+00  0.00000000E+00
  0.00000000E+00  0.00000000E+00  0.00000000E+00
  0.00000000E+00  0.00000000E+00  0.00000000E+00
  0.00000000E+00  0.00000000E+00  0.00000000E+00
  0.00000000E+00  0.00000000E+00  0.00000000E+00
  0.00000000E+00  0.00000000E+00  0.00000000E+00
  0.00000000E+00  0.00000000E+00  0.00000000E+00
  0.00000000E+00  0.00000000E+00  0.00000000E+00
  0.00000000E+00  0.00000000E+00  0.00000000E+00
  0.00000000E+00  0.00000000E+00  0.00000000E+00
  0.00000000E+00  0.00000000E+00  0.00000000E+00
  0.00000000E+00  0.00000000E+00  0.00000000E+00
  0.00000000E+00  0.00000000E+00  0.00000000E+00
  0.00000000E+00  0.00000000E+00  0.00000000E+00
  0.00000000E+00  0.00000000E+00  0.00000000E+00
  0.00000000E+00  0.00000000E+00  0.00000000E+00
  0.00000000E+00  0.00000000E+00  0.00000000E+00
  0.00000000E+00  0.00000000E+00  0.00000000E+00
  0.00000000E+00  0.00000000E+00  0.00000000E+00
  0.00000000E+00  0.00000000E+00  0.00000000E+00
  0.00000000E+00  0.00000000E+00  0.00000000E+00
  0.00000000E+00  0.00000000E+00  0.00000000E+00
  0.00000000E+00  0.00000000E+00  0.00000000E+00
  0.00000000E+00  0.00000000E+00  0.00000000E+00
