Sn C  O  H                              
   1.00000000000000     
    29.0000000000000000    0.0000000000000000    0.0000000000000000
     0.0000000000000000   29.0000000000000000    0.0000000000000000
     0.0000000000000000    0.0000000000000000   29.0000000000000000
   Sn   C    O    H 
    68     1     2     1
Selective dynamics
Direct
  0.5340807781756792  0.5241530182302010  0.7452460665939524   T   T   T
  0.3892478639124650  0.6692186323347075  0.4537718127358983   T   T   T
  0.3795403605849979  0.5987109708634532  0.5243877120277902   T   T   T
  0.6076089470065611  0.4504110489934376  0.4498710309934353   F   F   F
  0.4613510339934379  0.4504110489934376  0.5961189590065601   F   F   F
  0.6879900034841181  0.5992363906634125  0.5233850955149351   T   T   T
  0.4577746481091367  0.5251171380623256  0.3693148799474298   T   T   T
  0.4586753991750272  0.3698184463710177  0.5227432168120362   T   T   T
  0.6097747458673106  0.5240057957948707  0.6767128205421090   T   T   T
  0.3880541908095670  0.4517122795138764  0.6683168681183621   T   T   T
  0.5353788470399848  0.6785132339280414  0.5977057808175477   T   T   T
  0.6053226841367877  0.3802345060223282  0.3749452040271641   T   T   T
  0.4600975267847536  0.6792040875962880  0.5239011033924962   T   T   T
  0.4618372864175188  0.6703038605471904  0.3784185670486324   T   T   T
  0.6886183665518735  0.5236425692366619  0.5979241534861176   T   T   T
  0.6802934564092135  0.5958221460677865  0.3767381563787355   T   T   T
  0.6804659014697494  0.3777178280703671  0.5945533276893648   T   T   T
  0.5344799760000001  0.4444887396173627  0.5229899879999991   F   F   F
  0.3797311352150445  0.4482676759861001  0.5231075098876414   T   T   T
  0.5344799760000001  0.6025912403826368  0.5229899879999991   F   F   F
  0.5344799760000001  0.5235400199999987  0.6020412683826351   F   F   F
  0.4626005078490429  0.6708604794595092  0.6669665642512691   T   T   T
  0.6135312563826361  0.5235400199999987  0.5229899879999991   F   F   F
  0.5343648147690379  0.3691706453844625  0.5974554536946461   T   T   T
  0.3092158624700720  0.5240377870720083  0.5233702945699246   T   T   T
  0.3799195192974703  0.5229523106396385  0.5979352288803896   T   T   T
  0.5324777676247949  0.5252176534480026  0.2988439942868718   T   T   T
  0.3881772169653822  0.4524404780414104  0.3780374088742718   T   T   T
  0.6794542659799526  0.4526953435399654  0.3755860296779834   T   T   T
  0.6875908903980664  0.5240644814374268  0.4470564313385719   T   T   T
  0.4613510339934379  0.4504110489934376  0.4498710309934353   F   F   F
  0.4613510339934379  0.5966689310065618  0.4498710309934353   F   F   F
  0.6076089470065611  0.5966689310065618  0.4498710309934353   F   F   F
  0.5341987803260029  0.6782495712890068  0.4486177806509849   T   T   T
  0.5350772793626759  0.7492139404170901  0.5228916772458443   T   T   T
  0.3885396623079543  0.6710383077131806  0.5939694800847731   T   T   T
  0.6883083691330587  0.4481975690492255  0.5227968488902731   T   T   T
  0.3879540984399318  0.3780064833080124  0.4508317552648201   T   T   T
  0.3861657482503786  0.5968970523345219  0.3794703619643574   T   T   T
  0.4628286643916252  0.3770832498846655  0.6678200929369480   T   T   T
  0.6800810693813604  0.4520055371802253  0.6683206624415289   T   T   T
  0.6076089470065611  0.5966689310065618  0.5961189590065601   F   F   F
  0.5321344502998833  0.4494339934224602  0.3681354755488050   T   T   T
  0.5344799760000001  0.5235400199999987  0.4439487216173603   F   F   F
  0.6804144977429392  0.6701723831692714  0.5945903597894943   T   T   T
  0.5344267563743114  0.5999150982022253  0.6761857187374779   T   T   T
  0.4613510339934379  0.5966689310065618  0.5961189590065601   F   F   F
  0.4583342303654099  0.5239102353061894  0.6762600561351939   T   T   T
  0.6088128677407736  0.5248045307835376  0.3683215117906315   T   T   T
  0.6793370605295714  0.3786133990070137  0.4494196864689701   T   T   T
  0.6076089470065611  0.4504110489934376  0.5961189590065601   F   F   F
  0.3877115606010165  0.5962520575398806  0.6668243237268405   T   T   T
  0.5337363446065457  0.3002343668715478  0.5213422661841591   T   T   T
  0.6808471697293902  0.5957454276650487  0.6678795192062698   T   T   T
  0.3884652169099719  0.3773970503735296  0.5944864069575950   T   T   T
  0.5341869855530809  0.5999854599419230  0.3693844761955039   T   T   T
  0.6805429531942009  0.6690869267779643  0.4512925739801756   T   T   T
  0.6063478570067720  0.6702707235920324  0.3781617310143529   T   T   T
  0.6096726985324012  0.3693176507679539  0.5229229493922293   T   T   T
  0.4554287246173629  0.5235400199999987  0.5229899879999991   F   F   F
  0.6097572655748084  0.6781839951276245  0.5229179763329709   T   T   T
  0.6064220255608064  0.6701936491203051  0.6684231375229382   T   T   T
  0.5342450683913281  0.3703957647439225  0.4469795239934836   T   T   T
  0.4621387612793860  0.3771937044646145  0.3771746405365186   T   T   T
  0.6056543183459331  0.3777206963495966  0.6682292963579377   T   T   T
  0.5341279190623297  0.4484031092704064  0.6765396763630046   T   T   T
  0.7572120008526023  0.5238362691848509  0.5220309235882040   T   T   T
  0.3795679355076584  0.5241742886773073  0.4488185497926546   T   T   T
  0.3393417355059892  0.7258107722077514  0.4335831455647681   T   T   T
  0.3170125408154213  0.7281775680585502  0.3981302506195900   T   T   T
  0.3369706916343025  0.7579695724219637  0.4682856490005204   T   T   T
  0.3144823086839869  0.7815520479032594  0.4585789458274978   T   T   T
 
  0.00000000E+00  0.00000000E+00  0.00000000E+00
  0.00000000E+00  0.00000000E+00  0.00000000E+00
  0.00000000E+00  0.00000000E+00  0.00000000E+00
  0.00000000E+00  0.00000000E+00  0.00000000E+00
  0.00000000E+00  0.00000000E+00  0.00000000E+00
  0.00000000E+00  0.00000000E+00  0.00000000E+00
  0.00000000E+00  0.00000000E+00  0.00000000E+00
  0.00000000E+00  0.00000000E+00  0.00000000E+00
  0.00000000E+00  0.00000000E+00  0.00000000E+00
  0.00000000E+00  0.00000000E+00  0.00000000E+00
  0.00000000E+00  0.00000000E+00  0.00000000E+00
  0.00000000E+00  0.00000000E+00  0.00000000E+00
  0.00000000E+00  0.00000000E+00  0.00000000E+00
  0.00000000E+00  0.00000000E+00  0.00000000E+00
  0.00000000E+00  0.00000000E+00  0.00000000E+00
  0.00000000E+00  0.00000000E+00  0.00000000E+00
  0.00000000E+00  0.00000000E+00  0.00000000E+00
  0.00000000E+00  0.00000000E+00  0.00000000E+00
  0.00000000E+00  0.00000000E+00  0.00000000E+00
  0.00000000E+00  0.00000000E+00  0.00000000E+00
  0.00000000E+00  0.00000000E+00  0.00000000E+00
  0.00000000E+00  0.00000000E+00  0.00000000E+00
  0.00000000E+00  0.00000000E+00  0.00000000E+00
  0.00000000E+00  0.00000000E+00  0.00000000E+00
  0.00000000E+00  0.00000000E+00  0.00000000E+00
  0.00000000E+00  0.00000000E+00  0.00000000E+00
  0.00000000E+00  0.00000000E+00  0.00000000E+00
  0.00000000E+00  0.00000000E+00  0.00000000E+00
  0.00000000E+00  0.00000000E+00  0.00000000E+00
  0.00000000E+00  0.00000000E+00  0.00000000E+00
  0.00000000E+00  0.00000000E+00  0.00000000E+00
  0.00000000E+00  0.00000000E+00  0.00000000E+00
  0.00000000E+00  0.00000000E+00  0.00000000E+00
  0.00000000E+00  0.00000000E+00  0.00000000E+00
  0.00000000E+00  0.00000000E+00  0.00000000E+00
  0.00000000E+00  0.00000000E+00  0.00000000E+00
  0.00000000E+00  0.00000000E+00  0.00000000E+00
  0.00000000E+00  0.00000000E+00  0.00000000E+00
  0.00000000E+00  0.00000000E+00  0.00000000E+00
  0.00000000E+00  0.00000000E+00  0.00000000E+00
  0.00000000E+00  0.00000000E+00  0.00000000E+00
  0.00000000E+00  0.00000000E+00  0.00000000E+00
  0.00000000E+00  0.00000000E+00  0.00000000E+00
  0.00000000E+00  0.00000000E+00  0.00000000E+00
  0.00000000E+00  0.00000000E+00  0.00000000E+00
  0.00000000E+00  0.00000000E+00  0.00000000E+00
  0.00000000E+00  0.00000000E+00  0.00000000E+00
  0.00000000E+00  0.00000000E+00  0.00000000E+00
  0.00000000E+00  0.00000000E+00  0.00000000E+00
  0.00000000E+00  0.00000000E+00  0.00000000E+00
  0.00000000E+00  0.00000000E+00  0.00000000E+00
  0.00000000E+00  0.00000000E+00  0.00000000E+00
  0.00000000E+00  0.00000000E+00  0.00000000E+00
  0.00000000E+00  0.00000000E+00  0.00000000E+00
  0.00000000E+00  0.00000000E+00  0.00000000E+00
  0.00000000E+00  0.00000000E+00  0.00000000E+00
  0.00000000E+00  0.00000000E+00  0.00000000E+00
  0.00000000E+00  0.00000000E+00  0.00000000E+00
  0.00000000E+00  0.00000000E+00  0.00000000E+00
  0.00000000E+00  0.00000000E+00  0.00000000E+00
  0.00000000E+00  0.00000000E+00  0.00000000E+00
  0.00000000E+00  0.00000000E+00  0.00000000E+00
  0.00000000E+00  0.00000000E+00  0.00000000E+00
  0.00000000E+00  0.00000000E+00  0.00000000E+00
  0.00000000E+00  0.00000000E+00  0.00000000E+00
  0.00000000E+00  0.00000000E+00  0.00000000E+00
  0.00000000E+00  0.00000000E+00  0.00000000E+00
  0.00000000E+00  0.00000000E+00  0.00000000E+00
  0.00000000E+00  0.00000000E+00  0.00000000E+00
  0.00000000E+00  0.00000000E+00  0.00000000E+00
  0.00000000E+00  0.00000000E+00  0.00000000E+00
  0.00000000E+00  0.00000000E+00  0.00000000E+00
