Sn C  O  H                              
   1.00000000000000     
    29.0000000000000000    0.0000000000000000    0.0000000000000000
     0.0000000000000000   29.0000000000000000    0.0000000000000000
     0.0000000000000000    0.0000000000000000   29.0000000000000000
   Sn   C    O    H 
    68     1     2     1
Selective dynamics
Direct
  0.5330270011765080  0.5203875243469780  0.7509377167201828   T   T   T
  0.3902369102556513  0.6709270321723775  0.4514292055665060   T   T   T
  0.3831693790703126  0.5997439638404747  0.5226282992466281   T   T   T
  0.6076089470065611  0.4504110489934376  0.4498710309934353   F   F   F
  0.4613510339934379  0.4504110489934376  0.5961189590065601   F   F   F
  0.6861743548250238  0.6003750707848479  0.5231242564171308   T   T   T
  0.4595833783143402  0.5227724902772376  0.3678682853095214   T   T   T
  0.4597345171298620  0.3691727614115280  0.5219648269707786   T   T   T
  0.6082934579421692  0.5271173147907240  0.6791013125675982   T   T   T
  0.3878493840808564  0.4508741387573703  0.6682862032824842   T   T   T
  0.5347690754194218  0.6785603143912655  0.5975866261178221   T   T   T
  0.6048177916677905  0.3762025625822825  0.3775366321849498   T   T   T
  0.4610500573361137  0.6788549187360905  0.5229343875124434   T   T   T
  0.4625679949639840  0.6697156501712022  0.3770291530208420   T   T   T
  0.6862351349977001  0.5228340498444042  0.5998610544841415   T   T   T
  0.6803508637453229  0.5958964090811231  0.3764968336990738   T   T   T
  0.6818249733325144  0.3797001511439898  0.5956929294953893   T   T   T
  0.5344799760000001  0.4444887396173627  0.5229899879999991   F   F   F
  0.3765288695482322  0.4431063198000794  0.5245323887695936   T   T   T
  0.5344799760000001  0.6025912403826368  0.5229899879999991   F   F   F
  0.5344799760000001  0.5235400199999987  0.6020412683826351   F   F   F
  0.4625299284526231  0.6707127387820753  0.6680667600200090   T   T   T
  0.6135312563826361  0.5235400199999987  0.5229899879999991   F   F   F
  0.5331162951682011  0.3687819415476065  0.5969892374175916   T   T   T
  0.3147684670046609  0.5253780328515786  0.5222160600681357   T   T   T
  0.3819363553776993  0.5223194398507470  0.5986293559467154   T   T   T
  0.5330390124721227  0.5194065511658834  0.2951039828106233   T   T   T
  0.3889985088748398  0.4504436469252880  0.3760096600245617   T   T   T
  0.6768457575332302  0.4508800775839859  0.3755444686151148   T   T   T
  0.6865748665896644  0.5235891610206354  0.4463501043320034   T   T   T
  0.4613510339934379  0.4504110489934376  0.4498710309934353   F   F   F
  0.4613510339934379  0.5966689310065618  0.4498710309934353   F   F   F
  0.6076089470065611  0.5966689310065618  0.4498710309934353   F   F   F
  0.5346530778955266  0.6780690387223572  0.4479740013151792   T   T   T
  0.5348031965741282  0.7501971491574274  0.5224084108174887   T   T   T
  0.3899484539211768  0.6705769887355423  0.5941020401444725   T   T   T
  0.6882287997289093  0.4483440317497166  0.5226520712828615   T   T   T
  0.3897010291795531  0.3763819585820761  0.4491275764751818   T   T   T
  0.3894471583057550  0.5949124747090117  0.3775867442188817   T   T   T
  0.4653827242538348  0.3794985111073681  0.6707538536868372   T   T   T
  0.6752749514508313  0.4517351116913841  0.6723604490943821   T   T   T
  0.6076089470065611  0.5966689310065618  0.5961189590065601   F   F   F
  0.5352202701339984  0.4484279200049693  0.3695825176126065   T   T   T
  0.5344799760000001  0.5235400199999987  0.4439487216173603   F   F   F
  0.6788861964572476  0.6711282977567954  0.5949515264661106   T   T   T
  0.5322486233455643  0.5974726125943810  0.6772818508830412   T   T   T
  0.4613510339934379  0.5966689310065618  0.5961189590065601   F   F   F
  0.4594262327073237  0.5223817828065562  0.6782118659686512   T   T   T
  0.6082954769378498  0.5251840363728408  0.3672541299972122   T   T   T
  0.6798060352548116  0.3774025171033324  0.4515000630023779   T   T   T
  0.6076089470065611  0.4504110489934376  0.5961189590065601   F   F   F
  0.3901718691814438  0.5953143226633587  0.6692189929594713   T   T   T
  0.5396963088230211  0.2954577880717972  0.5238774473037133   T   T   T
  0.6816243527885602  0.5966398167371693  0.6681180934184136   T   T   T
  0.3932143617949552  0.3736432056846424  0.5977381739252801   T   T   T
  0.5330968768638749  0.5971280514292243  0.3687751786233360   T   T   T
  0.6789589592684073  0.6705241685376792  0.4505414855290292   T   T   T
  0.6050867764975203  0.6681112277462029  0.3766351631678624   T   T   T
  0.6102645979183164  0.3697229866055851  0.5242841202477050   T   T   T
  0.4554287246173629  0.5235400199999987  0.5229899879999991   F   F   F
  0.6084888467717811  0.6788564242890789  0.5228847381616875   T   T   T
  0.6050508197213796  0.6676433964912111  0.6690039747409972   T   T   T
  0.5350803663357296  0.3682621942865518  0.4498836398600890   T   T   T
  0.4649533478415593  0.3771744218826840  0.3785174351758173   T   T   T
  0.6049317518947601  0.3756017113013675  0.6673584153098059   T   T   T
  0.5367396166441796  0.4493078038285152  0.6767268830987119   T   T   T
  0.7550181285649082  0.5260943380277168  0.5234744978352207   T   T   T
  0.3819754710625941  0.5208511569999209  0.4469965909293681   T   T   T
  0.3037641015452824  0.4110676328786274  0.5242801679846993   T   T   T
  0.2681876946679113  0.4327443436132493  0.5165172345529905   T   T   T
  0.3024093279489724  0.3645159198159726  0.5338518819903862   T   T   T
  0.2697026590097767  0.3551390280460996  0.5333006502276414   T   T   T
 
  0.00000000E+00  0.00000000E+00  0.00000000E+00
  0.00000000E+00  0.00000000E+00  0.00000000E+00
  0.00000000E+00  0.00000000E+00  0.00000000E+00
  0.00000000E+00  0.00000000E+00  0.00000000E+00
  0.00000000E+00  0.00000000E+00  0.00000000E+00
  0.00000000E+00  0.00000000E+00  0.00000000E+00
  0.00000000E+00  0.00000000E+00  0.00000000E+00
  0.00000000E+00  0.00000000E+00  0.00000000E+00
  0.00000000E+00  0.00000000E+00  0.00000000E+00
  0.00000000E+00  0.00000000E+00  0.00000000E+00
  0.00000000E+00  0.00000000E+00  0.00000000E+00
  0.00000000E+00  0.00000000E+00  0.00000000E+00
  0.00000000E+00  0.00000000E+00  0.00000000E+00
  0.00000000E+00  0.00000000E+00  0.00000000E+00
  0.00000000E+00  0.00000000E+00  0.00000000E+00
  0.00000000E+00  0.00000000E+00  0.00000000E+00
  0.00000000E+00  0.00000000E+00  0.00000000E+00
  0.00000000E+00  0.00000000E+00  0.00000000E+00
  0.00000000E+00  0.00000000E+00  0.00000000E+00
  0.00000000E+00  0.00000000E+00  0.00000000E+00
  0.00000000E+00  0.00000000E+00  0.00000000E+00
  0.00000000E+00  0.00000000E+00  0.00000000E+00
  0.00000000E+00  0.00000000E+00  0.00000000E+00
  0.00000000E+00  0.00000000E+00  0.00000000E+00
  0.00000000E+00  0.00000000E+00  0.00000000E+00
  0.00000000E+00  0.00000000E+00  0.00000000E+00
  0.00000000E+00  0.00000000E+00  0.00000000E+00
  0.00000000E+00  0.00000000E+00  0.00000000E+00
  0.00000000E+00  0.00000000E+00  0.00000000E+00
  0.00000000E+00  0.00000000E+00  0.00000000E+00
  0.00000000E+00  0.00000000E+00  0.00000000E+00
  0.00000000E+00  0.00000000E+00  0.00000000E+00
  0.00000000E+00  0.00000000E+00  0.00000000E+00
  0.00000000E+00  0.00000000E+00  0.00000000E+00
  0.00000000E+00  0.00000000E+00  0.00000000E+00
  0.00000000E+00  0.00000000E+00  0.00000000E+00
  0.00000000E+00  0.00000000E+00  0.00000000E+00
  0.00000000E+00  0.00000000E+00  0.00000000E+00
  0.00000000E+00  0.00000000E+00  0.00000000E+00
  0.00000000E+00  0.00000000E+00  0.00000000E+00
  0.00000000E+00  0.00000000E+00  0.00000000E+00
  0.00000000E+00  0.00000000E+00  0.00000000E+00
  0.00000000E+00  0.00000000E+00  0.00000000E+00
  0.00000000E+00  0.00000000E+00  0.00000000E+00
  0.00000000E+00  0.00000000E+00  0.00000000E+00
  0.00000000E+00  0.00000000E+00  0.00000000E+00
  0.00000000E+00  0.00000000E+00  0.00000000E+00
  0.00000000E+00  0.00000000E+00  0.00000000E+00
  0.00000000E+00  0.00000000E+00  0.00000000E+00
  0.00000000E+00  0.00000000E+00  0.00000000E+00
  0.00000000E+00  0.00000000E+00  0.00000000E+00
  0.00000000E+00  0.00000000E+00  0.00000000E+00
  0.00000000E+00  0.00000000E+00  0.00000000E+00
  0.00000000E+00  0.00000000E+00  0.00000000E+00
  0.00000000E+00  0.00000000E+00  0.00000000E+00
  0.00000000E+00  0.00000000E+00  0.00000000E+00
  0.00000000E+00  0.00000000E+00  0.00000000E+00
  0.00000000E+00  0.00000000E+00  0.00000000E+00
  0.00000000E+00  0.00000000E+00  0.00000000E+00
  0.00000000E+00  0.00000000E+00  0.00000000E+00
  0.00000000E+00  0.00000000E+00  0.00000000E+00
  0.00000000E+00  0.00000000E+00  0.00000000E+00
  0.00000000E+00  0.00000000E+00  0.00000000E+00
  0.00000000E+00  0.00000000E+00  0.00000000E+00
  0.00000000E+00  0.00000000E+00  0.00000000E+00
  0.00000000E+00  0.00000000E+00  0.00000000E+00
  0.00000000E+00  0.00000000E+00  0.00000000E+00
  0.00000000E+00  0.00000000E+00  0.00000000E+00
  0.00000000E+00  0.00000000E+00  0.00000000E+00
  0.00000000E+00  0.00000000E+00  0.00000000E+00
  0.00000000E+00  0.00000000E+00  0.00000000E+00
  0.00000000E+00  0.00000000E+00  0.00000000E+00
