Sn C  O  H                              
   1.00000000000000     
    29.0000000000000000    0.0000000000000000    0.0000000000000000
     0.0000000000000000   29.0000000000000000    0.0000000000000000
     0.0000000000000000    0.0000000000000000   29.0000000000000000
   Sn   C    O    H 
    68     1     2     1
Selective dynamics
Direct
  0.5342702995450390  0.5234778609951655  0.7480284089261851   T   T   T
  0.3883411072403921  0.6694439716680016  0.4509498115874105   T   T   T
  0.3809290433842480  0.5993088869874950  0.5231380861495976   T   T   T
  0.6076089470065611  0.4504110489934376  0.4498710309934353   F   F   F
  0.4613510339934379  0.4504110489934376  0.5961189590065601   F   F   F
  0.6883060762733899  0.5995184375056869  0.5238612630529292   T   T   T
  0.4597981563220370  0.5235216312301900  0.3689394151660050   T   T   T
  0.4598067254921081  0.3692549322588829  0.5231699850550821   T   T   T
  0.6085194185234155  0.5244958215470309  0.6775928333947114   T   T   T
  0.3883362112385116  0.4516747921224620  0.6687662875164125   T   T   T
  0.5337582331168363  0.6789859109275990  0.5972165783677597   T   T   T
  0.6077528666397549  0.3784213181829589  0.3784081679240830   T   T   T
  0.4591934822941446  0.6780153100343927  0.5221649758118272   T   T   T
  0.4627900078289988  0.6702801343507893  0.3776473301891117   T   T   T
  0.6881752771930416  0.5246050940959923  0.5996804266921975   T   T   T
  0.6803483579364812  0.5956157526310355  0.3766710014169290   T   T   T
  0.6808378987172977  0.3777820413733408  0.5957650171491486   T   T   T
  0.5344799760000001  0.4444887396173627  0.5229899879999991   F   F   F
  0.3809478755299127  0.4486627278554539  0.5236989799092530   T   T   T
  0.5344799760000001  0.6025912403826368  0.5229899879999991   F   F   F
  0.5344799760000001  0.5235400199999987  0.6020412683826351   F   F   F
  0.4634090556079243  0.6714139779159563  0.6685167151246696   T   T   T
  0.6135312563826361  0.5235400199999987  0.5229899879999991   F   F   F
  0.5344820406346539  0.3699203946302853  0.5990131899030290   T   T   T
  0.3117584383647478  0.5239070686600253  0.5235965717904544   T   T   T
  0.3810737715098422  0.5243498071235261  0.5991344003385294   T   T   T
  0.5354741357262514  0.5238619059609257  0.3000473910043893   T   T   T
  0.3891652196002822  0.4521446610969992  0.3772903982542238   T   T   T
  0.6814509229275703  0.4526396712691322  0.3779484726722185   T   T   T
  0.6890772828795176  0.5247992666755192  0.4484482297830832   T   T   T
  0.4613510339934379  0.4504110489934376  0.4498710309934353   F   F   F
  0.4613510339934379  0.5966689310065618  0.4498710309934353   F   F   F
  0.6076089470065611  0.5966689310065618  0.4498710309934353   F   F   F
  0.5345860100670005  0.6778750589453629  0.4479346107799385   T   T   T
  0.5343423354499521  0.7488593448284644  0.5222134069717801   T   T   T
  0.3896612708303746  0.6700777585194402  0.5947707931306592   T   T   T
  0.6896425813190260  0.4495139050089798  0.5250519628435187   T   T   T
  0.3889828238920872  0.3778902032567935  0.4520978205387459   T   T   T
  0.3897141123629260  0.5954558758366860  0.3763343757129862   T   T   T
  0.4628435227630499  0.3780863977185818  0.6695884017730436   T   T   T
  0.6791024419015774  0.4524601333291086  0.6698831115906392   T   T   T
  0.6076089470065611  0.5966689310065618  0.5961189590065601   F   F   F
  0.5345383043372290  0.4479998115828560  0.3691921428458662   T   T   T
  0.5344799760000001  0.5235400199999987  0.4439487216173603   F   F   F
  0.6787859729423587  0.6707002173078124  0.5956910936329785   T   T   T
  0.5323557700339449  0.5984893429544694  0.6781592113783572   T   T   T
  0.4613510339934379  0.5966689310065618  0.5961189590065601   F   F   F
  0.4593169261682475  0.5224430501692762  0.6777212029411734   T   T   T
  0.6102072593347292  0.5239236814448757  0.3695619237811161   T   T   T
  0.6823998373030685  0.3799269015168680  0.4520432112195820   T   T   T
  0.6076089470065611  0.4504110489934376  0.5961189590065601   F   F   F
  0.3909852077972671  0.5960295952311168  0.6702763079367424   T   T   T
  0.5362002536935302  0.3008908904337242  0.5238608308343966   T   T   T
  0.6779856048427756  0.5970109818013870  0.6710890472925208   T   T   T
  0.3897106914584055  0.3768669376323772  0.5947459881375901   T   T   T
  0.5344072836544180  0.5994381902903307  0.3694034271132808   T   T   T
  0.6804649543356178  0.6690376759145158  0.4514129216276659   T   T   T
  0.6066031519452301  0.6698899255171474  0.3777166957010407   T   T   T
  0.6110265319181053  0.3706989577410813  0.5236630886123061   T   T   T
  0.4554287246173629  0.5235400199999987  0.5229899879999991   F   F   F
  0.6092543609679135  0.6780394256451920  0.5230447109842219   T   T   T
  0.6035532810012911  0.6687838232423070  0.6685423328926580   T   T   T
  0.5345969050862068  0.3695419049669209  0.4480194007047651   T   T   T
  0.4625883431003409  0.3774768960543471  0.3774468074696330   T   T   T
  0.6065366463895826  0.3780547743388128  0.6694488962206225   T   T   T
  0.5346007343350987  0.4484855494670102  0.6774173853038560   T   T   T
  0.7593535858950585  0.5250791925314512  0.5244812271057064   T   T   T
  0.3807559016449768  0.5240009945334749  0.4478184619483128   T   T   T
  0.6234893501790884  0.7263761070642896  0.7173418475705264   T   T   T
  0.6593765072270825  0.7293195847143877  0.7389447469603558   T   T   T
  0.5884644934031308  0.7581336832629614  0.7200364567386685   T   T   T
  0.5983664270589728  0.7821566201043360  0.7419695314856615   T   T   T
 
  0.00000000E+00  0.00000000E+00  0.00000000E+00
  0.00000000E+00  0.00000000E+00  0.00000000E+00
  0.00000000E+00  0.00000000E+00  0.00000000E+00
  0.00000000E+00  0.00000000E+00  0.00000000E+00
  0.00000000E+00  0.00000000E+00  0.00000000E+00
  0.00000000E+00  0.00000000E+00  0.00000000E+00
  0.00000000E+00  0.00000000E+00  0.00000000E+00
  0.00000000E+00  0.00000000E+00  0.00000000E+00
  0.00000000E+00  0.00000000E+00  0.00000000E+00
  0.00000000E+00  0.00000000E+00  0.00000000E+00
  0.00000000E+00  0.00000000E+00  0.00000000E+00
  0.00000000E+00  0.00000000E+00  0.00000000E+00
  0.00000000E+00  0.00000000E+00  0.00000000E+00
  0.00000000E+00  0.00000000E+00  0.00000000E+00
  0.00000000E+00  0.00000000E+00  0.00000000E+00
  0.00000000E+00  0.00000000E+00  0.00000000E+00
  0.00000000E+00  0.00000000E+00  0.00000000E+00
  0.00000000E+00  0.00000000E+00  0.00000000E+00
  0.00000000E+00  0.00000000E+00  0.00000000E+00
  0.00000000E+00  0.00000000E+00  0.00000000E+00
  0.00000000E+00  0.00000000E+00  0.00000000E+00
  0.00000000E+00  0.00000000E+00  0.00000000E+00
  0.00000000E+00  0.00000000E+00  0.00000000E+00
  0.00000000E+00  0.00000000E+00  0.00000000E+00
  0.00000000E+00  0.00000000E+00  0.00000000E+00
  0.00000000E+00  0.00000000E+00  0.00000000E+00
  0.00000000E+00  0.00000000E+00  0.00000000E+00
  0.00000000E+00  0.00000000E+00  0.00000000E+00
  0.00000000E+00  0.00000000E+00  0.00000000E+00
  0.00000000E+00  0.00000000E+00  0.00000000E+00
  0.00000000E+00  0.00000000E+00  0.00000000E+00
  0.00000000E+00  0.00000000E+00  0.00000000E+00
  0.00000000E+00  0.00000000E+00  0.00000000E+00
  0.00000000E+00  0.00000000E+00  0.00000000E+00
  0.00000000E+00  0.00000000E+00  0.00000000E+00
  0.00000000E+00  0.00000000E+00  0.00000000E+00
  0.00000000E+00  0.00000000E+00  0.00000000E+00
  0.00000000E+00  0.00000000E+00  0.00000000E+00
  0.00000000E+00  0.00000000E+00  0.00000000E+00
  0.00000000E+00  0.00000000E+00  0.00000000E+00
  0.00000000E+00  0.00000000E+00  0.00000000E+00
  0.00000000E+00  0.00000000E+00  0.00000000E+00
  0.00000000E+00  0.00000000E+00  0.00000000E+00
  0.00000000E+00  0.00000000E+00  0.00000000E+00
  0.00000000E+00  0.00000000E+00  0.00000000E+00
  0.00000000E+00  0.00000000E+00  0.00000000E+00
  0.00000000E+00  0.00000000E+00  0.00000000E+00
  0.00000000E+00  0.00000000E+00  0.00000000E+00
  0.00000000E+00  0.00000000E+00  0.00000000E+00
  0.00000000E+00  0.00000000E+00  0.00000000E+00
  0.00000000E+00  0.00000000E+00  0.00000000E+00
  0.00000000E+00  0.00000000E+00  0.00000000E+00
  0.00000000E+00  0.00000000E+00  0.00000000E+00
  0.00000000E+00  0.00000000E+00  0.00000000E+00
  0.00000000E+00  0.00000000E+00  0.00000000E+00
  0.00000000E+00  0.00000000E+00  0.00000000E+00
  0.00000000E+00  0.00000000E+00  0.00000000E+00
  0.00000000E+00  0.00000000E+00  0.00000000E+00
  0.00000000E+00  0.00000000E+00  0.00000000E+00
  0.00000000E+00  0.00000000E+00  0.00000000E+00
  0.00000000E+00  0.00000000E+00  0.00000000E+00
  0.00000000E+00  0.00000000E+00  0.00000000E+00
  0.00000000E+00  0.00000000E+00  0.00000000E+00
  0.00000000E+00  0.00000000E+00  0.00000000E+00
  0.00000000E+00  0.00000000E+00  0.00000000E+00
  0.00000000E+00  0.00000000E+00  0.00000000E+00
  0.00000000E+00  0.00000000E+00  0.00000000E+00
  0.00000000E+00  0.00000000E+00  0.00000000E+00
  0.00000000E+00  0.00000000E+00  0.00000000E+00
  0.00000000E+00  0.00000000E+00  0.00000000E+00
  0.00000000E+00  0.00000000E+00  0.00000000E+00
  0.00000000E+00  0.00000000E+00  0.00000000E+00
