Sn C  O  H                              
   1.00000000000000     
    29.0000000000000000    0.0000000000000000    0.0000000000000000
     0.0000000000000000   29.0000000000000000    0.0000000000000000
     0.0000000000000000    0.0000000000000000   29.0000000000000000
   Sn   C    O    H 
    68     1     2     1
Selective dynamics
Direct
  0.5342663859346477  0.5294272847651866  0.7508334574106490   T   T   T
  0.3890163695550760  0.6701481165237394  0.4498886790651720   T   T   T
  0.3781248108053689  0.5971416579692149  0.5195697521698647   T   T   T
  0.6076089470065611  0.4504110489934376  0.4498710309934353   F   F   F
  0.4613510339934379  0.4504110489934376  0.5961189590065601   F   F   F
  0.6906071389649200  0.5967127649523033  0.5212545229899863   T   T   T
  0.4599836239281334  0.5241028251787783  0.3680527690029625   T   T   T
  0.4581670330835864  0.3711990859022365  0.5242441108560845   T   T   T
  0.6078754538765250  0.5236547628877131  0.6780544095297556   T   T   T
  0.3879102430028551  0.4547672876291579  0.6676662439519742   T   T   T
  0.5347019162621963  0.6777377072540990  0.5976198153745397   T   T   T
  0.6057970923805547  0.3793169300935594  0.3757060361849400   T   T   T
  0.4578684883606913  0.6751650460650536  0.5230418181047269   T   T   T
  0.4629727553148142  0.6675141764950225  0.3750505159425973   T   T   T
  0.6879521797504525  0.5245783852806271  0.5982860272907934   T   T   T
  0.6801122743874728  0.5933407935073350  0.3778854527342855   T   T   T
  0.6814785889338169  0.3784106925587349  0.5962829417345474   T   T   T
  0.5344799760000001  0.4444887396173627  0.5229899879999991   F   F   F
  0.3790639540736583  0.4488430184335777  0.5243841603520094   T   T   T
  0.5344799760000001  0.6025912403826368  0.5229899879999991   F   F   F
  0.5344799760000001  0.5235400199999987  0.6020412683826351   F   F   F
  0.4621118028612730  0.6708586489806352  0.6668141777328667   T   T   T
  0.6135312563826361  0.5235400199999987  0.5229899879999991   F   F   F
  0.5335256800076681  0.3664236166731154  0.6035683989513038   T   T   T
  0.3061251333498018  0.5217289301164894  0.5274647659749978   T   T   T
  0.3808332170121849  0.5258091474393771  0.5975722053240620   T   T   T
  0.5347844258341191  0.5234007637308659  0.2962848432123917   T   T   T
  0.3896765586729808  0.4516520530090333  0.3755551476145132   T   T   T
  0.6805595464806173  0.4510361061260931  0.3766794072201081   T   T   T
  0.6886544217478415  0.5218915743795614  0.4492432506638582   T   T   T
  0.4613510339934379  0.4504110489934376  0.4498710309934353   F   F   F
  0.4613510339934379  0.5966689310065618  0.4498710309934353   F   F   F
  0.6076089470065611  0.5966689310065618  0.4498710309934353   F   F   F
  0.5346253751922253  0.6748657589585686  0.4458315671611107   T   T   T
  0.5346879656201005  0.7440067624086750  0.5197644573167093   T   T   T
  0.3856473038519057  0.6648990260430079  0.5942804600808326   T   T   T
  0.6899087194729639  0.4488947748182481  0.5238469141123807   T   T   T
  0.3874917666234658  0.3798761171669770  0.4513518701840698   T   T   T
  0.3886356720031008  0.5944071712528981  0.3783869795951255   T   T   T
  0.4597890036134746  0.3810444609893141  0.6720855978677825   T   T   T
  0.6802048299096976  0.4544384972713298  0.6693648773448494   T   T   T
  0.6076089470065611  0.5966689310065618  0.5961189590065601   F   F   F
  0.5338397384901397  0.4498291547616653  0.3678139533447841   T   T   T
  0.5344799760000001  0.5235400199999987  0.4439487216173603   F   F   F
  0.6826282614520806  0.6659365656174447  0.5946478312367323   T   T   T
  0.5343051515875669  0.6000690958892563  0.6764917177452046   T   T   T
  0.4613510339934379  0.5966689310065618  0.5961189590065601   F   F   F
  0.4608122886538139  0.5233895427691524  0.6777880751428359   T   T   T
  0.6092681481344218  0.5226704716592185  0.3682958615352108   T   T   T
  0.6796193525747364  0.3784055268205712  0.4521202624981028   T   T   T
  0.6076089470065611  0.4504110489934376  0.5961189590065601   F   F   F
  0.3896017923519469  0.5945268185901805  0.6707588505416304   T   T   T
  0.5347830319345289  0.3043593765197339  0.5216464660833005   T   T   T
  0.6795801721767544  0.5943877356417540  0.6701273485714226   T   T   T
  0.3885512045182824  0.3772374862001853  0.5959081554899669   T   T   T
  0.5353296088458751  0.5973810884315079  0.3674461785208039   T   T   T
  0.6813392403087142  0.6685766259442396  0.4502744016061383   T   T   T
  0.6072201169444352  0.6682978903840644  0.3759797634528225   T   T   T
  0.6101906399310866  0.3712315173585891  0.5259914546361859   T   T   T
  0.4554287246173629  0.5235400199999987  0.5229899879999991   F   F   F
  0.6114157153167622  0.6751091882384501  0.5226254124387937   T   T   T
  0.6066376829840278  0.6705866118304857  0.6672163358885564   T   T   T
  0.5347607330157064  0.3722016760168080  0.4471072086509741   T   T   T
  0.4630026667480704  0.3781748314420069  0.3767061025991789   T   T   T
  0.6088240094270733  0.3806898318962900  0.6714937899349764   T   T   T
  0.5344777975945069  0.4490524566450363  0.6775375042229564   T   T   T
  0.7628632498508343  0.5217088673996813  0.5281040065693003   T   T   T
  0.3805272046011533  0.5213179873410962  0.4487897719799096   T   T   T
  0.5421864717077334  0.2949506200816603  0.6371419629968476   T   T   T
  0.5570823256981647  0.2606784420732218  0.6173217213559136   T   T   T
  0.5287748193235057  0.2932447918551663  0.6827859876526300   T   T   T
  0.5340192891782570  0.2614335011817109  0.6936326317990404   T   T   T
 
  0.00000000E+00  0.00000000E+00  0.00000000E+00
  0.00000000E+00  0.00000000E+00  0.00000000E+00
  0.00000000E+00  0.00000000E+00  0.00000000E+00
  0.00000000E+00  0.00000000E+00  0.00000000E+00
  0.00000000E+00  0.00000000E+00  0.00000000E+00
  0.00000000E+00  0.00000000E+00  0.00000000E+00
  0.00000000E+00  0.00000000E+00  0.00000000E+00
  0.00000000E+00  0.00000000E+00  0.00000000E+00
  0.00000000E+00  0.00000000E+00  0.00000000E+00
  0.00000000E+00  0.00000000E+00  0.00000000E+00
  0.00000000E+00  0.00000000E+00  0.00000000E+00
  0.00000000E+00  0.00000000E+00  0.00000000E+00
  0.00000000E+00  0.00000000E+00  0.00000000E+00
  0.00000000E+00  0.00000000E+00  0.00000000E+00
  0.00000000E+00  0.00000000E+00  0.00000000E+00
  0.00000000E+00  0.00000000E+00  0.00000000E+00
  0.00000000E+00  0.00000000E+00  0.00000000E+00
  0.00000000E+00  0.00000000E+00  0.00000000E+00
  0.00000000E+00  0.00000000E+00  0.00000000E+00
  0.00000000E+00  0.00000000E+00  0.00000000E+00
  0.00000000E+00  0.00000000E+00  0.00000000E+00
  0.00000000E+00  0.00000000E+00  0.00000000E+00
  0.00000000E+00  0.00000000E+00  0.00000000E+00
  0.00000000E+00  0.00000000E+00  0.00000000E+00
  0.00000000E+00  0.00000000E+00  0.00000000E+00
  0.00000000E+00  0.00000000E+00  0.00000000E+00
  0.00000000E+00  0.00000000E+00  0.00000000E+00
  0.00000000E+00  0.00000000E+00  0.00000000E+00
  0.00000000E+00  0.00000000E+00  0.00000000E+00
  0.00000000E+00  0.00000000E+00  0.00000000E+00
  0.00000000E+00  0.00000000E+00  0.00000000E+00
  0.00000000E+00  0.00000000E+00  0.00000000E+00
  0.00000000E+00  0.00000000E+00  0.00000000E+00
  0.00000000E+00  0.00000000E+00  0.00000000E+00
  0.00000000E+00  0.00000000E+00  0.00000000E+00
  0.00000000E+00  0.00000000E+00  0.00000000E+00
  0.00000000E+00  0.00000000E+00  0.00000000E+00
  0.00000000E+00  0.00000000E+00  0.00000000E+00
  0.00000000E+00  0.00000000E+00  0.00000000E+00
  0.00000000E+00  0.00000000E+00  0.00000000E+00
  0.00000000E+00  0.00000000E+00  0.00000000E+00
  0.00000000E+00  0.00000000E+00  0.00000000E+00
  0.00000000E+00  0.00000000E+00  0.00000000E+00
  0.00000000E+00  0.00000000E+00  0.00000000E+00
  0.00000000E+00  0.00000000E+00  0.00000000E+00
  0.00000000E+00  0.00000000E+00  0.00000000E+00
  0.00000000E+00  0.00000000E+00  0.00000000E+00
  0.00000000E+00  0.00000000E+00  0.00000000E+00
  0.00000000E+00  0.00000000E+00  0.00000000E+00
  0.00000000E+00  0.00000000E+00  0.00000000E+00
  0.00000000E+00  0.00000000E+00  0.00000000E+00
  0.00000000E+00  0.00000000E+00  0.00000000E+00
  0.00000000E+00  0.00000000E+00  0.00000000E+00
  0.00000000E+00  0.00000000E+00  0.00000000E+00
  0.00000000E+00  0.00000000E+00  0.00000000E+00
  0.00000000E+00  0.00000000E+00  0.00000000E+00
  0.00000000E+00  0.00000000E+00  0.00000000E+00
  0.00000000E+00  0.00000000E+00  0.00000000E+00
  0.00000000E+00  0.00000000E+00  0.00000000E+00
  0.00000000E+00  0.00000000E+00  0.00000000E+00
  0.00000000E+00  0.00000000E+00  0.00000000E+00
  0.00000000E+00  0.00000000E+00  0.00000000E+00
  0.00000000E+00  0.00000000E+00  0.00000000E+00
  0.00000000E+00  0.00000000E+00  0.00000000E+00
  0.00000000E+00  0.00000000E+00  0.00000000E+00
  0.00000000E+00  0.00000000E+00  0.00000000E+00
  0.00000000E+00  0.00000000E+00  0.00000000E+00
  0.00000000E+00  0.00000000E+00  0.00000000E+00
  0.00000000E+00  0.00000000E+00  0.00000000E+00
  0.00000000E+00  0.00000000E+00  0.00000000E+00
  0.00000000E+00  0.00000000E+00  0.00000000E+00
  0.00000000E+00  0.00000000E+00  0.00000000E+00
