Ni H                                    
   1.00000000000000     
    29.0000000000000000    0.0000000000000000    0.0000000000000000
     0.0000000000000000   29.0000000000000000    0.0000000000000000
     0.0000000000000000    0.0000000000000000   29.0000000000000000
   Ni   H 
    68     1
Selective dynamics
Direct
  0.4743643586804002  0.5023684753941576  0.6831252975346996   T   T   T
  0.3756117291603910  0.6264101607842183  0.4533695201202587   T   T   T
  0.3538207594421736  0.5599515747236548  0.5024398181606831   T   T   T
  0.5299894026218439  0.4443005803781617  0.4555705673781603   F   F   F
  0.4154505913781605  0.4443005803781617  0.5701094086218390   F   F   F
  0.5915803999947968  0.5617476560367983  0.5228251626453819   T   T   T
  0.4132066451928053  0.5113795605287303  0.3945193489426551   T   T   T
  0.4136827178068769  0.3827319138113421  0.5023528946625915   T   T   T
  0.5326162652127685  0.5116855328967616  0.6311910959452822   T   T   T
  0.3474990505387723  0.4413719754968841  0.6093586854460741   T   T   T
  0.4830079373134711  0.6200329013628689  0.5727440915658032   T   T   T
  0.5314956294271486  0.4059604914650866  0.3863856520216217   T   T   T
  0.4120302080627850  0.6198209064779594  0.5230196873577775   T   T   T
  0.4131934875534297  0.5968571245067125  0.3867328646624167   T   T   T
  0.5913347862293374  0.4914956706094433  0.5705516843127380   T   T   T
  0.5676678404160191  0.5606712712617409  0.3864528520082514   T   T   T
  0.5988370984416819  0.4059383024211133  0.5709877431258001   T   T   T
  0.4727199969999987  0.4440168789266536  0.5128399729999984   F   F   F
  0.3536947339600142  0.4410682845164669  0.5240370748504999   T   T   T
  0.4727199969999987  0.5591231230733484  0.5128399729999984   F   F   F
  0.4727199969999987  0.5015699859999998  0.5703931100733470   F   F   F
  0.4129693598135790  0.6276763140909190  0.6079663480231039   T   T   T
  0.5302731040733519  0.5015699859999998  0.5128399729999984   F   F   F
  0.4629183357794666  0.3833056491031063  0.5719444450176709   T   T   T
  0.3031664211591746  0.5008990906719637  0.5147518386860791   T   T   T
  0.3550305386462376  0.5108365975875115  0.5729218702001987   T   T   T
  0.4720215225845046  0.5021566371244121  0.3429208699806838   T   T   T
  0.3757074473753627  0.4424334388513707  0.3875132579060072   T   T   T
  0.5982976556480329  0.4431092099874190  0.4164445679160819   T   T   T
  0.5912046136938278  0.5125667341922348  0.4528730001112081   T   T   T
  0.4154505913781605  0.4443005803781617  0.4555705673781603   F   F   F
  0.4154505913781605  0.5588394216218404  0.4555705673781603   F   F   F
  0.5299894026218439  0.5588394216218404  0.4555705673781603   F   F   F
  0.4615587166074189  0.6208220324878119  0.4544275221591312   T   T   T
  0.4707538536896466  0.6712206054770391  0.5145046782239844   T   T   T
  0.3460160046212261  0.5957247677228272  0.5721836924646996   T   T   T
  0.5919685820492068  0.4425861213271546  0.5017049121893341   T   T   T
  0.3467780774365956  0.4048000772878580  0.4545076141072925   T   T   T
  0.3466430080679631  0.5586777972186813  0.4171637127168876   T   T   T
  0.4151047276213637  0.4049332095005403  0.6386315729099293   T   T   T
  0.5697945630586037  0.4428225875184895  0.6380869277549109   T   T   T
  0.5299894026218439  0.5588394216218404  0.5701094086218390   F   F   F
  0.4616855073459152  0.4420212744957528  0.3934723262863354   T   T   T
  0.4727199969999987  0.5015699859999998  0.4552868659266522   F   F   F
  0.5690602643397418  0.6271180912339850  0.5722571225654046   T   T   T
  0.4626309588884434  0.5605958625480945  0.6313945752910989   T   T   T
  0.4154505913781605  0.5588394216218404  0.5701094086218390   F   F   F
  0.4144838043185350  0.4904153048391978  0.6325204482907811   T   T   T
  0.5311063578070756  0.4910088517330951  0.3939773538369331   T   T   T
  0.5687693164870746  0.3757905130723181  0.4531769202055661   T   T   T
  0.5299894026218439  0.4443005803781617  0.5701094086218390   F   F   F
  0.3774912048778351  0.5598909623872786  0.6389620116452632   T   T   T
  0.4732973250522998  0.3322875411931571  0.5130608834309199   T   T   T
  0.5992558008995039  0.5595377472171893  0.6083819874506827   T   T   T
  0.3779879375786298  0.3747432766540597  0.5720552707496879   T   T   T
  0.4824483942254224  0.5605521082386813  0.3946149530276227   T   T   T
  0.5975611604701181  0.5987211113345883  0.4526142621847792   T   T   T
  0.5297160621670207  0.6272593827645236  0.4159954866173214   T   T   T
  0.5325542498789388  0.3833328416478388  0.5227472034411280   T   T   T
  0.4151668899266525  0.5015699859999998  0.5128399729999984   F   F   F
  0.5314311030399069  0.6214046592559819  0.5022285902950246   T   T   T
  0.5326856330588539  0.5966475239680888  0.6390120300971754   T   T   T
  0.4832141534911341  0.3829760482056535  0.4532651860546436   T   T   T
  0.4136297918852982  0.3756670515092251  0.4170567342004823   T   T   T
  0.5321985075352318  0.3756383855449235  0.6083367450451110   T   T   T
  0.4841441310370054  0.4424806616569364  0.6322212096424478   T   T   T
  0.6425845827750640  0.5024654531340219  0.5115638487544767   T   T   T
  0.3532053542055196  0.4898708244839291  0.4547185269442656   T   T   T
  0.5917503241878271  0.6219063841919628  0.5124646669690724   T   T   T
 
  0.00000000E+00  0.00000000E+00  0.00000000E+00
  0.00000000E+00  0.00000000E+00  0.00000000E+00
  0.00000000E+00  0.00000000E+00  0.00000000E+00
  0.00000000E+00  0.00000000E+00  0.00000000E+00
  0.00000000E+00  0.00000000E+00  0.00000000E+00
  0.00000000E+00  0.00000000E+00  0.00000000E+00
  0.00000000E+00  0.00000000E+00  0.00000000E+00
  0.00000000E+00  0.00000000E+00  0.00000000E+00
  0.00000000E+00  0.00000000E+00  0.00000000E+00
  0.00000000E+00  0.00000000E+00  0.00000000E+00
  0.00000000E+00  0.00000000E+00  0.00000000E+00
  0.00000000E+00  0.00000000E+00  0.00000000E+00
  0.00000000E+00  0.00000000E+00  0.00000000E+00
  0.00000000E+00  0.00000000E+00  0.00000000E+00
  0.00000000E+00  0.00000000E+00  0.00000000E+00
  0.00000000E+00  0.00000000E+00  0.00000000E+00
  0.00000000E+00  0.00000000E+00  0.00000000E+00
  0.00000000E+00  0.00000000E+00  0.00000000E+00
  0.00000000E+00  0.00000000E+00  0.00000000E+00
  0.00000000E+00  0.00000000E+00  0.00000000E+00
  0.00000000E+00  0.00000000E+00  0.00000000E+00
  0.00000000E+00  0.00000000E+00  0.00000000E+00
  0.00000000E+00  0.00000000E+00  0.00000000E+00
  0.00000000E+00  0.00000000E+00  0.00000000E+00
  0.00000000E+00  0.00000000E+00  0.00000000E+00
  0.00000000E+00  0.00000000E+00  0.00000000E+00
  0.00000000E+00  0.00000000E+00  0.00000000E+00
  0.00000000E+00  0.00000000E+00  0.00000000E+00
  0.00000000E+00  0.00000000E+00  0.00000000E+00
  0.00000000E+00  0.00000000E+00  0.00000000E+00
  0.00000000E+00  0.00000000E+00  0.00000000E+00
  0.00000000E+00  0.00000000E+00  0.00000000E+00
  0.00000000E+00  0.00000000E+00  0.00000000E+00
  0.00000000E+00  0.00000000E+00  0.00000000E+00
  0.00000000E+00  0.00000000E+00  0.00000000E+00
  0.00000000E+00  0.00000000E+00  0.00000000E+00
  0.00000000E+00  0.00000000E+00  0.00000000E+00
  0.00000000E+00  0.00000000E+00  0.00000000E+00
  0.00000000E+00  0.00000000E+00  0.00000000E+00
  0.00000000E+00  0.00000000E+00  0.00000000E+00
  0.00000000E+00  0.00000000E+00  0.00000000E+00
  0.00000000E+00  0.00000000E+00  0.00000000E+00
  0.00000000E+00  0.00000000E+00  0.00000000E+00
  0.00000000E+00  0.00000000E+00  0.00000000E+00
  0.00000000E+00  0.00000000E+00  0.00000000E+00
  0.00000000E+00  0.00000000E+00  0.00000000E+00
  0.00000000E+00  0.00000000E+00  0.00000000E+00
  0.00000000E+00  0.00000000E+00  0.00000000E+00
  0.00000000E+00  0.00000000E+00  0.00000000E+00
  0.00000000E+00  0.00000000E+00  0.00000000E+00
  0.00000000E+00  0.00000000E+00  0.00000000E+00
  0.00000000E+00  0.00000000E+00  0.00000000E+00
  0.00000000E+00  0.00000000E+00  0.00000000E+00
  0.00000000E+00  0.00000000E+00  0.00000000E+00
  0.00000000E+00  0.00000000E+00  0.00000000E+00
  0.00000000E+00  0.00000000E+00  0.00000000E+00
  0.00000000E+00  0.00000000E+00  0.00000000E+00
  0.00000000E+00  0.00000000E+00  0.00000000E+00
  0.00000000E+00  0.00000000E+00  0.00000000E+00
  0.00000000E+00  0.00000000E+00  0.00000000E+00
  0.00000000E+00  0.00000000E+00  0.00000000E+00
  0.00000000E+00  0.00000000E+00  0.00000000E+00
  0.00000000E+00  0.00000000E+00  0.00000000E+00
  0.00000000E+00  0.00000000E+00  0.00000000E+00
  0.00000000E+00  0.00000000E+00  0.00000000E+00
  0.00000000E+00  0.00000000E+00  0.00000000E+00
  0.00000000E+00  0.00000000E+00  0.00000000E+00
  0.00000000E+00  0.00000000E+00  0.00000000E+00
  0.00000000E+00  0.00000000E+00  0.00000000E+00
