Ni H                                    
   1.00000000000000     
    29.0000000000000000    0.0000000000000000    0.0000000000000000
     0.0000000000000000   29.0000000000000000    0.0000000000000000
     0.0000000000000000    0.0000000000000000   29.0000000000000000
   Ni   H 
    68     1
Selective dynamics
Direct
  0.4719157374087987  0.5021709381028117  0.6824521890623558   T   T   T
  0.3468335474155628  0.5968071246275316  0.4528188862741627   T   T   T
  0.3543756835362122  0.5606415687640899  0.5226208111107037   T   T   T
  0.5299894026218439  0.4443005803781617  0.4555705673781603   F   F   F
  0.4154505913781605  0.4443005803781617  0.5701094086218390   F   F   F
  0.5908439934850216  0.5609175847018782  0.5029115580608630   T   T   T
  0.4136770853466471  0.4899688464046705  0.3933509697621716   T   T   T
  0.4135385697304428  0.3826283065077919  0.5236660342336891   T   T   T
  0.5313013579008041  0.4908748046541649  0.6319658749720317   T   T   T
  0.3760360025512068  0.4426990630216523  0.6386013653141243   T   T   T
  0.4616440622846453  0.6210436353957276  0.5719605609274487   T   T   T
  0.5319946040065923  0.3749990325106046  0.4182100287146975   T   T   T
  0.4134852565451420  0.6207113512733607  0.5020216523488438   T   T   T
  0.4140985213413861  0.6269178007444965  0.4163969406968748   T   T   T
  0.5907349448444914  0.5116880599564728  0.5733557295171677   T   T   T
  0.5984513552325490  0.5608521437462680  0.4171599184316035   T   T   T
  0.5681086405075720  0.3755132129660065  0.5726707664673464   T   T   T
  0.4727199969999987  0.4440168789266536  0.5128399729999984   F   F   F
  0.3540971192631134  0.4419220438035208  0.5022498713778510   T   T   T
  0.4727199969999987  0.5591231230733484  0.5128399729999984   F   F   F
  0.4727199969999987  0.5015699859999998  0.5703931100733470   F   F   F
  0.4130467805239791  0.5975521230683214  0.6384521986507965   T   T   T
  0.5302731040733519  0.5015699859999998  0.5128399729999984   F   F   F
  0.4827701762149832  0.3832880227638579  0.5728610104241787   T   T   T
  0.3034003009662233  0.5014545323618989  0.5119498450678945   T   T   T
  0.3537353410432541  0.4908250999056039  0.5718168777198303   T   T   T
  0.4734973136476398  0.5010035983214266  0.3432258260552413   T   T   T
  0.3468612465661982  0.4417139607977038  0.4170674885263594   T   T   T
  0.5702911090207590  0.4412887462895549  0.3882117743637039   T   T   T
  0.5930967525556847  0.4902819135447515  0.4543714855436611   T   T   T
  0.4154505913781605  0.4443005803781617  0.4555705673781603   F   F   F
  0.4154505913781605  0.5588394216218404  0.4555705673781603   F   F   F
  0.5299894026218439  0.5588394216218404  0.4555705673781603   F   F   F
  0.4830854520516334  0.6201700039047240  0.4537481639355898   T   T   T
  0.4729254070330688  0.6717511550168872  0.5122737617387240   T   T   T
  0.3762476267448180  0.6272107250063983  0.5711979730101852   T   T   T
  0.5918383057685098  0.4429626543550713  0.5240387744775622   T   T   T
  0.3772726705757586  0.3752070532067441  0.4543080028297258   T   T   T
  0.3779358689915182  0.5594691383819179  0.3862548477917905   T   T   T
  0.4130836278054876  0.3756976240010810  0.6089841935294753   T   T   T
  0.5982728709545569  0.4424667024621748  0.6095459761771734   T   T   T
  0.5299894026218439  0.5588394216218404  0.5701094086218390   F   F   F
  0.4838179845472385  0.4415344872080758  0.3939981461325199   T   T   T
  0.4727199969999987  0.5015699859999998  0.4552868659266522   F   F   F
  0.5987103405475822  0.5968032976062784  0.5726691125695802   T   T   T
  0.4823758587225432  0.5609069971299190  0.6309117495079938   T   T   T
  0.4154505913781605  0.5588394216218404  0.5701094086218390   F   F   F
  0.4128066701505056  0.5118509805540271  0.6311991243934910   T   T   T
  0.5330376046900130  0.5115390828056833  0.3940941651941263   T   T   T
  0.5984116363461112  0.4043000417969658  0.4560399348140092   T   T   T
  0.5299894026218439  0.4443005803781617  0.5701094086218390   F   F   F
  0.3463140058063163  0.5602989910023013  0.6078656522001863   T   T   T
  0.4731164612641337  0.3318957673607350  0.5138373537312098   T   T   T
  0.5670123527376071  0.5605454525605748  0.6395298282057462   T   T   T
  0.3466455358993921  0.4056396347120524  0.5715585762305405   T   T   T
  0.4628420867042810  0.5596735650377270  0.3945213187557176   T   T   T
  0.5682560351193980  0.6275757094369677  0.4541198943160088   T   T   T
  0.5311590084576715  0.5977416008237901  0.3870875253492339   T   T   T
  0.5316675666096546  0.3833898604379526  0.5033680878803181   T   T   T
  0.4151668899266525  0.5015699859999998  0.5128399729999984   F   F   F
  0.5316748958382381  0.6205500431481241  0.5236704575808874   T   T   T
  0.5312907144922477  0.6277551754761139  0.6083318271623194   T   T   T
  0.4623161446773845  0.3826473779084201  0.4542899889125557   T   T   T
  0.4142190800392679  0.4049917209905303  0.3872717968035485   T   T   T
  0.5311146176141404  0.4061400623642725  0.6393782982304518   T   T   T
  0.4615795103186436  0.4423251968427611  0.6321293389901020   T   T   T
  0.6425863097388749  0.5029989915239358  0.5153606695710555   T   T   T
  0.3545419659718360  0.5114655021927939  0.4528298148048435   T   T   T
  0.5933182905967059  0.5011876628361310  0.3942519575748683   T   T   T
 
  0.00000000E+00  0.00000000E+00  0.00000000E+00
  0.00000000E+00  0.00000000E+00  0.00000000E+00
  0.00000000E+00  0.00000000E+00  0.00000000E+00
  0.00000000E+00  0.00000000E+00  0.00000000E+00
  0.00000000E+00  0.00000000E+00  0.00000000E+00
  0.00000000E+00  0.00000000E+00  0.00000000E+00
  0.00000000E+00  0.00000000E+00  0.00000000E+00
  0.00000000E+00  0.00000000E+00  0.00000000E+00
  0.00000000E+00  0.00000000E+00  0.00000000E+00
  0.00000000E+00  0.00000000E+00  0.00000000E+00
  0.00000000E+00  0.00000000E+00  0.00000000E+00
  0.00000000E+00  0.00000000E+00  0.00000000E+00
  0.00000000E+00  0.00000000E+00  0.00000000E+00
  0.00000000E+00  0.00000000E+00  0.00000000E+00
  0.00000000E+00  0.00000000E+00  0.00000000E+00
  0.00000000E+00  0.00000000E+00  0.00000000E+00
  0.00000000E+00  0.00000000E+00  0.00000000E+00
  0.00000000E+00  0.00000000E+00  0.00000000E+00
  0.00000000E+00  0.00000000E+00  0.00000000E+00
  0.00000000E+00  0.00000000E+00  0.00000000E+00
  0.00000000E+00  0.00000000E+00  0.00000000E+00
  0.00000000E+00  0.00000000E+00  0.00000000E+00
  0.00000000E+00  0.00000000E+00  0.00000000E+00
  0.00000000E+00  0.00000000E+00  0.00000000E+00
  0.00000000E+00  0.00000000E+00  0.00000000E+00
  0.00000000E+00  0.00000000E+00  0.00000000E+00
  0.00000000E+00  0.00000000E+00  0.00000000E+00
  0.00000000E+00  0.00000000E+00  0.00000000E+00
  0.00000000E+00  0.00000000E+00  0.00000000E+00
  0.00000000E+00  0.00000000E+00  0.00000000E+00
  0.00000000E+00  0.00000000E+00  0.00000000E+00
  0.00000000E+00  0.00000000E+00  0.00000000E+00
  0.00000000E+00  0.00000000E+00  0.00000000E+00
  0.00000000E+00  0.00000000E+00  0.00000000E+00
  0.00000000E+00  0.00000000E+00  0.00000000E+00
  0.00000000E+00  0.00000000E+00  0.00000000E+00
  0.00000000E+00  0.00000000E+00  0.00000000E+00
  0.00000000E+00  0.00000000E+00  0.00000000E+00
  0.00000000E+00  0.00000000E+00  0.00000000E+00
  0.00000000E+00  0.00000000E+00  0.00000000E+00
  0.00000000E+00  0.00000000E+00  0.00000000E+00
  0.00000000E+00  0.00000000E+00  0.00000000E+00
  0.00000000E+00  0.00000000E+00  0.00000000E+00
  0.00000000E+00  0.00000000E+00  0.00000000E+00
  0.00000000E+00  0.00000000E+00  0.00000000E+00
  0.00000000E+00  0.00000000E+00  0.00000000E+00
  0.00000000E+00  0.00000000E+00  0.00000000E+00
  0.00000000E+00  0.00000000E+00  0.00000000E+00
  0.00000000E+00  0.00000000E+00  0.00000000E+00
  0.00000000E+00  0.00000000E+00  0.00000000E+00
  0.00000000E+00  0.00000000E+00  0.00000000E+00
  0.00000000E+00  0.00000000E+00  0.00000000E+00
  0.00000000E+00  0.00000000E+00  0.00000000E+00
  0.00000000E+00  0.00000000E+00  0.00000000E+00
  0.00000000E+00  0.00000000E+00  0.00000000E+00
  0.00000000E+00  0.00000000E+00  0.00000000E+00
  0.00000000E+00  0.00000000E+00  0.00000000E+00
  0.00000000E+00  0.00000000E+00  0.00000000E+00
  0.00000000E+00  0.00000000E+00  0.00000000E+00
  0.00000000E+00  0.00000000E+00  0.00000000E+00
  0.00000000E+00  0.00000000E+00  0.00000000E+00
  0.00000000E+00  0.00000000E+00  0.00000000E+00
  0.00000000E+00  0.00000000E+00  0.00000000E+00
  0.00000000E+00  0.00000000E+00  0.00000000E+00
  0.00000000E+00  0.00000000E+00  0.00000000E+00
  0.00000000E+00  0.00000000E+00  0.00000000E+00
  0.00000000E+00  0.00000000E+00  0.00000000E+00
  0.00000000E+00  0.00000000E+00  0.00000000E+00
  0.00000000E+00  0.00000000E+00  0.00000000E+00
