Ni H                                    
   1.00000000000000     
    29.0000000000000000    0.0000000000000000    0.0000000000000000
     0.0000000000000000   29.0000000000000000    0.0000000000000000
     0.0000000000000000    0.0000000000000000   29.0000000000000000
   Ni   H 
    68     1
Selective dynamics
Direct
  0.4726382796329451  0.5022349704323296  0.6828146713464187   T   T   T
  0.3471488083071932  0.5974351595801379  0.4529516647747922   T   T   T
  0.3544201870420997  0.5609685610290315  0.5224259744520615   T   T   T
  0.5299894026218439  0.4443005803781617  0.4555705673781603   F   F   F
  0.4154505913781605  0.4443005803781617  0.5701094086218390   F   F   F
  0.5908469911172786  0.5606846440594067  0.5032211567645205   T   T   T
  0.4140292405146626  0.4904294806228384  0.3934041186985416   T   T   T
  0.4132947305694533  0.3827674721625992  0.5236587340857504   T   T   T
  0.5311071589038182  0.4915515346507094  0.6312843372255734   T   T   T
  0.3767476051718096  0.4435884016726859  0.6387801155206351   T   T   T
  0.4616222226791752  0.6216625086437588  0.5720780300279700   T   T   T
  0.5323892081698182  0.3751662520103404  0.4178488311169833   T   T   T
  0.4143012972717330  0.6204696945802038  0.5019598443914993   T   T   T
  0.4140425419183132  0.6272010811396058  0.4163818951478985   T   T   T
  0.5914369734943460  0.5119524403973216  0.5727378107272008   T   T   T
  0.5991913044677526  0.5604663551301790  0.4182289803333501   T   T   T
  0.5684467738111914  0.3755559441867142  0.5724875347501561   T   T   T
  0.4727199969999987  0.4440168789266536  0.5128399729999984   F   F   F
  0.3540975489179012  0.4422323534868433  0.5025149154310723   T   T   T
  0.4727199969999987  0.5591231230733484  0.5128399729999984   F   F   F
  0.4727199969999987  0.5015699859999998  0.5703931100733470   F   F   F
  0.4126088760960248  0.5991595305270083  0.6377136858820794   T   T   T
  0.5302731040733519  0.5015699859999998  0.5128399729999984   F   F   F
  0.4829363417261610  0.3831873098969977  0.5727636319747504   T   T   T
  0.3032521815348098  0.5017705924248983  0.5129703388201786   T   T   T
  0.3544751254486793  0.4916380134493999  0.5718872840744124   T   T   T
  0.4741195818239973  0.5019854370302876  0.3434217685074363   T   T   T
  0.3469810326522639  0.4425931736981980  0.4170469702299319   T   T   T
  0.5692016030884023  0.4421544203787220  0.3875138497185076   T   T   T
  0.5921202516293974  0.4908091435998948  0.4545449699716227   T   T   T
  0.4154505913781605  0.4443005803781617  0.4555705673781603   F   F   F
  0.4154505913781605  0.5588394216218404  0.4555705673781603   F   F   F
  0.5299894026218439  0.5588394216218404  0.4555705673781603   F   F   F
  0.4832287161323101  0.6201903487915810  0.4532174534953350   T   T   T
  0.4735929893128773  0.6717742464642938  0.5116947658632354   T   T   T
  0.3758958988378014  0.6276573413466184  0.5698812469355903   T   T   T
  0.5924945585722301  0.4424695989789894  0.5245389455476476   T   T   T
  0.3773639428493814  0.3754400190783533  0.4540668001677017   T   T   T
  0.3778653994429513  0.5598016654679192  0.3863032265779380   T   T   T
  0.4135822408133283  0.3762005771015659  0.6092685793633338   T   T   T
  0.5979830897860603  0.4427277426977945  0.6098146066356391   T   T   T
  0.5299894026218439  0.5588394216218404  0.5701094086218390   F   F   F
  0.4836415933785319  0.4417167132760407  0.3936610110184621   T   T   T
  0.4727199969999987  0.5015699859999998  0.4552868659266522   F   F   F
  0.5988415722823199  0.5972667909436734  0.5725611709814362   T   T   T
  0.4828001271868128  0.5619978211264902  0.6320246314295894   T   T   T
  0.4154505913781605  0.5588394216218404  0.5701094086218390   F   F   F
  0.4131227295422703  0.5130621739744805  0.6319466459392499   T   T   T
  0.5329167034841122  0.5114872091665205  0.3947414362094175   T   T   T
  0.5989340562659660  0.4059362491355516  0.4548955101137895   T   T   T
  0.5299894026218439  0.4443005803781617  0.5701094086218390   F   F   F
  0.3462503078122134  0.5613572106615271  0.6076961459154631   T   T   T
  0.4730154212863347  0.3324144141477441  0.5132199755683863   T   T   T
  0.5681400729371423  0.5602137436154201  0.6392322157392877   T   T   T
  0.3466022435713512  0.4061846030151687  0.5722934758204505   T   T   T
  0.4627521660073376  0.5606628053461455  0.3943036042770823   T   T   T
  0.5682105601836450  0.6276773454287329  0.4542598246953254   T   T   T
  0.5323178693680665  0.5968168107214008  0.3868779114471758   T   T   T
  0.5321932928570982  0.3834533277156663  0.5030520172290018   T   T   T
  0.4151668899266525  0.5015699859999998  0.5128399729999984   F   F   F
  0.5318427667104569  0.6204249142045274  0.5237183103557107   T   T   T
  0.5319272541986624  0.6275090240111554  0.6086969299104545   T   T   T
  0.4626461420093449  0.3831247155337554  0.4536604237884089   T   T   T
  0.4138856948500915  0.4055639104927617  0.3868873045651579   T   T   T
  0.5308967384285047  0.4059768057661419  0.6390549694139391   T   T   T
  0.4619315869275170  0.4428724604821743  0.6319200307275038   T   T   T
  0.6429901392239865  0.5023946809561464  0.5139000438967090   T   T   T
  0.3540954268215342  0.5119049902173968  0.4534007012671842   T   T   T
  0.4721272694393426  0.6224927809030971  0.6317118355319317   T   T   T
 
  0.00000000E+00  0.00000000E+00  0.00000000E+00
  0.00000000E+00  0.00000000E+00  0.00000000E+00
  0.00000000E+00  0.00000000E+00  0.00000000E+00
  0.00000000E+00  0.00000000E+00  0.00000000E+00
  0.00000000E+00  0.00000000E+00  0.00000000E+00
  0.00000000E+00  0.00000000E+00  0.00000000E+00
  0.00000000E+00  0.00000000E+00  0.00000000E+00
  0.00000000E+00  0.00000000E+00  0.00000000E+00
  0.00000000E+00  0.00000000E+00  0.00000000E+00
  0.00000000E+00  0.00000000E+00  0.00000000E+00
  0.00000000E+00  0.00000000E+00  0.00000000E+00
  0.00000000E+00  0.00000000E+00  0.00000000E+00
  0.00000000E+00  0.00000000E+00  0.00000000E+00
  0.00000000E+00  0.00000000E+00  0.00000000E+00
  0.00000000E+00  0.00000000E+00  0.00000000E+00
  0.00000000E+00  0.00000000E+00  0.00000000E+00
  0.00000000E+00  0.00000000E+00  0.00000000E+00
  0.00000000E+00  0.00000000E+00  0.00000000E+00
  0.00000000E+00  0.00000000E+00  0.00000000E+00
  0.00000000E+00  0.00000000E+00  0.00000000E+00
  0.00000000E+00  0.00000000E+00  0.00000000E+00
  0.00000000E+00  0.00000000E+00  0.00000000E+00
  0.00000000E+00  0.00000000E+00  0.00000000E+00
  0.00000000E+00  0.00000000E+00  0.00000000E+00
  0.00000000E+00  0.00000000E+00  0.00000000E+00
  0.00000000E+00  0.00000000E+00  0.00000000E+00
  0.00000000E+00  0.00000000E+00  0.00000000E+00
  0.00000000E+00  0.00000000E+00  0.00000000E+00
  0.00000000E+00  0.00000000E+00  0.00000000E+00
  0.00000000E+00  0.00000000E+00  0.00000000E+00
  0.00000000E+00  0.00000000E+00  0.00000000E+00
  0.00000000E+00  0.00000000E+00  0.00000000E+00
  0.00000000E+00  0.00000000E+00  0.00000000E+00
  0.00000000E+00  0.00000000E+00  0.00000000E+00
  0.00000000E+00  0.00000000E+00  0.00000000E+00
  0.00000000E+00  0.00000000E+00  0.00000000E+00
  0.00000000E+00  0.00000000E+00  0.00000000E+00
  0.00000000E+00  0.00000000E+00  0.00000000E+00
  0.00000000E+00  0.00000000E+00  0.00000000E+00
  0.00000000E+00  0.00000000E+00  0.00000000E+00
  0.00000000E+00  0.00000000E+00  0.00000000E+00
  0.00000000E+00  0.00000000E+00  0.00000000E+00
  0.00000000E+00  0.00000000E+00  0.00000000E+00
  0.00000000E+00  0.00000000E+00  0.00000000E+00
  0.00000000E+00  0.00000000E+00  0.00000000E+00
  0.00000000E+00  0.00000000E+00  0.00000000E+00
  0.00000000E+00  0.00000000E+00  0.00000000E+00
  0.00000000E+00  0.00000000E+00  0.00000000E+00
  0.00000000E+00  0.00000000E+00  0.00000000E+00
  0.00000000E+00  0.00000000E+00  0.00000000E+00
  0.00000000E+00  0.00000000E+00  0.00000000E+00
  0.00000000E+00  0.00000000E+00  0.00000000E+00
  0.00000000E+00  0.00000000E+00  0.00000000E+00
  0.00000000E+00  0.00000000E+00  0.00000000E+00
  0.00000000E+00  0.00000000E+00  0.00000000E+00
  0.00000000E+00  0.00000000E+00  0.00000000E+00
  0.00000000E+00  0.00000000E+00  0.00000000E+00
  0.00000000E+00  0.00000000E+00  0.00000000E+00
  0.00000000E+00  0.00000000E+00  0.00000000E+00
  0.00000000E+00  0.00000000E+00  0.00000000E+00
  0.00000000E+00  0.00000000E+00  0.00000000E+00
  0.00000000E+00  0.00000000E+00  0.00000000E+00
  0.00000000E+00  0.00000000E+00  0.00000000E+00
  0.00000000E+00  0.00000000E+00  0.00000000E+00
  0.00000000E+00  0.00000000E+00  0.00000000E+00
  0.00000000E+00  0.00000000E+00  0.00000000E+00
  0.00000000E+00  0.00000000E+00  0.00000000E+00
  0.00000000E+00  0.00000000E+00  0.00000000E+00
  0.00000000E+00  0.00000000E+00  0.00000000E+00
