Ni H                                    
   1.00000000000000     
    29.0000000000000000    0.0000000000000000    0.0000000000000000
     0.0000000000000000   29.0000000000000000    0.0000000000000000
     0.0000000000000000    0.0000000000000000   29.0000000000000000
   Ni   H 
    68     1
Selective dynamics
Direct
  0.4727124130455366  0.5017201702454440  0.6840774903825328   T   T   T
  0.3583486400958291  0.6158721122188614  0.4564366977779545   T   T   T
  0.3563093470763752  0.5591271739578292  0.5129586138809739   T   T   T
  0.5299894026218439  0.4443005803781617  0.4555705673781603   F   F   F
  0.4154505913781605  0.4443005803781617  0.5701094086218390   F   F   F
  0.5893464059318796  0.5590621753851744  0.5128540953097676   T   T   T
  0.4153641589871409  0.5015370186814968  0.3961732105501939   T   T   T
  0.4151688849102176  0.3849073763354504  0.5128754189754098   T   T   T
  0.5302064136221828  0.5016298819008086  0.6295750137260767   T   T   T
  0.3585444157733396  0.4453181575990721  0.6271048574623278   T   T   T
  0.4729520062919499  0.6182349750749196  0.5702791964861458   T   T   T
  0.5289498568685217  0.3872319044067485  0.3987005013968556   T   T   T
  0.4152213596593147  0.6180114510066747  0.5131306425040717   T   T   T
  0.4166563675255385  0.6158116954653849  0.3986000259357820   T   T   T
  0.5895128589228701  0.5015792713162264  0.5703170044216906   T   T   T
  0.5870298042926246  0.5579966842089773  0.3987277688452030   T   T   T
  0.5866375448919550  0.3874807704609284  0.5691382655738012   T   T   T
  0.4727199969999987  0.4440168789266536  0.5128399729999984   F   F   F
  0.3558862305679514  0.4441878022816765  0.5128399621486437   T   T   T
  0.4727199969999987  0.5591231230733484  0.5128399729999984   F   F   F
  0.4727199969999987  0.5015699859999998  0.5703931100733470   F   F   F
  0.4166338892287089  0.6157469845845795  0.6267939372567618   T   T   T
  0.5302731040733519  0.5015699859999998  0.5128399729999984   F   F   F
  0.4727234219053446  0.3848583908611065  0.5703472582501349   T   T   T
  0.3014587936638393  0.5016549847125537  0.5127347222446728   T   T   T
  0.3560062725744564  0.5014416551455649  0.5701919940476253   T   T   T
  0.4727395611031133  0.5014185514344296  0.3414677386200873   T   T   T
  0.3584184798146789  0.4453785981135514  0.3986033145447082   T   T   T
  0.5869591101193132  0.4453924694250525  0.3986875426462035   T   T   T
  0.5893460243018277  0.5017023161104422  0.4553331379208244   T   T   T
  0.4154505913781605  0.4443005803781617  0.4555705673781603   F   F   F
  0.4154505913781605  0.5588394216218404  0.4555705673781603   F   F   F
  0.5299894026218439  0.5588394216218404  0.4555705673781603   F   F   F
  0.4727613132650991  0.6183158655485992  0.4553617127756022   T   T   T
  0.4726552858135216  0.6728786019042712  0.5128292918330203   T   T   T
  0.3578081260281128  0.6163535556061158  0.5689677210743643   T   T   T
  0.5895321885814525  0.4441475039098386  0.5127778939269747   T   T   T
  0.3585241651774203  0.3872762854177089  0.4566574592099891   T   T   T
  0.3583390598220493  0.5578343031865426  0.3987069365292916   T   T   T
  0.4166493333390203  0.3872609763144658  0.6270082499817604   T   T   T
  0.5870244391909903  0.4454566302442569  0.6272244514904040   T   T   T
  0.5299894026218439  0.5588394216218404  0.5701094086218390   F   F   F
  0.4728102482540513  0.4440454225118562  0.3962877913040002   T   T   T
  0.4727199969999987  0.5015699859999998  0.4552868659266522   F   F   F
  0.5868738449026456  0.6157288950492040  0.5689429653873685   T   T   T
  0.4726039557609726  0.5590181082009530  0.6293691120336836   T   T   T
  0.4154505913781605  0.5588394216218404  0.5701094086218390   F   F   F
  0.4152245959532375  0.5017338262952379  0.6293607963705256   T   T   T
  0.5301760677964752  0.5017109702726505  0.3961231166672837   T   T   T
  0.5870367725295289  0.3873584621569500  0.4566013912758379   T   T   T
  0.5299894026218439  0.4443005803781617  0.5701094086218390   F   F   F
  0.3585384715949764  0.5577572571921202  0.6269048557772624   T   T   T
  0.4727705695150637  0.3304714261214994  0.5127677935055645   T   T   T
  0.5870119163503880  0.5578120617261184  0.6271955867575216   T   T   T
  0.3584785003484582  0.3872711231266541  0.5690312315723751   T   T   T
  0.4726555648345491  0.5589513259223116  0.3961985228781429   T   T   T
  0.5870536375076778  0.6157537638913799  0.4566671235714932   T   T   T
  0.5288056644015361  0.6158286290542073  0.3986009508173990   T   T   T
  0.5301932957426191  0.3848038543591440  0.5128138656638603   T   T   T
  0.4151668899266525  0.5015699859999998  0.5128399729999984   F   F   F
  0.5299797801995619  0.6182839775096258  0.5127464306315541   T   T   T
  0.5289617067333671  0.6157649828787354  0.6271923165403469   T   T   T
  0.4726655725288889  0.3849315670989809  0.4553492311531894   T   T   T
  0.4165812356968666  0.3871765258359606  0.3985957810456778   T   T   T
  0.5288653001658062  0.3872678119690838  0.6272257740220452   T   T   T
  0.4727228113041422  0.4441783030503161  0.6297391589134874   T   T   T
  0.6439372808558289  0.5016524994086378  0.5127607311146224   T   T   T
  0.3560561972454881  0.5014680188555538  0.4553238939902460   T   T   T
  0.3227906318020687  0.6535167361581385  0.5743865155393776   T   T   T
 
  0.00000000E+00  0.00000000E+00  0.00000000E+00
  0.00000000E+00  0.00000000E+00  0.00000000E+00
  0.00000000E+00  0.00000000E+00  0.00000000E+00
  0.00000000E+00  0.00000000E+00  0.00000000E+00
  0.00000000E+00  0.00000000E+00  0.00000000E+00
  0.00000000E+00  0.00000000E+00  0.00000000E+00
  0.00000000E+00  0.00000000E+00  0.00000000E+00
  0.00000000E+00  0.00000000E+00  0.00000000E+00
  0.00000000E+00  0.00000000E+00  0.00000000E+00
  0.00000000E+00  0.00000000E+00  0.00000000E+00
  0.00000000E+00  0.00000000E+00  0.00000000E+00
  0.00000000E+00  0.00000000E+00  0.00000000E+00
  0.00000000E+00  0.00000000E+00  0.00000000E+00
  0.00000000E+00  0.00000000E+00  0.00000000E+00
  0.00000000E+00  0.00000000E+00  0.00000000E+00
  0.00000000E+00  0.00000000E+00  0.00000000E+00
  0.00000000E+00  0.00000000E+00  0.00000000E+00
  0.00000000E+00  0.00000000E+00  0.00000000E+00
  0.00000000E+00  0.00000000E+00  0.00000000E+00
  0.00000000E+00  0.00000000E+00  0.00000000E+00
  0.00000000E+00  0.00000000E+00  0.00000000E+00
  0.00000000E+00  0.00000000E+00  0.00000000E+00
  0.00000000E+00  0.00000000E+00  0.00000000E+00
  0.00000000E+00  0.00000000E+00  0.00000000E+00
  0.00000000E+00  0.00000000E+00  0.00000000E+00
  0.00000000E+00  0.00000000E+00  0.00000000E+00
  0.00000000E+00  0.00000000E+00  0.00000000E+00
  0.00000000E+00  0.00000000E+00  0.00000000E+00
  0.00000000E+00  0.00000000E+00  0.00000000E+00
  0.00000000E+00  0.00000000E+00  0.00000000E+00
  0.00000000E+00  0.00000000E+00  0.00000000E+00
  0.00000000E+00  0.00000000E+00  0.00000000E+00
  0.00000000E+00  0.00000000E+00  0.00000000E+00
  0.00000000E+00  0.00000000E+00  0.00000000E+00
  0.00000000E+00  0.00000000E+00  0.00000000E+00
  0.00000000E+00  0.00000000E+00  0.00000000E+00
  0.00000000E+00  0.00000000E+00  0.00000000E+00
  0.00000000E+00  0.00000000E+00  0.00000000E+00
  0.00000000E+00  0.00000000E+00  0.00000000E+00
  0.00000000E+00  0.00000000E+00  0.00000000E+00
  0.00000000E+00  0.00000000E+00  0.00000000E+00
  0.00000000E+00  0.00000000E+00  0.00000000E+00
  0.00000000E+00  0.00000000E+00  0.00000000E+00
  0.00000000E+00  0.00000000E+00  0.00000000E+00
  0.00000000E+00  0.00000000E+00  0.00000000E+00
  0.00000000E+00  0.00000000E+00  0.00000000E+00
  0.00000000E+00  0.00000000E+00  0.00000000E+00
  0.00000000E+00  0.00000000E+00  0.00000000E+00
  0.00000000E+00  0.00000000E+00  0.00000000E+00
  0.00000000E+00  0.00000000E+00  0.00000000E+00
  0.00000000E+00  0.00000000E+00  0.00000000E+00
  0.00000000E+00  0.00000000E+00  0.00000000E+00
  0.00000000E+00  0.00000000E+00  0.00000000E+00
  0.00000000E+00  0.00000000E+00  0.00000000E+00
  0.00000000E+00  0.00000000E+00  0.00000000E+00
  0.00000000E+00  0.00000000E+00  0.00000000E+00
  0.00000000E+00  0.00000000E+00  0.00000000E+00
  0.00000000E+00  0.00000000E+00  0.00000000E+00
  0.00000000E+00  0.00000000E+00  0.00000000E+00
  0.00000000E+00  0.00000000E+00  0.00000000E+00
  0.00000000E+00  0.00000000E+00  0.00000000E+00
  0.00000000E+00  0.00000000E+00  0.00000000E+00
  0.00000000E+00  0.00000000E+00  0.00000000E+00
  0.00000000E+00  0.00000000E+00  0.00000000E+00
  0.00000000E+00  0.00000000E+00  0.00000000E+00
  0.00000000E+00  0.00000000E+00  0.00000000E+00
  0.00000000E+00  0.00000000E+00  0.00000000E+00
  0.00000000E+00  0.00000000E+00  0.00000000E+00
  0.00000000E+00  0.00000000E+00  0.00000000E+00
