Ni H                                    
   1.00000000000000     
    29.0000000000000000    0.0000000000000000    0.0000000000000000
     0.0000000000000000   29.0000000000000000    0.0000000000000000
     0.0000000000000000    0.0000000000000000   29.0000000000000000
   Ni   H 
    68     1
Selective dynamics
Direct
  0.4748147780611934  0.5021261304569210  0.6830223500851907   T   T   T
  0.3466208565623614  0.5968153354412581  0.4548249180723220   T   T   T
  0.3536946709659014  0.5604728889028808  0.5241745694107738   T   T   T
  0.5299894026218439  0.4443005803781617  0.4555705673781603   F   F   F
  0.4154505913781605  0.4443005803781617  0.5701094086218390   F   F   F
  0.5921943941758069  0.5600734383537997  0.5013622041604332   T   T   T
  0.4150511667178914  0.4922999489146929  0.3940589318046152   T   T   T
  0.4140327689569065  0.3810878889184579  0.5258680208112986   T   T   T
  0.5333243427543516  0.4916246137269322  0.6311411727721002   T   T   T
  0.3783405091670802  0.4442955168663678  0.6403866853809589   T   T   T
  0.4625258140536987  0.6204179821826469  0.5722437175662467   T   T   T
  0.5289653456117800  0.3753207845334390  0.4159915201034670   T   T   T
  0.4134717499157956  0.6202801989994091  0.5026814971000324   T   T   T
  0.4130251556927793  0.6273263584977826  0.4171484989725074   T   T   T
  0.5915837897534192  0.5117522224868603  0.5714737949896834   T   T   T
  0.5985054141293624  0.5606490489244272  0.4166400607804071   T   T   T
  0.5672113702897916  0.3748193914643307  0.5721538740111227   T   T   T
  0.4727199969999987  0.4440168789266536  0.5128399729999984   F   F   F
  0.3561287087702218  0.4418890148509566  0.5057718837114339   T   T   T
  0.4727199969999987  0.5591231230733484  0.5128399729999984   F   F   F
  0.4727199969999987  0.5015699859999998  0.5703931100733470   F   F   F
  0.4152247631860282  0.5980033196639766  0.6389769824862148   T   T   T
  0.5302731040733519  0.5015699859999998  0.5128399729999984   F   F   F
  0.4827437937500951  0.3840877572630041  0.5736655032079621   T   T   T
  0.3039518073650683  0.5000878812485867  0.5134365360385529   T   T   T
  0.3546091714783255  0.4918810611738587  0.5737105773852422   T   T   T
  0.4743071069817610  0.5019816631859446  0.3423126966269703   T   T   T
  0.3425939392818954  0.4421566543020343  0.4162017157437993   T   T   T
  0.5668763078014452  0.4419370859199949  0.3858427230107418   T   T   T
  0.5918759696671708  0.4904018203192433  0.4524428380312964   T   T   T
  0.4154505913781605  0.4443005803781617  0.4555705673781603   F   F   F
  0.4154505913781605  0.5588394216218404  0.4555705673781603   F   F   F
  0.5299894026218439  0.5588394216218404  0.4555705673781603   F   F   F
  0.4828571695665032  0.6200286305718208  0.4529150579305874   T   T   T
  0.4734450792747465  0.6706191829084130  0.5124271956703175   T   T   T
  0.3777921346239251  0.6279571154632813  0.5723937615020337   T   T   T
  0.5906367988091699  0.4415350948354458  0.5221249224460576   T   T   T
  0.3757217849994056  0.3761436457075109  0.4577511565108048   T   T   T
  0.3758083678825727  0.5603351146365450  0.3876878839862516   T   T   T
  0.4139585867685491  0.3767529316605122  0.6111438919967144   T   T   T
  0.5995712099729669  0.4417017909344956  0.6070652712588761   T   T   T
  0.5299894026218439  0.5588394216218404  0.5701094086218390   F   F   F
  0.4819815522630155  0.4431511916014956  0.3948185434762160   T   T   T
  0.4727199969999987  0.5015699859999998  0.4552868659266522   F   F   F
  0.5986958550423420  0.5971032427158970  0.5706164817723606   T   T   T
  0.4844709495594003  0.5615522270790412  0.6321205201297759   T   T   T
  0.4154505913781605  0.5588394216218404  0.5701094086218390   F   F   F
  0.4151183376867105  0.5130878432175517  0.6323871224789841   T   T   T
  0.5316243260504958  0.5117254889819822  0.3946825492620565   T   T   T
  0.5974965441286343  0.4043603087543939  0.4521877955149557   T   T   T
  0.5299894026218439  0.4443005803781617  0.5701094086218390   F   F   F
  0.3477937566533931  0.5613860756803357  0.6102636556722023   T   T   T
  0.4752160030828005  0.3304503281837778  0.5176414044805652   T   T   T
  0.5692696426712957  0.5613736373094127  0.6382046198441864   T   T   T
  0.3466483610546102  0.4060747543418122  0.5748390617369061   T   T   T
  0.4621296552942685  0.5612916169623128  0.3936260863647296   T   T   T
  0.5685223349523845  0.6277322197553171  0.4534191935949276   T   T   T
  0.5315856237995115  0.5970955504803678  0.3866819152408514   T   T   T
  0.5319316082628991  0.3829908483639115  0.5025119515879801   T   T   T
  0.4151668899266525  0.5015699859999998  0.5128399729999984   F   F   F
  0.5323817364196346  0.6197413632127167  0.5227227544006876   T   T   T
  0.5320490260511459  0.6282215708843265  0.6077821906529783   T   T   T
  0.4616092622750820  0.3806460639715778  0.4576881550210496   T   T   T
  0.4194853016833098  0.3961280313311489  0.3857413543228299   T   T   T
  0.5324301399529636  0.4068097101236026  0.6393700369829385   T   T   T
  0.4630689141565783  0.4433134088064272  0.6318167629963775   T   T   T
  0.6423953802959839  0.5000519133152611  0.5121828251746774   T   T   T
  0.3545945578818879  0.5107674793913451  0.4542932528451717   T   T   T
  0.4736559478571728  0.3571454790739402  0.4067186861727756   T   T   T
 
  0.00000000E+00  0.00000000E+00  0.00000000E+00
  0.00000000E+00  0.00000000E+00  0.00000000E+00
  0.00000000E+00  0.00000000E+00  0.00000000E+00
  0.00000000E+00  0.00000000E+00  0.00000000E+00
  0.00000000E+00  0.00000000E+00  0.00000000E+00
  0.00000000E+00  0.00000000E+00  0.00000000E+00
  0.00000000E+00  0.00000000E+00  0.00000000E+00
  0.00000000E+00  0.00000000E+00  0.00000000E+00
  0.00000000E+00  0.00000000E+00  0.00000000E+00
  0.00000000E+00  0.00000000E+00  0.00000000E+00
  0.00000000E+00  0.00000000E+00  0.00000000E+00
  0.00000000E+00  0.00000000E+00  0.00000000E+00
  0.00000000E+00  0.00000000E+00  0.00000000E+00
  0.00000000E+00  0.00000000E+00  0.00000000E+00
  0.00000000E+00  0.00000000E+00  0.00000000E+00
  0.00000000E+00  0.00000000E+00  0.00000000E+00
  0.00000000E+00  0.00000000E+00  0.00000000E+00
  0.00000000E+00  0.00000000E+00  0.00000000E+00
  0.00000000E+00  0.00000000E+00  0.00000000E+00
  0.00000000E+00  0.00000000E+00  0.00000000E+00
  0.00000000E+00  0.00000000E+00  0.00000000E+00
  0.00000000E+00  0.00000000E+00  0.00000000E+00
  0.00000000E+00  0.00000000E+00  0.00000000E+00
  0.00000000E+00  0.00000000E+00  0.00000000E+00
  0.00000000E+00  0.00000000E+00  0.00000000E+00
  0.00000000E+00  0.00000000E+00  0.00000000E+00
  0.00000000E+00  0.00000000E+00  0.00000000E+00
  0.00000000E+00  0.00000000E+00  0.00000000E+00
  0.00000000E+00  0.00000000E+00  0.00000000E+00
  0.00000000E+00  0.00000000E+00  0.00000000E+00
  0.00000000E+00  0.00000000E+00  0.00000000E+00
  0.00000000E+00  0.00000000E+00  0.00000000E+00
  0.00000000E+00  0.00000000E+00  0.00000000E+00
  0.00000000E+00  0.00000000E+00  0.00000000E+00
  0.00000000E+00  0.00000000E+00  0.00000000E+00
  0.00000000E+00  0.00000000E+00  0.00000000E+00
  0.00000000E+00  0.00000000E+00  0.00000000E+00
  0.00000000E+00  0.00000000E+00  0.00000000E+00
  0.00000000E+00  0.00000000E+00  0.00000000E+00
  0.00000000E+00  0.00000000E+00  0.00000000E+00
  0.00000000E+00  0.00000000E+00  0.00000000E+00
  0.00000000E+00  0.00000000E+00  0.00000000E+00
  0.00000000E+00  0.00000000E+00  0.00000000E+00
  0.00000000E+00  0.00000000E+00  0.00000000E+00
  0.00000000E+00  0.00000000E+00  0.00000000E+00
  0.00000000E+00  0.00000000E+00  0.00000000E+00
  0.00000000E+00  0.00000000E+00  0.00000000E+00
  0.00000000E+00  0.00000000E+00  0.00000000E+00
  0.00000000E+00  0.00000000E+00  0.00000000E+00
  0.00000000E+00  0.00000000E+00  0.00000000E+00
  0.00000000E+00  0.00000000E+00  0.00000000E+00
  0.00000000E+00  0.00000000E+00  0.00000000E+00
  0.00000000E+00  0.00000000E+00  0.00000000E+00
  0.00000000E+00  0.00000000E+00  0.00000000E+00
  0.00000000E+00  0.00000000E+00  0.00000000E+00
  0.00000000E+00  0.00000000E+00  0.00000000E+00
  0.00000000E+00  0.00000000E+00  0.00000000E+00
  0.00000000E+00  0.00000000E+00  0.00000000E+00
  0.00000000E+00  0.00000000E+00  0.00000000E+00
  0.00000000E+00  0.00000000E+00  0.00000000E+00
  0.00000000E+00  0.00000000E+00  0.00000000E+00
  0.00000000E+00  0.00000000E+00  0.00000000E+00
  0.00000000E+00  0.00000000E+00  0.00000000E+00
  0.00000000E+00  0.00000000E+00  0.00000000E+00
  0.00000000E+00  0.00000000E+00  0.00000000E+00
  0.00000000E+00  0.00000000E+00  0.00000000E+00
  0.00000000E+00  0.00000000E+00  0.00000000E+00
  0.00000000E+00  0.00000000E+00  0.00000000E+00
  0.00000000E+00  0.00000000E+00  0.00000000E+00
