Ni H                                    
   1.00000000000000     
    29.0000000000000000    0.0000000000000000    0.0000000000000000
     0.0000000000000000   29.0000000000000000    0.0000000000000000
     0.0000000000000000    0.0000000000000000   29.0000000000000000
   Ni   H 
    68     1
Selective dynamics
Direct
  0.4746472061325663  0.5014039430907746  0.6822434625320629   T   T   T
  0.3773121944730311  0.6279690144007483  0.4549375210083753   T   T   T
  0.3544328353454850  0.5610163224898542  0.5028223079713670   T   T   T
  0.5299894026218439  0.4443005803781617  0.4555705673781603   F   F   F
  0.4154505913781605  0.4443005803781617  0.5701094086218390   F   F   F
  0.5909240275146240  0.5611560638953020  0.5225354988377194   T   T   T
  0.4127775661165248  0.5120405754499463  0.3944072135984678   T   T   T
  0.4131356013640091  0.3834876375278066  0.5031996896671350   T   T   T
  0.5329372735191784  0.5106254804325918  0.6304090146128266   T   T   T
  0.3471778695561037  0.4430595567218342  0.6094967580861307   T   T   T
  0.4829056706720617  0.6198791191753285  0.5732317173724021   T   T   T
  0.5317831642341754  0.4053114634394864  0.3867133163487813   T   T   T
  0.4131976275638052  0.6208641033329488  0.5244965417590350   T   T   T
  0.4136295765850980  0.5984962956465563  0.3876957176942496   T   T   T
  0.5921037866767277  0.4905919056195504  0.5712718491306297   T   T   T
  0.5672173004356140  0.5602600273779458  0.3862088061434598   T   T   T
  0.5982246141263375  0.4045095399096586  0.5702234399022333   T   T   T
  0.4727199969999987  0.4440168789266536  0.5128399729999984   F   F   F
  0.3539652984451592  0.4423417893111322  0.5234675452331010   T   T   T
  0.4727199969999987  0.5591231230733484  0.5128399729999984   F   F   F
  0.4727199969999987  0.5015699859999998  0.5703931100733470   F   F   F
  0.4132467018974111  0.6268115940344202  0.6096224977699847   T   T   T
  0.5302731040733519  0.5015699859999998  0.5128399729999984   F   F   F
  0.4620669398960797  0.3828936907098612  0.5724234431743322   T   T   T
  0.3035578941771409  0.5017894122326314  0.5123377579776465   T   T   T
  0.3542425585651359  0.5117980908471267  0.5721431856609975   T   T   T
  0.4713645408011419  0.5015180341333123  0.3433090241158748   T   T   T
  0.3778701071179882  0.4416998708766200  0.3863411118726692   T   T   T
  0.5987806511007351  0.4427320686322623  0.4164941210881494   T   T   T
  0.5910301699103487  0.5120084507350767  0.4523727170521888   T   T   T
  0.4154505913781605  0.4443005803781617  0.4555705673781603   F   F   F
  0.4154505913781605  0.5588394216218404  0.4555705673781603   F   F   F
  0.5299894026218439  0.5588394216218404  0.4555705673781603   F   F   F
  0.4620747304150346  0.6207248027132980  0.4547250296870378   T   T   T
  0.4731774668467049  0.6712540194235164  0.5144058141675583   T   T   T
  0.3463487063656971  0.5966377259617519  0.5726905738543627   T   T   T
  0.5912105492990788  0.4433075896427702  0.5021987212886407   T   T   T
  0.3466437148214078  0.4063675743045924  0.4537028466780917   T   T   T
  0.3465386085313318  0.5616557021743914  0.4177394692626267   T   T   T
  0.4137733368919371  0.4057038327467565  0.6392536949686555   T   T   T
  0.5695935093876523  0.4410936967059323  0.6378627413080928   T   T   T
  0.5299894026218439  0.5588394216218404  0.5701094086218390   F   F   F
  0.4625021533872102  0.4418092019287088  0.3942047749343032   T   T   T
  0.4727199969999987  0.5015699859999998  0.4552868659266522   F   F   F
  0.5678834015105645  0.6274844239925109  0.5728131966853728   T   T   T
  0.4626426368579281  0.5603058245391535  0.6314329957193571   T   T   T
  0.4154505913781605  0.5588394216218404  0.5701094086218390   F   F   F
  0.4145627328469420  0.4905490425537958  0.6319688597821329   T   T   T
  0.5306834977160750  0.4911614346723767  0.3943917205986700   T   T   T
  0.5690535918269259  0.3757262512918239  0.4541760739966109   T   T   T
  0.5299894026218439  0.4443005803781617  0.5701094086218390   F   F   F
  0.3772043619467092  0.5592701006027795  0.6391407149364096   T   T   T
  0.4722739886774316  0.3319921437475409  0.5131804029664020   T   T   T
  0.5994229256958290  0.5598089551724552  0.6075746812395241   T   T   T
  0.3765820351951814  0.3759222506811930  0.5726377512224706   T   T   T
  0.4822608894947122  0.5607394845638126  0.3946246141807535   T   T   T
  0.5982119106193238  0.5974692416319553  0.4527931350501555   T   T   T
  0.5306918970810248  0.6272747232008580  0.4167190042424739   T   T   T
  0.5315367647133937  0.3830260409352199  0.5228064276957999   T   T   T
  0.4151668899266525  0.5015699859999998  0.5128399729999984   F   F   F
  0.5319571800870518  0.6200246802528562  0.5028484391715737   T   T   T
  0.5327119820229851  0.5951666718784314  0.6398757816872033   T   T   T
  0.4827968134240623  0.3834387020058333  0.4543333298237271   T   T   T
  0.4135457704221206  0.3749551818239357  0.4182221658505720   T   T   T
  0.5316991377592284  0.3748363376201069  0.6079024498492334   T   T   T
  0.4837259764980538  0.4413931082520398  0.6317928596419722   T   T   T
  0.6423984459593570  0.5028520234934329  0.5110851113030240   T   T   T
  0.3543641141912109  0.4915091158240723  0.4531137262535218   T   T   T
  0.5882822146774077  0.3861283801835342  0.3974959764253457   T   T   T
 
  0.00000000E+00  0.00000000E+00  0.00000000E+00
  0.00000000E+00  0.00000000E+00  0.00000000E+00
  0.00000000E+00  0.00000000E+00  0.00000000E+00
  0.00000000E+00  0.00000000E+00  0.00000000E+00
  0.00000000E+00  0.00000000E+00  0.00000000E+00
  0.00000000E+00  0.00000000E+00  0.00000000E+00
  0.00000000E+00  0.00000000E+00  0.00000000E+00
  0.00000000E+00  0.00000000E+00  0.00000000E+00
  0.00000000E+00  0.00000000E+00  0.00000000E+00
  0.00000000E+00  0.00000000E+00  0.00000000E+00
  0.00000000E+00  0.00000000E+00  0.00000000E+00
  0.00000000E+00  0.00000000E+00  0.00000000E+00
  0.00000000E+00  0.00000000E+00  0.00000000E+00
  0.00000000E+00  0.00000000E+00  0.00000000E+00
  0.00000000E+00  0.00000000E+00  0.00000000E+00
  0.00000000E+00  0.00000000E+00  0.00000000E+00
  0.00000000E+00  0.00000000E+00  0.00000000E+00
  0.00000000E+00  0.00000000E+00  0.00000000E+00
  0.00000000E+00  0.00000000E+00  0.00000000E+00
  0.00000000E+00  0.00000000E+00  0.00000000E+00
  0.00000000E+00  0.00000000E+00  0.00000000E+00
  0.00000000E+00  0.00000000E+00  0.00000000E+00
  0.00000000E+00  0.00000000E+00  0.00000000E+00
  0.00000000E+00  0.00000000E+00  0.00000000E+00
  0.00000000E+00  0.00000000E+00  0.00000000E+00
  0.00000000E+00  0.00000000E+00  0.00000000E+00
  0.00000000E+00  0.00000000E+00  0.00000000E+00
  0.00000000E+00  0.00000000E+00  0.00000000E+00
  0.00000000E+00  0.00000000E+00  0.00000000E+00
  0.00000000E+00  0.00000000E+00  0.00000000E+00
  0.00000000E+00  0.00000000E+00  0.00000000E+00
  0.00000000E+00  0.00000000E+00  0.00000000E+00
  0.00000000E+00  0.00000000E+00  0.00000000E+00
  0.00000000E+00  0.00000000E+00  0.00000000E+00
  0.00000000E+00  0.00000000E+00  0.00000000E+00
  0.00000000E+00  0.00000000E+00  0.00000000E+00
  0.00000000E+00  0.00000000E+00  0.00000000E+00
  0.00000000E+00  0.00000000E+00  0.00000000E+00
  0.00000000E+00  0.00000000E+00  0.00000000E+00
  0.00000000E+00  0.00000000E+00  0.00000000E+00
  0.00000000E+00  0.00000000E+00  0.00000000E+00
  0.00000000E+00  0.00000000E+00  0.00000000E+00
  0.00000000E+00  0.00000000E+00  0.00000000E+00
  0.00000000E+00  0.00000000E+00  0.00000000E+00
  0.00000000E+00  0.00000000E+00  0.00000000E+00
  0.00000000E+00  0.00000000E+00  0.00000000E+00
  0.00000000E+00  0.00000000E+00  0.00000000E+00
  0.00000000E+00  0.00000000E+00  0.00000000E+00
  0.00000000E+00  0.00000000E+00  0.00000000E+00
  0.00000000E+00  0.00000000E+00  0.00000000E+00
  0.00000000E+00  0.00000000E+00  0.00000000E+00
  0.00000000E+00  0.00000000E+00  0.00000000E+00
  0.00000000E+00  0.00000000E+00  0.00000000E+00
  0.00000000E+00  0.00000000E+00  0.00000000E+00
  0.00000000E+00  0.00000000E+00  0.00000000E+00
  0.00000000E+00  0.00000000E+00  0.00000000E+00
  0.00000000E+00  0.00000000E+00  0.00000000E+00
  0.00000000E+00  0.00000000E+00  0.00000000E+00
  0.00000000E+00  0.00000000E+00  0.00000000E+00
  0.00000000E+00  0.00000000E+00  0.00000000E+00
  0.00000000E+00  0.00000000E+00  0.00000000E+00
  0.00000000E+00  0.00000000E+00  0.00000000E+00
  0.00000000E+00  0.00000000E+00  0.00000000E+00
  0.00000000E+00  0.00000000E+00  0.00000000E+00
  0.00000000E+00  0.00000000E+00  0.00000000E+00
  0.00000000E+00  0.00000000E+00  0.00000000E+00
  0.00000000E+00  0.00000000E+00  0.00000000E+00
  0.00000000E+00  0.00000000E+00  0.00000000E+00
  0.00000000E+00  0.00000000E+00  0.00000000E+00
