Ni H                                    
   1.00000000000000     
    29.0000000000000000    0.0000000000000000    0.0000000000000000
     0.0000000000000000   29.0000000000000000    0.0000000000000000
     0.0000000000000000    0.0000000000000000   29.0000000000000000
   Ni   H 
    68     1
Selective dynamics
Direct
  0.4640560819459486  0.4972648282235708  0.6807769530771806   T   T   T
  0.3785886893005869  0.6288840744977003  0.4554920506882555   T   T   T
  0.3561706697917070  0.5624283924768873  0.5042690064785081   T   T   T
  0.5299894026218439  0.4443005803781617  0.4555705673781603   F   F   F
  0.4154505913781605  0.4443005803781617  0.5701094086218390   F   F   F
  0.5917824570964499  0.5599129375105354  0.5219762828784421   T   T   T
  0.4120036413258735  0.5112244404868000  0.3954744927070056   T   T   T
  0.4094713782449402  0.3862879217021361  0.5085082421339777   T   T   T
  0.5310841101081611  0.5123013088423803  0.6334106170639655   T   T   T
  0.3449938498898686  0.4356899378671955  0.6014882226678518   T   T   T
  0.4846546658604320  0.6212687492594384  0.5711123798300837   T   T   T
  0.5543582558597911  0.3718189494361842  0.4392365509476386   T   T   T
  0.4153106967385140  0.6213758748509431  0.5241559908689430   T   T   T
  0.4109329319189629  0.5970447087128189  0.3872789785637553   T   T   T
  0.5890608795106673  0.4950316863292064  0.5714812320004928   T   T   T
  0.5674036654198407  0.5607524412338762  0.3857835123955449   T   T   T
  0.5442142521892329  0.3746056416467209  0.6019919206452716   T   T   T
  0.4727199969999987  0.4440168789266536  0.5128399729999984   F   F   F
  0.3540638512707683  0.4527657684688959  0.5209032195531533   T   T   T
  0.4727199969999987  0.5591231230733484  0.5128399729999984   F   F   F
  0.4727199969999987  0.5015699859999998  0.5703931100733470   F   F   F
  0.4167031508583955  0.6289775506241665  0.6086246568625141   T   T   T
  0.5302731040733519  0.5015699859999998  0.5128399729999984   F   F   F
  0.4699857024584571  0.3896844517816000  0.5774923934003668   T   T   T
  0.3007446560359058  0.5081104846449239  0.5067809160769866   T   T   T
  0.3493129948375210  0.5147889342888360  0.5731058859075673   T   T   T
  0.4673657730266788  0.4974192502311988  0.3445976487335898   T   T   T
  0.3814956730442072  0.4392471730110085  0.3857807219582876   T   T   T
  0.5830933077119923  0.4379969617078244  0.3967020706527654   T   T   T
  0.5899305724333100  0.5074959412592706  0.4509546589586836   T   T   T
  0.4154505913781605  0.4443005803781617  0.4555705673781603   F   F   F
  0.4154505913781605  0.5588394216218404  0.4555705673781603   F   F   F
  0.5299894026218439  0.5588394216218404  0.4555705673781603   F   F   F
  0.4631055049969690  0.6190295966053712  0.4529527468064796   T   T   T
  0.4752152713365641  0.6710198224293499  0.5104454468834466   T   T   T
  0.3485684150100050  0.6016129726477403  0.5718044179259472   T   T   T
  0.6027900544291330  0.4157770126780944  0.5604747199979948   T   T   T
  0.3429105861684958  0.4086246677592932  0.4560416112499490   T   T   T
  0.3440238792437166  0.5632417182711819  0.4208500141349562   T   T   T
  0.3937249622883547  0.3673416384883391  0.5861260286198580   T   T   T
  0.5767488533407897  0.4445032472371727  0.6343213113764851   T   T   T
  0.5299894026218439  0.5588394216218404  0.5701094086218390   F   F   F
  0.4695078126917405  0.4358563085991997  0.3976347621590513   T   T   T
  0.4727199969999987  0.5015699859999998  0.4552868659266522   F   F   F
  0.5696160491367602  0.6270820282086778  0.5718029556016947   T   T   T
  0.4623527235786753  0.5607969104489846  0.6317065800375886   T   T   T
  0.4154505913781605  0.5588394216218404  0.5701094086218390   F   F   F
  0.4080970578317222  0.4952396996236493  0.6268173802368111   T   T   T
  0.5268712087447984  0.4947529065982021  0.3951207098974071   T   T   T
  0.5994528621431033  0.4277144718769572  0.4826900546393199   T   T   T
  0.5299894026218439  0.4443005803781617  0.5701094086218390   F   F   F
  0.3764019871762948  0.5656527744750039  0.6392120106196020   T   T   T
  0.4696630052013326  0.3356159459659439  0.5233650597480349   T   T   T
  0.5974400355096023  0.5613528262805256  0.6111955916671462   T   T   T
  0.3326022943086741  0.3804143370621565  0.5346036952755030   T   T   T
  0.4814950451041650  0.5619413641153211  0.3932737362790787   T   T   T
  0.5997974834581429  0.5948856135077319  0.4523081403296674   T   T   T
  0.5328207062760845  0.6279392769450536  0.4176525157423742   T   T   T
  0.5351185982913783  0.3851181405502467  0.5181105758483960   T   T   T
  0.4151668899266525  0.5015699859999998  0.5128399729999984   F   F   F
  0.5344070986205420  0.6201418971033344  0.5020414888641918   T   T   T
  0.5305811734931907  0.5992008632095139  0.6384397987861036   T   T   T
  0.4772715214642973  0.3831812471393453  0.4603124549098959   T   T   T
  0.4086628345404324  0.3725244578378409  0.4242650418009339   T   T   T
  0.4940666935749872  0.4387071550367231  0.6386531686225992   T   T   T
  0.4192246503641857  0.4175819861284430  0.6445364328000868   T   T   T
  0.6389947744211312  0.4901163431396690  0.5125858284417389   T   T   T
  0.3542999837853593  0.4921815309575189  0.4507136490532555   T   T   T
  0.3337967516610760  0.3762591813980565  0.5931735679334834   T   T   T
 
  0.00000000E+00  0.00000000E+00  0.00000000E+00
  0.00000000E+00  0.00000000E+00  0.00000000E+00
  0.00000000E+00  0.00000000E+00  0.00000000E+00
  0.00000000E+00  0.00000000E+00  0.00000000E+00
  0.00000000E+00  0.00000000E+00  0.00000000E+00
  0.00000000E+00  0.00000000E+00  0.00000000E+00
  0.00000000E+00  0.00000000E+00  0.00000000E+00
  0.00000000E+00  0.00000000E+00  0.00000000E+00
  0.00000000E+00  0.00000000E+00  0.00000000E+00
  0.00000000E+00  0.00000000E+00  0.00000000E+00
  0.00000000E+00  0.00000000E+00  0.00000000E+00
  0.00000000E+00  0.00000000E+00  0.00000000E+00
  0.00000000E+00  0.00000000E+00  0.00000000E+00
  0.00000000E+00  0.00000000E+00  0.00000000E+00
  0.00000000E+00  0.00000000E+00  0.00000000E+00
  0.00000000E+00  0.00000000E+00  0.00000000E+00
  0.00000000E+00  0.00000000E+00  0.00000000E+00
  0.00000000E+00  0.00000000E+00  0.00000000E+00
  0.00000000E+00  0.00000000E+00  0.00000000E+00
  0.00000000E+00  0.00000000E+00  0.00000000E+00
  0.00000000E+00  0.00000000E+00  0.00000000E+00
  0.00000000E+00  0.00000000E+00  0.00000000E+00
  0.00000000E+00  0.00000000E+00  0.00000000E+00
  0.00000000E+00  0.00000000E+00  0.00000000E+00
  0.00000000E+00  0.00000000E+00  0.00000000E+00
  0.00000000E+00  0.00000000E+00  0.00000000E+00
  0.00000000E+00  0.00000000E+00  0.00000000E+00
  0.00000000E+00  0.00000000E+00  0.00000000E+00
  0.00000000E+00  0.00000000E+00  0.00000000E+00
  0.00000000E+00  0.00000000E+00  0.00000000E+00
  0.00000000E+00  0.00000000E+00  0.00000000E+00
  0.00000000E+00  0.00000000E+00  0.00000000E+00
  0.00000000E+00  0.00000000E+00  0.00000000E+00
  0.00000000E+00  0.00000000E+00  0.00000000E+00
  0.00000000E+00  0.00000000E+00  0.00000000E+00
  0.00000000E+00  0.00000000E+00  0.00000000E+00
  0.00000000E+00  0.00000000E+00  0.00000000E+00
  0.00000000E+00  0.00000000E+00  0.00000000E+00
  0.00000000E+00  0.00000000E+00  0.00000000E+00
  0.00000000E+00  0.00000000E+00  0.00000000E+00
  0.00000000E+00  0.00000000E+00  0.00000000E+00
  0.00000000E+00  0.00000000E+00  0.00000000E+00
  0.00000000E+00  0.00000000E+00  0.00000000E+00
  0.00000000E+00  0.00000000E+00  0.00000000E+00
  0.00000000E+00  0.00000000E+00  0.00000000E+00
  0.00000000E+00  0.00000000E+00  0.00000000E+00
  0.00000000E+00  0.00000000E+00  0.00000000E+00
  0.00000000E+00  0.00000000E+00  0.00000000E+00
  0.00000000E+00  0.00000000E+00  0.00000000E+00
  0.00000000E+00  0.00000000E+00  0.00000000E+00
  0.00000000E+00  0.00000000E+00  0.00000000E+00
  0.00000000E+00  0.00000000E+00  0.00000000E+00
  0.00000000E+00  0.00000000E+00  0.00000000E+00
  0.00000000E+00  0.00000000E+00  0.00000000E+00
  0.00000000E+00  0.00000000E+00  0.00000000E+00
  0.00000000E+00  0.00000000E+00  0.00000000E+00
  0.00000000E+00  0.00000000E+00  0.00000000E+00
  0.00000000E+00  0.00000000E+00  0.00000000E+00
  0.00000000E+00  0.00000000E+00  0.00000000E+00
  0.00000000E+00  0.00000000E+00  0.00000000E+00
  0.00000000E+00  0.00000000E+00  0.00000000E+00
  0.00000000E+00  0.00000000E+00  0.00000000E+00
  0.00000000E+00  0.00000000E+00  0.00000000E+00
  0.00000000E+00  0.00000000E+00  0.00000000E+00
  0.00000000E+00  0.00000000E+00  0.00000000E+00
  0.00000000E+00  0.00000000E+00  0.00000000E+00
  0.00000000E+00  0.00000000E+00  0.00000000E+00
  0.00000000E+00  0.00000000E+00  0.00000000E+00
  0.00000000E+00  0.00000000E+00  0.00000000E+00
