Ni H                                    
   1.00000000000000     
    29.0000000000000000    0.0000000000000000    0.0000000000000000
     0.0000000000000000   29.0000000000000000    0.0000000000000000
     0.0000000000000000    0.0000000000000000   29.0000000000000000
   Ni   H 
    68     1
Selective dynamics
Direct
  0.4728658939435186  0.5015699859999998  0.6843150387121897   T   T   T
  0.3585095853887602  0.6157226421338549  0.4566417164210485   T   T   T
  0.3558463090807780  0.5589617392856926  0.5128399729999984   T   T   T
  0.5299894026218439  0.4443005803781617  0.4555705673781603   F   F   F
  0.4154505913781605  0.4443005803781617  0.5701094086218390   F   F   F
  0.5892241550427717  0.5589422753163681  0.5128399729999984   T   T   T
  0.4152610548234821  0.5015699859999998  0.3960117924032108   T   T   T
  0.4152610548234821  0.3847517904032106  0.5128399729999984   T   T   T
  0.5301576578997291  0.5015699859999998  0.6296188296021266   T   T   T
  0.3585095853887602  0.4453717294210499  0.6269826151338491   T   T   T
  0.4726659407401733  0.6183520023004573  0.5702074963371364   T   T   T
  0.5285229137989288  0.3872527620803725  0.3985127640803727   T   T   T
  0.4152610548234821  0.6183982265967923  0.5128399729999984   T   T   T
  0.4167549829086210  0.6158853810625302  0.3985246379374729   T   T   T
  0.5892241550427717  0.5015699859999998  0.5702122623163667   T   T   T
  0.5866755825577962  0.5579398450673511  0.3984134575928924   T   T   T
  0.5866755825577962  0.3871534555928922  0.5692098320673497   T   T   T
  0.4727199969999987  0.4440168789266536  0.5128399729999984   F   F   F
  0.3558463090807780  0.4441782627143095  0.5128399729999984   T   T   T
  0.4727199969999987  0.5591231230733484  0.5128399729999984   F   F   F
  0.4727199969999987  0.5015699859999998  0.5703931100733470   F   F   F
  0.4167549829086210  0.6158853810625302  0.6271453540625245   T   T   T
  0.5302731040733519  0.5015699859999998  0.5128399729999984   F   F   F
  0.4726659407401733  0.3847980146995457  0.5702074963371364   T   T   T
  0.3010282082381356  0.5015699859999998  0.5128399729999984   T   T   T
  0.3558463090807780  0.5015699859999998  0.5702317262856912   T   T   T
  0.4728658939435186  0.5015699859999998  0.3413549532878148   T   T   T
  0.3585095853887602  0.4453717294210499  0.3986873768661484   T   T   T
  0.5866755825577962  0.4452001569326510  0.3984134575928924   T   T   T
  0.5892241550427717  0.5015699859999998  0.4554677136836328   T   T   T
  0.4154505913781605  0.4443005803781617  0.4555705673781603   F   F   F
  0.4154505913781605  0.5588394216218404  0.4555705673781603   F   F   F
  0.5299894026218439  0.5588394216218404  0.4555705673781603   F   F   F
  0.4726659407401733  0.6183520023004573  0.4554724796628629   T   T   T
  0.4728658939435186  0.6730550657121883  0.5128399729999984   T   T   T
  0.3585095853887602  0.6157226421338549  0.5690382595789506   T   T   T
  0.5892241550427717  0.4441977266836342  0.5128399729999984   T   T   T
  0.3585095853887602  0.3874273748661481  0.4566417164210485   T   T   T
  0.3585095853887602  0.5577682725789520  0.3986873768661484   T   T   T
  0.4167549829086210  0.3872646359374727  0.6271453540625245   T   T   T
  0.5866755825577962  0.4452001569326510  0.6272565344071050   T   T   T
  0.5299894026218439  0.5588394216218404  0.5701094086218390   F   F   F
  0.4726659407401733  0.4442024926628643  0.3960580166995459   T   T   T
  0.4727199969999987  0.5015699859999998  0.4552868659266522   F   F   F
  0.5866755825577962  0.6159965614071108  0.5692098320673497   T   T   T
  0.4726659407401733  0.5589375093371378  0.6296119753004515   T   T   T
  0.4154505913781605  0.5588394216218404  0.5701094086218390   F   F   F
  0.4152610548234821  0.5015699859999998  0.6296581995967866   T   T   T
  0.5301576578997291  0.5015699859999998  0.3960511623978707   T   T   T
  0.5866755825577962  0.3871534555928922  0.4564701439326496   T   T   T
  0.5299894026218439  0.4443005803781617  0.5701094086218390   F   F   F
  0.3585095853887602  0.5577682725789520  0.6269826151338491   T   T   T
  0.4728658939435186  0.3300949502878110  0.5128399729999984   T   T   T
  0.5866755825577962  0.5579398450673511  0.6272565344071050   T   T   T
  0.3585095853887602  0.3874273748661481  0.5690382595789506   T   T   T
  0.4726659407401733  0.5589375093371378  0.3960580166995459   T   T   T
  0.5866755825577962  0.6159965614071108  0.4564701439326496   T   T   T
  0.5285229137989288  0.6158972549196304  0.3985127640803727   T   T   T
  0.5301576578997291  0.3847911603978705  0.5128399729999984   T   T   T
  0.4151668899266525  0.5015699859999998  0.5128399729999984   F   F   F
  0.5301576578997291  0.6183588566021323  0.5128399729999984   T   T   T
  0.5285229137989288  0.6158972549196304  0.6271572279196247   T   T   T
  0.4726659407401733  0.3847980146995457  0.4554724796628629   T   T   T
  0.4167549829086210  0.3872646359374727  0.3985246379374729   T   T   T
  0.5285229137989288  0.3872527620803725  0.6271572279196247   T   T   T
  0.4726659407401733  0.4442024926628643  0.6296119753004515   T   T   T
  0.6452226599839261  0.5015699859999998  0.5128399729999984   T   T   T
  0.3558463090807780  0.5015699859999998  0.4554482497143081   T   T   T
  0.6974536083835117  0.5015694035362515  0.5128405467383956   T   T   T
 
  0.00000000E+00  0.00000000E+00  0.00000000E+00
  0.00000000E+00  0.00000000E+00  0.00000000E+00
  0.00000000E+00  0.00000000E+00  0.00000000E+00
  0.00000000E+00  0.00000000E+00  0.00000000E+00
  0.00000000E+00  0.00000000E+00  0.00000000E+00
  0.00000000E+00  0.00000000E+00  0.00000000E+00
  0.00000000E+00  0.00000000E+00  0.00000000E+00
  0.00000000E+00  0.00000000E+00  0.00000000E+00
  0.00000000E+00  0.00000000E+00  0.00000000E+00
  0.00000000E+00  0.00000000E+00  0.00000000E+00
  0.00000000E+00  0.00000000E+00  0.00000000E+00
  0.00000000E+00  0.00000000E+00  0.00000000E+00
  0.00000000E+00  0.00000000E+00  0.00000000E+00
  0.00000000E+00  0.00000000E+00  0.00000000E+00
  0.00000000E+00  0.00000000E+00  0.00000000E+00
  0.00000000E+00  0.00000000E+00  0.00000000E+00
  0.00000000E+00  0.00000000E+00  0.00000000E+00
  0.00000000E+00  0.00000000E+00  0.00000000E+00
  0.00000000E+00  0.00000000E+00  0.00000000E+00
  0.00000000E+00  0.00000000E+00  0.00000000E+00
  0.00000000E+00  0.00000000E+00  0.00000000E+00
  0.00000000E+00  0.00000000E+00  0.00000000E+00
  0.00000000E+00  0.00000000E+00  0.00000000E+00
  0.00000000E+00  0.00000000E+00  0.00000000E+00
  0.00000000E+00  0.00000000E+00  0.00000000E+00
  0.00000000E+00  0.00000000E+00  0.00000000E+00
  0.00000000E+00  0.00000000E+00  0.00000000E+00
  0.00000000E+00  0.00000000E+00  0.00000000E+00
  0.00000000E+00  0.00000000E+00  0.00000000E+00
  0.00000000E+00  0.00000000E+00  0.00000000E+00
  0.00000000E+00  0.00000000E+00  0.00000000E+00
  0.00000000E+00  0.00000000E+00  0.00000000E+00
  0.00000000E+00  0.00000000E+00  0.00000000E+00
  0.00000000E+00  0.00000000E+00  0.00000000E+00
  0.00000000E+00  0.00000000E+00  0.00000000E+00
  0.00000000E+00  0.00000000E+00  0.00000000E+00
  0.00000000E+00  0.00000000E+00  0.00000000E+00
  0.00000000E+00  0.00000000E+00  0.00000000E+00
  0.00000000E+00  0.00000000E+00  0.00000000E+00
  0.00000000E+00  0.00000000E+00  0.00000000E+00
  0.00000000E+00  0.00000000E+00  0.00000000E+00
  0.00000000E+00  0.00000000E+00  0.00000000E+00
  0.00000000E+00  0.00000000E+00  0.00000000E+00
  0.00000000E+00  0.00000000E+00  0.00000000E+00
  0.00000000E+00  0.00000000E+00  0.00000000E+00
  0.00000000E+00  0.00000000E+00  0.00000000E+00
  0.00000000E+00  0.00000000E+00  0.00000000E+00
  0.00000000E+00  0.00000000E+00  0.00000000E+00
  0.00000000E+00  0.00000000E+00  0.00000000E+00
  0.00000000E+00  0.00000000E+00  0.00000000E+00
  0.00000000E+00  0.00000000E+00  0.00000000E+00
  0.00000000E+00  0.00000000E+00  0.00000000E+00
  0.00000000E+00  0.00000000E+00  0.00000000E+00
  0.00000000E+00  0.00000000E+00  0.00000000E+00
  0.00000000E+00  0.00000000E+00  0.00000000E+00
  0.00000000E+00  0.00000000E+00  0.00000000E+00
  0.00000000E+00  0.00000000E+00  0.00000000E+00
  0.00000000E+00  0.00000000E+00  0.00000000E+00
  0.00000000E+00  0.00000000E+00  0.00000000E+00
  0.00000000E+00  0.00000000E+00  0.00000000E+00
  0.00000000E+00  0.00000000E+00  0.00000000E+00
  0.00000000E+00  0.00000000E+00  0.00000000E+00
  0.00000000E+00  0.00000000E+00  0.00000000E+00
  0.00000000E+00  0.00000000E+00  0.00000000E+00
  0.00000000E+00  0.00000000E+00  0.00000000E+00
  0.00000000E+00  0.00000000E+00  0.00000000E+00
  0.00000000E+00  0.00000000E+00  0.00000000E+00
  0.00000000E+00  0.00000000E+00  0.00000000E+00
  0.00000000E+00  0.00000000E+00  0.00000000E+00
