Ni H                                    
   1.00000000000000     
    29.0000000000000000    0.0000000000000000    0.0000000000000000
     0.0000000000000000   29.0000000000000000    0.0000000000000000
     0.0000000000000000    0.0000000000000000   29.0000000000000000
   Ni   H 
    68     1
Selective dynamics
Direct
  0.4750735247975207  0.5028724408175075  0.6834871407384525   T   T   T
  0.3465871287262805  0.5970259470215729  0.4530510917449240   T   T   T
  0.3547207130192939  0.5609980249573026  0.5228893517118832   T   T   T
  0.5299894026218439  0.4443005803781617  0.4555705673781603   F   F   F
  0.4154505913781605  0.4443005803781617  0.5701094086218390   F   F   F
  0.5918241573676405  0.5602225483275119  0.5017671801913129   T   T   T
  0.4129986791138551  0.4898529251243263  0.3933406545948329   T   T   T
  0.4130971337583708  0.3819485554918434  0.5250252078094381   T   T   T
  0.5324946740464782  0.4919174358622296  0.6309626054446243   T   T   T
  0.3768731988764943  0.4448170009997498  0.6394176175826025   T   T   T
  0.4631083215291849  0.6197946413863392  0.5706734196852143   T   T   T
  0.5301352534816351  0.3746912081713086  0.4183801387087118   T   T   T
  0.4132566817270579  0.6205497273306544  0.5022520720086872   T   T   T
  0.4133054508960323  0.6270577845866345  0.4162772681226111   T   T   T
  0.5913961656564012  0.5118924304275055  0.5716584822617284   T   T   T
  0.5986358255150095  0.5595145360273072  0.4165207517176567   T   T   T
  0.5674364647861379  0.3751332884704051  0.5728578289314674   T   T   T
  0.4727199969999987  0.4440168789266536  0.5128399729999984   F   F   F
  0.3549064326974021  0.4423036996313028  0.5035413553118268   T   T   T
  0.4727199969999987  0.5591231230733484  0.5128399729999984   F   F   F
  0.4727199969999987  0.5015699859999998  0.5703931100733470   F   F   F
  0.4153952964158375  0.5986593521109810  0.6389191895926170   T   T   T
  0.5302731040733519  0.5015699859999998  0.5128399729999984   F   F   F
  0.4822615084029551  0.3839824284336393  0.5734235476248823   T   T   T
  0.3040241126342911  0.5008758734209746  0.5140388951705311   T   T   T
  0.3552286886579011  0.4928936456361818  0.5732619729825451   T   T   T
  0.4737936136444056  0.4995249500469635  0.3436150700690242   T   T   T
  0.3461812996166264  0.4416898259306420  0.4182896573401564   T   T   T
  0.5665889542587353  0.4408571737416391  0.3860556202914341   T   T   T
  0.5917789715558222  0.4901033235243570  0.4529289560344824   T   T   T
  0.4154505913781605  0.4443005803781617  0.4555705673781603   F   F   F
  0.4154505913781605  0.5588394216218404  0.4555705673781603   F   F   F
  0.5299894026218439  0.5588394216218404  0.4555705673781603   F   F   F
  0.4827950192096009  0.6195429397042378  0.4524436535072631   T   T   T
  0.4731395356994483  0.6708984214266440  0.5112799632248091   T   T   T
  0.3780370538512794  0.6286407824631045  0.5721271471097529   T   T   T
  0.5911435108433918  0.4416196489765630  0.5231591901526845   T   T   T
  0.3763710231949972  0.3753918838781527  0.4557994694881246   T   T   T
  0.3767924199581634  0.5595629364880134  0.3867545060994420   T   T   T
  0.4129979115398845  0.3769700132197248  0.6107649176184629   T   T   T
  0.5987360197529947  0.4424465970013160  0.6081908780535427   T   T   T
  0.5299894026218439  0.5588394216218404  0.5701094086218390   F   F   F
  0.4819431763989667  0.4407418012855955  0.3953107525589993   T   T   T
  0.4727199969999987  0.5015699859999998  0.4552868659266522   F   F   F
  0.5984845226306323  0.5974399231606791  0.5707594203648413   T   T   T
  0.4838488813735247  0.5615740785792925  0.6316092209292165   T   T   T
  0.4154505913781605  0.5588394216218404  0.5701094086218390   F   F   F
  0.4152924793612382  0.5130426387233423  0.6322287850084092   T   T   T
  0.5318761064504850  0.5107626319155700  0.3950471195099429   T   T   T
  0.5979343577084788  0.4049976182042200  0.4534969921820354   T   T   T
  0.5299894026218439  0.4443005803781617  0.5701094086218390   F   F   F
  0.3473304094465550  0.5622210707626628  0.6097202911517663   T   T   T
  0.4734519409511309  0.3317470247486260  0.5151499189897544   T   T   T
  0.5692633710601308  0.5612871849352014  0.6383116316356668   T   T   T
  0.3462811532290176  0.4070969319559116  0.5733506295651339   T   T   T
  0.4616824799116047  0.5596686794532615  0.3933779420091069   T   T   T
  0.5685215192416687  0.6270197279936665  0.4523530866600383   T   T   T
  0.5315556499526997  0.5951892328328167  0.3858802878730559   T   T   T
  0.5315686536909688  0.3834641449535328  0.5032607659175946   T   T   T
  0.4151668899266525  0.5015699859999998  0.5128399729999984   F   F   F
  0.5322409500390927  0.6195735855173100  0.5219511376760593   T   T   T
  0.5318332064415321  0.6279024532229874  0.6078094876391895   T   T   T
  0.4612511618320307  0.3819418900813029  0.4553838119396726   T   T   T
  0.4125404622344288  0.4038344011401560  0.3880838008309517   T   T   T
  0.5314930568712527  0.4070689592398263  0.6395026508203713   T   T   T
  0.4621457984606570  0.4436518599424730  0.6322721448974268   T   T   T
  0.6423283897802418  0.5004477373672690  0.5124706029175341   T   T   T
  0.3542167182893974  0.5114570168938802  0.4538300222679055   T   T   T
  0.3591106036710668  0.6188465769686087  0.6286459253821939   T   T   T
 
  0.00000000E+00  0.00000000E+00  0.00000000E+00
  0.00000000E+00  0.00000000E+00  0.00000000E+00
  0.00000000E+00  0.00000000E+00  0.00000000E+00
  0.00000000E+00  0.00000000E+00  0.00000000E+00
  0.00000000E+00  0.00000000E+00  0.00000000E+00
  0.00000000E+00  0.00000000E+00  0.00000000E+00
  0.00000000E+00  0.00000000E+00  0.00000000E+00
  0.00000000E+00  0.00000000E+00  0.00000000E+00
  0.00000000E+00  0.00000000E+00  0.00000000E+00
  0.00000000E+00  0.00000000E+00  0.00000000E+00
  0.00000000E+00  0.00000000E+00  0.00000000E+00
  0.00000000E+00  0.00000000E+00  0.00000000E+00
  0.00000000E+00  0.00000000E+00  0.00000000E+00
  0.00000000E+00  0.00000000E+00  0.00000000E+00
  0.00000000E+00  0.00000000E+00  0.00000000E+00
  0.00000000E+00  0.00000000E+00  0.00000000E+00
  0.00000000E+00  0.00000000E+00  0.00000000E+00
  0.00000000E+00  0.00000000E+00  0.00000000E+00
  0.00000000E+00  0.00000000E+00  0.00000000E+00
  0.00000000E+00  0.00000000E+00  0.00000000E+00
  0.00000000E+00  0.00000000E+00  0.00000000E+00
  0.00000000E+00  0.00000000E+00  0.00000000E+00
  0.00000000E+00  0.00000000E+00  0.00000000E+00
  0.00000000E+00  0.00000000E+00  0.00000000E+00
  0.00000000E+00  0.00000000E+00  0.00000000E+00
  0.00000000E+00  0.00000000E+00  0.00000000E+00
  0.00000000E+00  0.00000000E+00  0.00000000E+00
  0.00000000E+00  0.00000000E+00  0.00000000E+00
  0.00000000E+00  0.00000000E+00  0.00000000E+00
  0.00000000E+00  0.00000000E+00  0.00000000E+00
  0.00000000E+00  0.00000000E+00  0.00000000E+00
  0.00000000E+00  0.00000000E+00  0.00000000E+00
  0.00000000E+00  0.00000000E+00  0.00000000E+00
  0.00000000E+00  0.00000000E+00  0.00000000E+00
  0.00000000E+00  0.00000000E+00  0.00000000E+00
  0.00000000E+00  0.00000000E+00  0.00000000E+00
  0.00000000E+00  0.00000000E+00  0.00000000E+00
  0.00000000E+00  0.00000000E+00  0.00000000E+00
  0.00000000E+00  0.00000000E+00  0.00000000E+00
  0.00000000E+00  0.00000000E+00  0.00000000E+00
  0.00000000E+00  0.00000000E+00  0.00000000E+00
  0.00000000E+00  0.00000000E+00  0.00000000E+00
  0.00000000E+00  0.00000000E+00  0.00000000E+00
  0.00000000E+00  0.00000000E+00  0.00000000E+00
  0.00000000E+00  0.00000000E+00  0.00000000E+00
  0.00000000E+00  0.00000000E+00  0.00000000E+00
  0.00000000E+00  0.00000000E+00  0.00000000E+00
  0.00000000E+00  0.00000000E+00  0.00000000E+00
  0.00000000E+00  0.00000000E+00  0.00000000E+00
  0.00000000E+00  0.00000000E+00  0.00000000E+00
  0.00000000E+00  0.00000000E+00  0.00000000E+00
  0.00000000E+00  0.00000000E+00  0.00000000E+00
  0.00000000E+00  0.00000000E+00  0.00000000E+00
  0.00000000E+00  0.00000000E+00  0.00000000E+00
  0.00000000E+00  0.00000000E+00  0.00000000E+00
  0.00000000E+00  0.00000000E+00  0.00000000E+00
  0.00000000E+00  0.00000000E+00  0.00000000E+00
  0.00000000E+00  0.00000000E+00  0.00000000E+00
  0.00000000E+00  0.00000000E+00  0.00000000E+00
  0.00000000E+00  0.00000000E+00  0.00000000E+00
  0.00000000E+00  0.00000000E+00  0.00000000E+00
  0.00000000E+00  0.00000000E+00  0.00000000E+00
  0.00000000E+00  0.00000000E+00  0.00000000E+00
  0.00000000E+00  0.00000000E+00  0.00000000E+00
  0.00000000E+00  0.00000000E+00  0.00000000E+00
  0.00000000E+00  0.00000000E+00  0.00000000E+00
  0.00000000E+00  0.00000000E+00  0.00000000E+00
  0.00000000E+00  0.00000000E+00  0.00000000E+00
  0.00000000E+00  0.00000000E+00  0.00000000E+00
