Ni H                                    
   1.00000000000000     
    29.0000000000000000    0.0000000000000000    0.0000000000000000
     0.0000000000000000   29.0000000000000000    0.0000000000000000
     0.0000000000000000    0.0000000000000000   29.0000000000000000
   Ni   H 
    68     1
Selective dynamics
Direct
  0.4727199969999987  0.5015105716791686  0.6842498776986886   T   T   T
  0.3585430621167205  0.6157703581873544  0.4567106931575959   T   T   T
  0.3559758908983268  0.5589744671788932  0.5128399729999984   T   T   T
  0.5299894026218439  0.4443005803781617  0.4555705673781603   F   F   F
  0.4154505913781605  0.4443005803781617  0.5701094086218390   F   F   F
  0.5894740881016690  0.5589744671788932  0.5128399729999984   T   T   T
  0.4153318763087211  0.5017050952400243  0.3960831011403922   T   T   T
  0.4153267970804416  0.3849867413429854  0.5128399729999984   T   T   T
  0.5301081176912833  0.5017050952400243  0.6295868908596053   T   T   T
  0.3584357580997861  0.4457349819617709  0.6271242129002075   T   T   T
  0.4727199969999987  0.6184452882025779  0.5701526342111239   T   T   T
  0.5290532423095707  0.3875561706049230  0.3984447554880360   T   T   T
  0.4154073657888756  0.6184452882025779  0.5128399729999984   T   T   T
  0.4165907171575962  0.6157703581873544  0.3986530831167243   T   T   T
  0.5894768988596074  0.5017050952400243  0.5702281236912784   T   T   T
  0.5870194098136932  0.5577682169906409  0.3985405901863066   T   T   T
  0.5871152445119635  0.3875561706049230  0.5691732483095658   T   T   T
  0.4727199969999987  0.4440168789266536  0.5128399729999984   F   F   F
  0.3559515425721228  0.4441306032651651  0.5128399729999984   T   T   T
  0.4727199969999987  0.5591231230733484  0.5128399729999984   F   F   F
  0.4727199969999987  0.5015699859999998  0.5703931100733470   F   F   F
  0.4165907171575962  0.6157703581873544  0.6270169088832731   T   T   T
  0.5302731040733519  0.5015699859999998  0.5128399729999984   F   F   F
  0.4727199969999987  0.3849867413429854  0.5702332029195578   T   T   T
  0.3013101223013179  0.5015105716791686  0.5128399729999984   T   T   T
  0.3559730801403884  0.5017050952400243  0.5702281236912784   T   T   T
  0.4727199969999987  0.5015105716791686  0.3414201143013158   T   T   T
  0.3584357580997861  0.4457349819617709  0.3985457790997899   T   T   T
  0.5870142209002096  0.4457349819617709  0.3985457790997899   T   T   T
  0.5894768988596074  0.5017050952400243  0.4554518523087209   T   T   T
  0.4154505913781605  0.4443005803781617  0.4555705673781603   F   F   F
  0.4154505913781605  0.5588394216218404  0.4555705673781603   F   F   F
  0.5299894026218439  0.5588394216218404  0.4555705673781603   F   F   F
  0.4727199969999987  0.6184452882025779  0.4555273417888753   T   T   T
  0.4727199969999987  0.6732759442761196  0.5128399729999984   T   T   T
  0.3585430621167205  0.6157703581873544  0.5689692828424032   T   T   T
  0.5894984364278730  0.4441306032651651  0.5128399729999984   T   T   T
  0.3583347344880322  0.3875561706049230  0.4565067276904334   T   T   T
  0.3584305691863028  0.5577682169906409  0.3985405901863066   T   T   T
  0.4163867516904337  0.3875561706049230  0.6272252365119614   T   T   T
  0.5870142209002096  0.4457349819617709  0.6271242129002075   T   T   T
  0.5299894026218439  0.5588394216218404  0.5701094086218390   F   F   F
  0.4727199969999987  0.4441306032651651  0.3960615635721266   T   T   T
  0.4727199969999987  0.5015699859999998  0.4552868659266522   F   F   F
  0.5869069168832752  0.6157703581873544  0.5689692828424032   T   T   T
  0.4727199969999987  0.5589744671788932  0.6295840801016669   T   T   T
  0.4154505913781605  0.5588394216218404  0.5701094086218390   F   F   F
  0.4153318763087211  0.5017050952400243  0.6295868908596053   T   T   T
  0.5301081176912833  0.5017050952400243  0.3960831011403922   T   T   T
  0.5871152445119635  0.3875561706049230  0.4565067276904334   T   T   T
  0.5299894026218439  0.4443005803781617  0.5701094086218390   F   F   F
  0.3584305691863028  0.5577682169906409  0.6271294018136910   T   T   T
  0.4727199969999987  0.3291805393258338  0.5128399729999984   T   T   T
  0.5870194098136932  0.5577682169906409  0.6271294018136910   T   T   T
  0.3583347344880322  0.3875561706049230  0.5691732483095658   T   T   T
  0.4727199969999987  0.5589744671788932  0.3960859118983306   T   T   T
  0.5869069168832752  0.6157703581873544  0.4567106931575959   T   T   T
  0.5288492768424081  0.6157703581873544  0.3986530831167243   T   T   T
  0.5301131969195627  0.3849867413429854  0.5128399729999984   T   T   T
  0.4151668899266525  0.5015699859999998  0.5128399729999984   F   F   F
  0.5300326282111288  0.6184452882025779  0.5128399729999984   T   T   T
  0.5288492768424081  0.6157703581873544  0.6270169088832731   T   T   T
  0.4727199969999987  0.3849867413429854  0.4554467730804413   T   T   T
  0.4163867516904337  0.3875561706049230  0.3984447554880360   T   T   T
  0.5290532423095707  0.3875561706049230  0.6272252365119614   T   T   T
  0.4727199969999987  0.4441306032651651  0.6296084284278709   T   T   T
  0.6441398856986836  0.5015105716791686  0.5128399729999984   T   T   T
  0.3559730801403884  0.5017050952400243  0.4554518523087209   T   T   T
  0.4727194195851681  0.2769441045275982  0.5128405467591222   T   T   T
 
  0.00000000E+00  0.00000000E+00  0.00000000E+00
  0.00000000E+00  0.00000000E+00  0.00000000E+00
  0.00000000E+00  0.00000000E+00  0.00000000E+00
  0.00000000E+00  0.00000000E+00  0.00000000E+00
  0.00000000E+00  0.00000000E+00  0.00000000E+00
  0.00000000E+00  0.00000000E+00  0.00000000E+00
  0.00000000E+00  0.00000000E+00  0.00000000E+00
  0.00000000E+00  0.00000000E+00  0.00000000E+00
  0.00000000E+00  0.00000000E+00  0.00000000E+00
  0.00000000E+00  0.00000000E+00  0.00000000E+00
  0.00000000E+00  0.00000000E+00  0.00000000E+00
  0.00000000E+00  0.00000000E+00  0.00000000E+00
  0.00000000E+00  0.00000000E+00  0.00000000E+00
  0.00000000E+00  0.00000000E+00  0.00000000E+00
  0.00000000E+00  0.00000000E+00  0.00000000E+00
  0.00000000E+00  0.00000000E+00  0.00000000E+00
  0.00000000E+00  0.00000000E+00  0.00000000E+00
  0.00000000E+00  0.00000000E+00  0.00000000E+00
  0.00000000E+00  0.00000000E+00  0.00000000E+00
  0.00000000E+00  0.00000000E+00  0.00000000E+00
  0.00000000E+00  0.00000000E+00  0.00000000E+00
  0.00000000E+00  0.00000000E+00  0.00000000E+00
  0.00000000E+00  0.00000000E+00  0.00000000E+00
  0.00000000E+00  0.00000000E+00  0.00000000E+00
  0.00000000E+00  0.00000000E+00  0.00000000E+00
  0.00000000E+00  0.00000000E+00  0.00000000E+00
  0.00000000E+00  0.00000000E+00  0.00000000E+00
  0.00000000E+00  0.00000000E+00  0.00000000E+00
  0.00000000E+00  0.00000000E+00  0.00000000E+00
  0.00000000E+00  0.00000000E+00  0.00000000E+00
  0.00000000E+00  0.00000000E+00  0.00000000E+00
  0.00000000E+00  0.00000000E+00  0.00000000E+00
  0.00000000E+00  0.00000000E+00  0.00000000E+00
  0.00000000E+00  0.00000000E+00  0.00000000E+00
  0.00000000E+00  0.00000000E+00  0.00000000E+00
  0.00000000E+00  0.00000000E+00  0.00000000E+00
  0.00000000E+00  0.00000000E+00  0.00000000E+00
  0.00000000E+00  0.00000000E+00  0.00000000E+00
  0.00000000E+00  0.00000000E+00  0.00000000E+00
  0.00000000E+00  0.00000000E+00  0.00000000E+00
  0.00000000E+00  0.00000000E+00  0.00000000E+00
  0.00000000E+00  0.00000000E+00  0.00000000E+00
  0.00000000E+00  0.00000000E+00  0.00000000E+00
  0.00000000E+00  0.00000000E+00  0.00000000E+00
  0.00000000E+00  0.00000000E+00  0.00000000E+00
  0.00000000E+00  0.00000000E+00  0.00000000E+00
  0.00000000E+00  0.00000000E+00  0.00000000E+00
  0.00000000E+00  0.00000000E+00  0.00000000E+00
  0.00000000E+00  0.00000000E+00  0.00000000E+00
  0.00000000E+00  0.00000000E+00  0.00000000E+00
  0.00000000E+00  0.00000000E+00  0.00000000E+00
  0.00000000E+00  0.00000000E+00  0.00000000E+00
  0.00000000E+00  0.00000000E+00  0.00000000E+00
  0.00000000E+00  0.00000000E+00  0.00000000E+00
  0.00000000E+00  0.00000000E+00  0.00000000E+00
  0.00000000E+00  0.00000000E+00  0.00000000E+00
  0.00000000E+00  0.00000000E+00  0.00000000E+00
  0.00000000E+00  0.00000000E+00  0.00000000E+00
  0.00000000E+00  0.00000000E+00  0.00000000E+00
  0.00000000E+00  0.00000000E+00  0.00000000E+00
  0.00000000E+00  0.00000000E+00  0.00000000E+00
  0.00000000E+00  0.00000000E+00  0.00000000E+00
  0.00000000E+00  0.00000000E+00  0.00000000E+00
  0.00000000E+00  0.00000000E+00  0.00000000E+00
  0.00000000E+00  0.00000000E+00  0.00000000E+00
  0.00000000E+00  0.00000000E+00  0.00000000E+00
  0.00000000E+00  0.00000000E+00  0.00000000E+00
  0.00000000E+00  0.00000000E+00  0.00000000E+00
  0.00000000E+00  0.00000000E+00  0.00000000E+00
