Co H                                    
   1.00000000000000     
    29.0000000000000000    0.0000000000000000    0.0000000000000000
     0.0000000000000000   29.0000000000000000    0.0000000000000000
     0.0000000000000000    0.0000000000000000   29.0000000000000000
   Co   H 
    68     1
Selective dynamics
Direct
  0.5209039199768961  0.4842224272605366  0.6894593949053430   T   T   T
  0.4241817700679455  0.6091361003299609  0.4622091156074721   T   T   T
  0.4024276921847052  0.5430199941516500  0.5098097632039071   T   T   T
  0.5782761563691210  0.4268116521524590  0.4635435472142291   F   F   F
  0.4641638116308826  0.4268116521524590  0.5772364307857742   F   F   F
  0.6400699136437704  0.5434203098234370  0.5312889505236438   T   T   T
  0.4618922061399394  0.4932941141799891  0.4028620955180003   T   T   T
  0.4622014280839559  0.3652184390342615  0.5105640932457872   T   T   T
  0.5799810752765803  0.4948267375348649  0.6389037833252947   T   T   T
  0.3953219014775015  0.4262134237867338  0.6158399654242921   T   T   T
  0.5315177662041032  0.6030071771482467  0.5795461590716513   T   T   T
  0.5792617924285630  0.3890661139748181  0.3942753272442185   T   T   T
  0.4624798485782022  0.6026853459524388  0.5297788511203227   T   T   T
  0.4605932091075782  0.5768585334208102  0.3926179390979227   T   T   T
  0.6395760243686786  0.4739051489613050  0.5795859202306377   T   T   T
  0.6184983260208377  0.5409669663165066  0.3953821474669724   T   T   T
  0.6474707962376302  0.3890777487236964  0.5788325726518965   T   T   T
  0.5212200280000019  0.4252660896114264  0.5203899739999969   F   F   F
  0.4023562280541536  0.4249341218592714  0.5312672452593127   T   T   T
  0.5212200280000019  0.5427717147372562  0.5203899739999969   F   F   F
  0.5212200280000019  0.4841535664240482  0.5783626638499726   F   F   F
  0.4628037258889230  0.6105090535209668  0.6150234858987198   T   T   T
  0.5798513084913353  0.4841330892939268  0.5203899739999969   F   F   F
  0.5109366539279343  0.3651482403602024  0.5797270527763195   T   T   T
  0.3515937443761505  0.4840536077471804  0.5205248788778665   T   T   T
  0.4025614573423348  0.4947934669826755  0.5794028018621867   T   T   T
  0.5201380326704361  0.4832396585956041  0.3514407772427702   T   T   T
  0.4252998220720794  0.4249886144168259  0.3948365405387853   T   T   T
  0.6471330256408356  0.4263654647275340  0.4251896125561960   T   T   T
  0.6399200989174990  0.4945151576239036  0.4618188810746820   T   T   T
  0.4641638116308826  0.4268116521524590  0.4635435472142291   F   F   F
  0.4642268120283362  0.5414337674016210  0.4634884080096526   F   F   F
  0.5782131559716674  0.5414337674016210  0.4634884080096526   F   F   F
  0.5106556595287286  0.6037918095611091  0.4602735302611082   T   T   T
  0.5215943540289003  0.6534533601270061  0.5205351427070071   T   T   T
  0.3950387481804395  0.5796137073815786  0.5779424732883208   T   T   T
  0.6399012371261222  0.4248897923886593  0.5101918618097476   T   T   T
  0.3949400799439775  0.3880665878549990  0.4632931634745172   T   T   T
  0.3937380414079008  0.5405667754273896  0.4257098971209489   T   T   T
  0.4634364555726088  0.3892388171022113  0.6468321373533562   T   T   T
  0.6160257286686557  0.4262843824414419  0.6465671259722935   T   T   T
  0.5782131559716674  0.5414337674016210  0.5772915699903507   F   F   F
  0.5105563939068156  0.4243441490047285  0.4019911123111984   T   T   T
  0.5212200280000019  0.4841535664240482  0.4624173141500307   F   F   F
  0.6164835377498900  0.6104942025793658  0.5788848638996622   T   T   T
  0.5105725005091102  0.5434355694277085  0.6388627652548160   T   T   T
  0.4642268120283362  0.5414337674016210  0.5772915699903507   F   F   F
  0.4620877961376293  0.4740993558037573  0.6385722791970787   T   T   T
  0.5795083376873341  0.4740299453085453  0.4023182846986479   T   T   T
  0.6163490217263908  0.3580155687106193  0.4620247046153137   T   T   T
  0.5782761563691210  0.4268116521524590  0.5772364307857742   F   F   F
  0.4254494559519679  0.5426152627763871  0.6460672267164770   T   T   T
  0.5211700957438083  0.3143178172709182  0.5206510975584484   T   T   T
  0.6471526517876063  0.5423197004048826  0.6160008536280811   T   T   T
  0.4264057251421477  0.3577181114628581  0.5793121631860675   T   T   T
  0.5320618722433059  0.5434551918759353  0.4007002655673452   T   T   T
  0.6485871476914712  0.5789037905529515  0.4630031993090045   T   T   T
  0.5819293660495624  0.6110750193467450  0.4257548026024343   T   T   T
  0.5804088176776661  0.3649191303263440  0.5309348133647473   T   T   T
  0.4625886595086683  0.4841330892939268  0.5203899739999969   F   F   F
  0.5803565549789627  0.6026383247528664  0.5103783387269157   T   T   T
  0.5790817982610661  0.5796104828494636  0.6465047184583306   T   T   T
  0.5316983169053836  0.3650851553291347  0.4615629202132322   T   T   T
  0.4627081889280041  0.3572952363568020  0.4261549418231897   T   T   T
  0.5795666068494202  0.3578476748162755  0.6155750842585490   T   T   T
  0.5315558489463633  0.4253341791320193  0.6387547355805320   T   T   T
  0.6905680832675281  0.4843042179337499  0.5208133907552203   T   T   T
  0.4021110100973938  0.4727845413802802  0.4618070115361631   T   T   T
  0.5208489889908664  0.6039737018424650  0.4002069583865978   T   T   T
 
  0.00000000E+00  0.00000000E+00  0.00000000E+00
  0.00000000E+00  0.00000000E+00  0.00000000E+00
  0.00000000E+00  0.00000000E+00  0.00000000E+00
  0.00000000E+00  0.00000000E+00  0.00000000E+00
  0.00000000E+00  0.00000000E+00  0.00000000E+00
  0.00000000E+00  0.00000000E+00  0.00000000E+00
  0.00000000E+00  0.00000000E+00  0.00000000E+00
  0.00000000E+00  0.00000000E+00  0.00000000E+00
  0.00000000E+00  0.00000000E+00  0.00000000E+00
  0.00000000E+00  0.00000000E+00  0.00000000E+00
  0.00000000E+00  0.00000000E+00  0.00000000E+00
  0.00000000E+00  0.00000000E+00  0.00000000E+00
  0.00000000E+00  0.00000000E+00  0.00000000E+00
  0.00000000E+00  0.00000000E+00  0.00000000E+00
  0.00000000E+00  0.00000000E+00  0.00000000E+00
  0.00000000E+00  0.00000000E+00  0.00000000E+00
  0.00000000E+00  0.00000000E+00  0.00000000E+00
  0.00000000E+00  0.00000000E+00  0.00000000E+00
  0.00000000E+00  0.00000000E+00  0.00000000E+00
  0.00000000E+00  0.00000000E+00  0.00000000E+00
  0.00000000E+00  0.00000000E+00  0.00000000E+00
  0.00000000E+00  0.00000000E+00  0.00000000E+00
  0.00000000E+00  0.00000000E+00  0.00000000E+00
  0.00000000E+00  0.00000000E+00  0.00000000E+00
  0.00000000E+00  0.00000000E+00  0.00000000E+00
  0.00000000E+00  0.00000000E+00  0.00000000E+00
  0.00000000E+00  0.00000000E+00  0.00000000E+00
  0.00000000E+00  0.00000000E+00  0.00000000E+00
  0.00000000E+00  0.00000000E+00  0.00000000E+00
  0.00000000E+00  0.00000000E+00  0.00000000E+00
  0.00000000E+00  0.00000000E+00  0.00000000E+00
  0.00000000E+00  0.00000000E+00  0.00000000E+00
  0.00000000E+00  0.00000000E+00  0.00000000E+00
  0.00000000E+00  0.00000000E+00  0.00000000E+00
  0.00000000E+00  0.00000000E+00  0.00000000E+00
  0.00000000E+00  0.00000000E+00  0.00000000E+00
  0.00000000E+00  0.00000000E+00  0.00000000E+00
  0.00000000E+00  0.00000000E+00  0.00000000E+00
  0.00000000E+00  0.00000000E+00  0.00000000E+00
  0.00000000E+00  0.00000000E+00  0.00000000E+00
  0.00000000E+00  0.00000000E+00  0.00000000E+00
  0.00000000E+00  0.00000000E+00  0.00000000E+00
  0.00000000E+00  0.00000000E+00  0.00000000E+00
  0.00000000E+00  0.00000000E+00  0.00000000E+00
  0.00000000E+00  0.00000000E+00  0.00000000E+00
  0.00000000E+00  0.00000000E+00  0.00000000E+00
  0.00000000E+00  0.00000000E+00  0.00000000E+00
  0.00000000E+00  0.00000000E+00  0.00000000E+00
  0.00000000E+00  0.00000000E+00  0.00000000E+00
  0.00000000E+00  0.00000000E+00  0.00000000E+00
  0.00000000E+00  0.00000000E+00  0.00000000E+00
  0.00000000E+00  0.00000000E+00  0.00000000E+00
  0.00000000E+00  0.00000000E+00  0.00000000E+00
  0.00000000E+00  0.00000000E+00  0.00000000E+00
  0.00000000E+00  0.00000000E+00  0.00000000E+00
  0.00000000E+00  0.00000000E+00  0.00000000E+00
  0.00000000E+00  0.00000000E+00  0.00000000E+00
  0.00000000E+00  0.00000000E+00  0.00000000E+00
  0.00000000E+00  0.00000000E+00  0.00000000E+00
  0.00000000E+00  0.00000000E+00  0.00000000E+00
  0.00000000E+00  0.00000000E+00  0.00000000E+00
  0.00000000E+00  0.00000000E+00  0.00000000E+00
  0.00000000E+00  0.00000000E+00  0.00000000E+00
  0.00000000E+00  0.00000000E+00  0.00000000E+00
  0.00000000E+00  0.00000000E+00  0.00000000E+00
  0.00000000E+00  0.00000000E+00  0.00000000E+00
  0.00000000E+00  0.00000000E+00  0.00000000E+00
  0.00000000E+00  0.00000000E+00  0.00000000E+00
  0.00000000E+00  0.00000000E+00  0.00000000E+00
