Co H                                    
   1.00000000000000     
    29.0000000000000000    0.0000000000000000    0.0000000000000000
     0.0000000000000000   29.0000000000000000    0.0000000000000000
     0.0000000000000000    0.0000000000000000   29.0000000000000000
   Co   H 
    68     1
Selective dynamics
Direct
  0.5213758699464994  0.4837991281981732  0.6895747327826633   T   T   T
  0.3950065115851831  0.5789006979708685  0.4606154727346154   T   T   T
  0.4036011151503286  0.5449699563247635  0.5299453984426910   T   T   T
  0.5782761563691210  0.4268116521524590  0.4635435472142291   F   F   F
  0.4641638116308826  0.4268116521524590  0.5772364307857742   F   F   F
  0.6409737400794290  0.5441241843220704  0.5092490071537005   T   T   T
  0.4625141997877957  0.4725242872300645  0.4013715847864185   T   T   T
  0.4621649845966574  0.3651234189291541  0.5308469188217035   T   T   T
  0.5799583516431698  0.4735393011138938  0.6385838629082846   T   T   T
  0.4259344488325715  0.4262838852514346  0.6459719490823503   T   T   T
  0.5117397566470189  0.6028053735289443  0.5783527011103748   T   T   T
  0.5797706350719120  0.3575482952551826  0.4261085330582834   T   T   T
  0.4618624208216333  0.6039103107282137  0.5083774708267538   T   T   T
  0.4628841338419251  0.6093291708076379  0.4229268569547420   T   T   T
  0.6395189264296230  0.4942740412934123  0.5792826346026962   T   T   T
  0.6458812468394584  0.5420332911491491  0.4229809599672583   T   T   T
  0.6164532212867504  0.3579516030699063  0.5790018777694989   T   T   T
  0.5212200280000019  0.4252660896114264  0.5203899739999969   F   F   F
  0.4023624778114408  0.4257020427711869  0.5101772123807409   T   T   T
  0.5212200280000019  0.5427717147372562  0.5203899739999969   F   F   F
  0.5212200280000019  0.4841535664240482  0.5783626638499726   F   F   F
  0.4645897948279589  0.5800881966183734  0.6457597248662590   T   T   T
  0.5798513084913353  0.4841330892939268  0.5203899739999969   F   F   F
  0.5316226913643632  0.3650789495509663  0.5795188657857018   T   T   T
  0.3526396642121168  0.4864919082505244  0.5209467367060167   T   T   T
  0.4031289001504125  0.4735149625159847  0.5790066220361826   T   T   T
  0.5214722086869178  0.4832478833548910  0.3507311060354334   T   T   T
  0.3952627096623452  0.4257733123479343  0.4251316284544921   T   T   T
  0.6162496712790020  0.4259637217926834  0.3944050146595593   T   T   T
  0.6395293329016918  0.4744189165159514  0.4616937156138696   T   T   T
  0.4641638116308826  0.4268116521524590  0.4635435472142291   F   F   F
  0.4642268120283362  0.5414337674016210  0.4634884080096526   F   F   F
  0.5782131559716674  0.5414337674016210  0.4634884080096526   F   F   F
  0.5305807559690439  0.6020626554802692  0.4609756511906113   T   T   T
  0.5209738804944145  0.6537000809437096  0.5195193099000929   T   T   T
  0.4287252969602623  0.6119805714361365  0.5781486385782506   T   T   T
  0.6400455632824312  0.4247939834170325  0.5309543146282056   T   T   T
  0.4258449685982303  0.3578547313379330  0.4625329701156537   T   T   T
  0.4260050167014042  0.5405519900976427  0.3934746312030298   T   T   T
  0.4628179377149771  0.3577595542512200  0.6152241639418827   T   T   T
  0.6472477108589626  0.4259321887576069  0.6158539236199626   T   T   T
  0.5782131559716674  0.5414337674016210  0.5772915699903507   F   F   F
  0.5317059768806385  0.4245709995191110  0.4022197901107988   T   T   T
  0.5212200280000019  0.4841535664240482  0.4624173141500307   F   F   F
  0.6485463964295252  0.5786510250551145  0.5802591519440979   T   T   T
  0.5320862000859232  0.5430548897908072  0.6391507506362378   T   T   T
  0.4642268120283362  0.5414337674016210  0.5772915699903507   F   F   F
  0.4621930044678844  0.4952744924206760  0.6391183229377271   T   T   T
  0.5799378452969998  0.4943213328918666  0.4019858392398566   T   T   T
  0.6477296098299373  0.3895301438180945  0.4622124626647450   T   T   T
  0.5782761563691210  0.4268116521524590  0.5772364307857742   F   F   F
  0.3940555850581328  0.5438741267501372  0.6144371638852536   T   T   T
  0.5213807058328372  0.3142435574150083  0.5206214139025050   T   T   T
  0.6165678237300264  0.5413335117328297  0.6471609484450553   T   T   T
  0.3950124664994079  0.3885672051824808  0.5781859722530557   T   T   T
  0.5100806401162462  0.5420960221026832  0.4012011401684741   T   T   T
  0.6141969247453646  0.6119644100219543  0.4591801462424049   T   T   T
  0.5776146752394565  0.5783799764895123  0.3925612628277930   T   T   T
  0.5803176162934929  0.3651970039717637  0.5102572745877125   T   T   T
  0.4625886595086683  0.4841330892939268  0.5203899739999969   F   F   F
  0.5809837104181851  0.6038282702386298  0.5308604734913922   T   T   T
  0.5787637486799001  0.6094302641874387  0.6173669756843894   T   T   T
  0.5107907947530890  0.3649343802634243  0.4616406521233500   T   T   T
  0.4633102355491586  0.3879809779774889  0.3946020201510523   T   T   T
  0.5788357213664840  0.3892210611136170  0.6467706561666655   T   T   T
  0.5105600106256147  0.4253097823624821  0.6385922959945766   T   T   T
  0.6903857484071146  0.4837627380333766  0.5206560582233750   T   T   T
  0.4031080398252239  0.4943606503540987  0.4613178779050141   T   T   T
  0.6411320417926681  0.6046832354335989  0.5191533628832605   T   T   T
 
  0.00000000E+00  0.00000000E+00  0.00000000E+00
  0.00000000E+00  0.00000000E+00  0.00000000E+00
  0.00000000E+00  0.00000000E+00  0.00000000E+00
  0.00000000E+00  0.00000000E+00  0.00000000E+00
  0.00000000E+00  0.00000000E+00  0.00000000E+00
  0.00000000E+00  0.00000000E+00  0.00000000E+00
  0.00000000E+00  0.00000000E+00  0.00000000E+00
  0.00000000E+00  0.00000000E+00  0.00000000E+00
  0.00000000E+00  0.00000000E+00  0.00000000E+00
  0.00000000E+00  0.00000000E+00  0.00000000E+00
  0.00000000E+00  0.00000000E+00  0.00000000E+00
  0.00000000E+00  0.00000000E+00  0.00000000E+00
  0.00000000E+00  0.00000000E+00  0.00000000E+00
  0.00000000E+00  0.00000000E+00  0.00000000E+00
  0.00000000E+00  0.00000000E+00  0.00000000E+00
  0.00000000E+00  0.00000000E+00  0.00000000E+00
  0.00000000E+00  0.00000000E+00  0.00000000E+00
  0.00000000E+00  0.00000000E+00  0.00000000E+00
  0.00000000E+00  0.00000000E+00  0.00000000E+00
  0.00000000E+00  0.00000000E+00  0.00000000E+00
  0.00000000E+00  0.00000000E+00  0.00000000E+00
  0.00000000E+00  0.00000000E+00  0.00000000E+00
  0.00000000E+00  0.00000000E+00  0.00000000E+00
  0.00000000E+00  0.00000000E+00  0.00000000E+00
  0.00000000E+00  0.00000000E+00  0.00000000E+00
  0.00000000E+00  0.00000000E+00  0.00000000E+00
  0.00000000E+00  0.00000000E+00  0.00000000E+00
  0.00000000E+00  0.00000000E+00  0.00000000E+00
  0.00000000E+00  0.00000000E+00  0.00000000E+00
  0.00000000E+00  0.00000000E+00  0.00000000E+00
  0.00000000E+00  0.00000000E+00  0.00000000E+00
  0.00000000E+00  0.00000000E+00  0.00000000E+00
  0.00000000E+00  0.00000000E+00  0.00000000E+00
  0.00000000E+00  0.00000000E+00  0.00000000E+00
  0.00000000E+00  0.00000000E+00  0.00000000E+00
  0.00000000E+00  0.00000000E+00  0.00000000E+00
  0.00000000E+00  0.00000000E+00  0.00000000E+00
  0.00000000E+00  0.00000000E+00  0.00000000E+00
  0.00000000E+00  0.00000000E+00  0.00000000E+00
  0.00000000E+00  0.00000000E+00  0.00000000E+00
  0.00000000E+00  0.00000000E+00  0.00000000E+00
  0.00000000E+00  0.00000000E+00  0.00000000E+00
  0.00000000E+00  0.00000000E+00  0.00000000E+00
  0.00000000E+00  0.00000000E+00  0.00000000E+00
  0.00000000E+00  0.00000000E+00  0.00000000E+00
  0.00000000E+00  0.00000000E+00  0.00000000E+00
  0.00000000E+00  0.00000000E+00  0.00000000E+00
  0.00000000E+00  0.00000000E+00  0.00000000E+00
  0.00000000E+00  0.00000000E+00  0.00000000E+00
  0.00000000E+00  0.00000000E+00  0.00000000E+00
  0.00000000E+00  0.00000000E+00  0.00000000E+00
  0.00000000E+00  0.00000000E+00  0.00000000E+00
  0.00000000E+00  0.00000000E+00  0.00000000E+00
  0.00000000E+00  0.00000000E+00  0.00000000E+00
  0.00000000E+00  0.00000000E+00  0.00000000E+00
  0.00000000E+00  0.00000000E+00  0.00000000E+00
  0.00000000E+00  0.00000000E+00  0.00000000E+00
  0.00000000E+00  0.00000000E+00  0.00000000E+00
  0.00000000E+00  0.00000000E+00  0.00000000E+00
  0.00000000E+00  0.00000000E+00  0.00000000E+00
  0.00000000E+00  0.00000000E+00  0.00000000E+00
  0.00000000E+00  0.00000000E+00  0.00000000E+00
  0.00000000E+00  0.00000000E+00  0.00000000E+00
  0.00000000E+00  0.00000000E+00  0.00000000E+00
  0.00000000E+00  0.00000000E+00  0.00000000E+00
  0.00000000E+00  0.00000000E+00  0.00000000E+00
  0.00000000E+00  0.00000000E+00  0.00000000E+00
  0.00000000E+00  0.00000000E+00  0.00000000E+00
  0.00000000E+00  0.00000000E+00  0.00000000E+00
