Co H                                    
   1.00000000000000     
    29.0000000000000000    0.0000000000000000    0.0000000000000000
     0.0000000000000000   29.0000000000000000    0.0000000000000000
     0.0000000000000000    0.0000000000000000   29.0000000000000000
   Co   H 
    68     1
Selective dynamics
Direct
  0.5240578658183739  0.4893286383886422  0.6901847140570659   T   T   T
  0.3950786455067815  0.5787704606988985  0.4622860403769766   T   T   T
  0.4029414951653996  0.5435717434214065  0.5309380331107154   T   T   T
  0.5782761563691210  0.4268116521524590  0.4635435472142291   F   F   F
  0.4641638116308826  0.4268116521524590  0.5772364307857742   F   F   F
  0.6402961226903195  0.5436046476424184  0.5098100627035078   T   T   T
  0.4625824569456137  0.4744943229496151  0.4021001757485394   T   T   T
  0.4643316626253726  0.3675059331463984  0.5234984012287539   T   T   T
  0.5831347254270889  0.4759628122551099  0.6377090323188205   T   T   T
  0.4359873289317490  0.4198911495699590  0.6488414235330302   T   T   T
  0.5104007929586126  0.6034760862852444  0.5788966567367790   T   T   T
  0.5824979875764510  0.3575874171085314  0.4263647460142628   T   T   T
  0.4619694522509643  0.6031413973034883  0.5097473769641364   T   T   T
  0.4629084065471003  0.6105871640713906  0.4252316678358559   T   T   T
  0.6404310073799400  0.4957132580778450  0.5791611861003092   T   T   T
  0.6471988972021473  0.5421875444388925  0.4246306382535319   T   T   T
  0.6151084281445703  0.3576418545748344  0.5790194801472537   T   T   T
  0.5212200280000019  0.4252660896114264  0.5203899739999969   F   F   F
  0.4043965143959979  0.4234444410159390  0.5139555513082430   T   T   T
  0.5212200280000019  0.5427717147372562  0.5203899739999969   F   F   F
  0.5212200280000019  0.4841535664240482  0.5783626638499726   F   F   F
  0.4628294541706738  0.5799335112709159  0.6464198786189705   T   T   T
  0.5798513084913353  0.4841330892939268  0.5203899739999969   F   F   F
  0.5259809663051962  0.3656961004770263  0.5803175395953478   T   T   T
  0.3534129154786760  0.4847003635104333  0.5211838072775026   T   T   T
  0.4039527469219694  0.4731403719451381  0.5816584061079965   T   T   T
  0.5211919832496172  0.4848443824154146  0.3509685059088071   T   T   T
  0.3944194226115191  0.4255508123074992  0.4263751087773336   T   T   T
  0.6170884400907436  0.4264680256869084  0.3946826503928021   T   T   T
  0.6392032491530967  0.4742069301067832  0.4614683890919162   T   T   T
  0.4641638116308826  0.4268116521524590  0.4635435472142291   F   F   F
  0.4642268120283362  0.5414337674016210  0.4634884080096526   F   F   F
  0.5782131559716674  0.5414337674016210  0.4634884080096526   F   F   F
  0.5315387864308421  0.6030372920709930  0.4609418607154227   T   T   T
  0.5209678040220616  0.6538163543400606  0.5199043418408389   T   T   T
  0.4260599339054796  0.6109333460309321  0.5782977265579657   T   T   T
  0.6401133519072933  0.4252292690397713  0.5311537589614018   T   T   T
  0.4269368527588911  0.3569953891690127  0.4571388837563330   T   T   T
  0.4263028680477929  0.5424081276013750  0.3944395679953155   T   T   T
  0.4949179566109748  0.3585749626044498  0.6542310275147707   T   T   T
  0.6482279925473257  0.4261622624528706  0.6135080647545316   T   T   T
  0.5782131559716674  0.5414337674016210  0.5772915699903507   F   F   F
  0.5324920481921291  0.4257035249650162  0.4014232251390205   T   T   T
  0.5212200280000019  0.4841535664240482  0.4624173141500307   F   F   F
  0.6472573572016284  0.5802203770250943  0.5781059762879671   T   T   T
  0.5310465908442458  0.5444396882349012  0.6377948079860047   T   T   T
  0.4642268120283362  0.5414337674016210  0.5772915699903507   F   F   F
  0.4621737775136698  0.4946927371324287  0.6390810338574864   T   T   T
  0.5803877968641000  0.4949678257017660  0.4015016930265130   T   T   T
  0.6484077840067657  0.3901197886673988  0.4631344731512255   T   T   T
  0.5782761563691210  0.4268116521524590  0.5772364307857742   F   F   F
  0.3949681464432359  0.5432508637381142  0.6148253125525917   T   T   T
  0.5214894545520606  0.3151445883025387  0.5174590544023502   T   T   T
  0.6153796811075244  0.5456109234041119  0.6467982304957234   T   T   T
  0.4436971706807528  0.3544598379371547  0.5969029661116595   T   T   T
  0.5108617486910543  0.5436583376692290  0.4020941159200965   T   T   T
  0.6161309697328173  0.6104379187620246  0.4613686228067341   T   T   T
  0.5794579620924120  0.5793076092610673  0.3935833755032543   T   T   T
  0.5793682821659587  0.3660490248994467  0.5112377432141600   T   T   T
  0.4625886595086683  0.4841330892939268  0.5203899739999969   F   F   F
  0.5801460091518466  0.6027339253909390  0.5298898876544463   T   T   T
  0.5790495588088425  0.6120232344692615  0.6137351077862520   T   T   T
  0.5122601989055799  0.3654941680676518  0.4572894553448471   T   T   T
  0.4629030401231590  0.3919075415159129  0.3917904322147385   T   T   T
  0.5792814122853853  0.3838514453700022  0.6499830371961525   T   T   T
  0.5151950468402742  0.4308576043007405  0.6390528630566873   T   T   T
  0.6906619667118956  0.4840685635744906  0.5198970287266548   T   T   T
  0.4038755482980736  0.4929278039988943  0.4624046057893776   T   T   T
  0.5426834154413698  0.3416314228508413  0.6811837841247552   T   T   T
 
  0.00000000E+00  0.00000000E+00  0.00000000E+00
  0.00000000E+00  0.00000000E+00  0.00000000E+00
  0.00000000E+00  0.00000000E+00  0.00000000E+00
  0.00000000E+00  0.00000000E+00  0.00000000E+00
  0.00000000E+00  0.00000000E+00  0.00000000E+00
  0.00000000E+00  0.00000000E+00  0.00000000E+00
  0.00000000E+00  0.00000000E+00  0.00000000E+00
  0.00000000E+00  0.00000000E+00  0.00000000E+00
  0.00000000E+00  0.00000000E+00  0.00000000E+00
  0.00000000E+00  0.00000000E+00  0.00000000E+00
  0.00000000E+00  0.00000000E+00  0.00000000E+00
  0.00000000E+00  0.00000000E+00  0.00000000E+00
  0.00000000E+00  0.00000000E+00  0.00000000E+00
  0.00000000E+00  0.00000000E+00  0.00000000E+00
  0.00000000E+00  0.00000000E+00  0.00000000E+00
  0.00000000E+00  0.00000000E+00  0.00000000E+00
  0.00000000E+00  0.00000000E+00  0.00000000E+00
  0.00000000E+00  0.00000000E+00  0.00000000E+00
  0.00000000E+00  0.00000000E+00  0.00000000E+00
  0.00000000E+00  0.00000000E+00  0.00000000E+00
  0.00000000E+00  0.00000000E+00  0.00000000E+00
  0.00000000E+00  0.00000000E+00  0.00000000E+00
  0.00000000E+00  0.00000000E+00  0.00000000E+00
  0.00000000E+00  0.00000000E+00  0.00000000E+00
  0.00000000E+00  0.00000000E+00  0.00000000E+00
  0.00000000E+00  0.00000000E+00  0.00000000E+00
  0.00000000E+00  0.00000000E+00  0.00000000E+00
  0.00000000E+00  0.00000000E+00  0.00000000E+00
  0.00000000E+00  0.00000000E+00  0.00000000E+00
  0.00000000E+00  0.00000000E+00  0.00000000E+00
  0.00000000E+00  0.00000000E+00  0.00000000E+00
  0.00000000E+00  0.00000000E+00  0.00000000E+00
  0.00000000E+00  0.00000000E+00  0.00000000E+00
  0.00000000E+00  0.00000000E+00  0.00000000E+00
  0.00000000E+00  0.00000000E+00  0.00000000E+00
  0.00000000E+00  0.00000000E+00  0.00000000E+00
  0.00000000E+00  0.00000000E+00  0.00000000E+00
  0.00000000E+00  0.00000000E+00  0.00000000E+00
  0.00000000E+00  0.00000000E+00  0.00000000E+00
  0.00000000E+00  0.00000000E+00  0.00000000E+00
  0.00000000E+00  0.00000000E+00  0.00000000E+00
  0.00000000E+00  0.00000000E+00  0.00000000E+00
  0.00000000E+00  0.00000000E+00  0.00000000E+00
  0.00000000E+00  0.00000000E+00  0.00000000E+00
  0.00000000E+00  0.00000000E+00  0.00000000E+00
  0.00000000E+00  0.00000000E+00  0.00000000E+00
  0.00000000E+00  0.00000000E+00  0.00000000E+00
  0.00000000E+00  0.00000000E+00  0.00000000E+00
  0.00000000E+00  0.00000000E+00  0.00000000E+00
  0.00000000E+00  0.00000000E+00  0.00000000E+00
  0.00000000E+00  0.00000000E+00  0.00000000E+00
  0.00000000E+00  0.00000000E+00  0.00000000E+00
  0.00000000E+00  0.00000000E+00  0.00000000E+00
  0.00000000E+00  0.00000000E+00  0.00000000E+00
  0.00000000E+00  0.00000000E+00  0.00000000E+00
  0.00000000E+00  0.00000000E+00  0.00000000E+00
  0.00000000E+00  0.00000000E+00  0.00000000E+00
  0.00000000E+00  0.00000000E+00  0.00000000E+00
  0.00000000E+00  0.00000000E+00  0.00000000E+00
  0.00000000E+00  0.00000000E+00  0.00000000E+00
  0.00000000E+00  0.00000000E+00  0.00000000E+00
  0.00000000E+00  0.00000000E+00  0.00000000E+00
  0.00000000E+00  0.00000000E+00  0.00000000E+00
  0.00000000E+00  0.00000000E+00  0.00000000E+00
  0.00000000E+00  0.00000000E+00  0.00000000E+00
  0.00000000E+00  0.00000000E+00  0.00000000E+00
  0.00000000E+00  0.00000000E+00  0.00000000E+00
  0.00000000E+00  0.00000000E+00  0.00000000E+00
  0.00000000E+00  0.00000000E+00  0.00000000E+00
