Co H                                    
   1.00000000000000     
    29.0000000000000000    0.0000000000000000    0.0000000000000000
     0.0000000000000000   29.0000000000000000    0.0000000000000000
     0.0000000000000000    0.0000000000000000   29.0000000000000000
   Co   H 
    68     1
Selective dynamics
Direct
  0.5214189448191205  0.4839001374442738  0.6900584797269559   T   T   T
  0.3955019704460952  0.5817091326980718  0.4624437226743712   T   T   T
  0.4034953220120857  0.5444746862293744  0.5306350806675867   T   T   T
  0.5782761563691210  0.4268116521524590  0.4635435472142291   F   F   F
  0.4641638116308826  0.4268116521524590  0.5772364307857742   F   F   F
  0.6397842013008099  0.5430104536819733  0.5106218328850373   T   T   T
  0.4613814691645239  0.4741457006666250  0.4021505854964330   T   T   T
  0.4614707213675932  0.3665846612577435  0.5295216674639687   T   T   T
  0.5796501631919529  0.4741911149445463  0.6384570718386176   T   T   T
  0.4244318867382121  0.4272187731994843  0.6454259422402168   T   T   T
  0.5111266848872720  0.6027498202601411  0.5793954369872814   T   T   T
  0.5797646472341551  0.3578815297053689  0.4249562312488271   T   T   T
  0.4631367235704015  0.6038237364162740  0.5090968712537866   T   T   T
  0.4645370219243113  0.6104713902325749  0.4257050555689713   T   T   T
  0.6402120565288403  0.4952265358072502  0.5796007264888210   T   T   T
  0.6483521972136213  0.5414846677607777  0.4262386579437902   T   T   T
  0.6151828191537900  0.3566831309541130  0.5802870729251092   T   T   T
  0.5212200280000019  0.4252660896114264  0.5203899739999969   F   F   F
  0.4017059347475695  0.4258367940630498  0.5074744920825535   T   T   T
  0.5212200280000019  0.5427717147372562  0.5203899739999969   F   F   F
  0.5212200280000019  0.4841535664240482  0.5783626638499726   F   F   F
  0.4639873239441889  0.5799544558966120  0.6462328310536867   T   T   T
  0.5798513084913353  0.4841330892939268  0.5203899739999969   F   F   F
  0.5302890185482843  0.3664429267450836  0.5806332084544342   T   T   T
  0.3513677971606481  0.4853192161711203  0.5240396957530128   T   T   T
  0.4037025550750524  0.4735548830252119  0.5784886131069762   T   T   T
  0.5159817696873659  0.4854216014150513  0.3514829759571033   T   T   T
  0.3976621530828082  0.4289692400321825  0.4192850927357841   T   T   T
  0.6177077827810197  0.4258101219964844  0.3952771960535870   T   T   T
  0.6396324034197740  0.4734045505549948  0.4620716757134866   T   T   T
  0.4641638116308826  0.4268116521524590  0.4635435472142291   F   F   F
  0.4642268120283362  0.5414337674016210  0.4634884080096526   F   F   F
  0.5782131559716674  0.5414337674016210  0.4634884080096526   F   F   F
  0.5332806127730632  0.6040825039522278  0.4619108742835646   T   T   T
  0.5215137150587966  0.6545086115394252  0.5213058829118383   T   T   T
  0.4282509701467376  0.6115875719081728  0.5780699500726784   T   T   T
  0.6403402726309293  0.4252485649061900  0.5318774282938923   T   T   T
  0.4261971691037258  0.3583833640021535  0.4606974969979941   T   T   T
  0.4259916402558999  0.5388790410637149  0.3919172281273556   T   T   T
  0.4613484512444692  0.3581986017988277  0.6149656536142474   T   T   T
  0.6470098124015573  0.4272554524887749  0.6161405935875786   T   T   T
  0.5782131559716674  0.5414337674016210  0.5772915699903507   F   F   F
  0.5324092321026290  0.4248868483292338  0.4029642057439568   T   T   T
  0.5212200280000019  0.4841535664240482  0.4624173141500307   F   F   F
  0.6474429749425040  0.5798320780528113  0.5789080375958573   T   T   T
  0.5319689582886253  0.5432684172924062  0.6391270396278137   T   T   T
  0.4642268120283362  0.5414337674016210  0.5772915699903507   F   F   F
  0.4624518078454219  0.4956483023827405  0.6394223700721461   T   T   T
  0.5797761776598139  0.4940554499399790  0.4025401491429130   T   T   T
  0.6473937974011654  0.3886115259258562  0.4635486494551841   T   T   T
  0.5782761563691210  0.4268116521524590  0.5772364307857742   F   F   F
  0.3938389731159290  0.5431291189586569  0.6149474128999044   T   T   T
  0.5218689969028119  0.3153926579969337  0.5225020241265680   T   T   T
  0.6168409414550521  0.5420230597916155  0.6465006145194261   T   T   T
  0.3939969841767270  0.3903217334838467  0.5770625188314098   T   T   T
  0.5121848721486251  0.5456845848325592  0.4036164205034125   T   T   T
  0.6182461915969588  0.6097614285083590  0.4633254526494143   T   T   T
  0.5819423255325163  0.5786763115866079  0.3944410648276556   T   T   T
  0.5800937132354177  0.3656979410079346  0.5099111062241076   T   T   T
  0.4625886595086683  0.4841330892939268  0.5203899739999969   F   F   F
  0.5804296920424249  0.6030629620317599  0.5310509873000335   T   T   T
  0.5793750908755236  0.6103638687516781  0.6158100244754027   T   T   T
  0.5111156437906687  0.3650290109997683  0.4617159057362623   T   T   T
  0.4657777949967861  0.3872357088113852  0.3945116305547497   T   T   T
  0.5790602835073811  0.3919683975611123  0.6480022594053377   T   T   T
  0.5093790474415339  0.4257350799691746  0.6392154486122453   T   T   T
  0.6909085370164210  0.4842610450019150  0.5205309561204079   T   T   T
  0.4000053526556722  0.4964721756449380  0.4628250000466049   T   T   T
  0.3739100365060100  0.5330238824659063  0.4235244306920027   T   T   T
 
  0.00000000E+00  0.00000000E+00  0.00000000E+00
  0.00000000E+00  0.00000000E+00  0.00000000E+00
  0.00000000E+00  0.00000000E+00  0.00000000E+00
  0.00000000E+00  0.00000000E+00  0.00000000E+00
  0.00000000E+00  0.00000000E+00  0.00000000E+00
  0.00000000E+00  0.00000000E+00  0.00000000E+00
  0.00000000E+00  0.00000000E+00  0.00000000E+00
  0.00000000E+00  0.00000000E+00  0.00000000E+00
  0.00000000E+00  0.00000000E+00  0.00000000E+00
  0.00000000E+00  0.00000000E+00  0.00000000E+00
  0.00000000E+00  0.00000000E+00  0.00000000E+00
  0.00000000E+00  0.00000000E+00  0.00000000E+00
  0.00000000E+00  0.00000000E+00  0.00000000E+00
  0.00000000E+00  0.00000000E+00  0.00000000E+00
  0.00000000E+00  0.00000000E+00  0.00000000E+00
  0.00000000E+00  0.00000000E+00  0.00000000E+00
  0.00000000E+00  0.00000000E+00  0.00000000E+00
  0.00000000E+00  0.00000000E+00  0.00000000E+00
  0.00000000E+00  0.00000000E+00  0.00000000E+00
  0.00000000E+00  0.00000000E+00  0.00000000E+00
  0.00000000E+00  0.00000000E+00  0.00000000E+00
  0.00000000E+00  0.00000000E+00  0.00000000E+00
  0.00000000E+00  0.00000000E+00  0.00000000E+00
  0.00000000E+00  0.00000000E+00  0.00000000E+00
  0.00000000E+00  0.00000000E+00  0.00000000E+00
  0.00000000E+00  0.00000000E+00  0.00000000E+00
  0.00000000E+00  0.00000000E+00  0.00000000E+00
  0.00000000E+00  0.00000000E+00  0.00000000E+00
  0.00000000E+00  0.00000000E+00  0.00000000E+00
  0.00000000E+00  0.00000000E+00  0.00000000E+00
  0.00000000E+00  0.00000000E+00  0.00000000E+00
  0.00000000E+00  0.00000000E+00  0.00000000E+00
  0.00000000E+00  0.00000000E+00  0.00000000E+00
  0.00000000E+00  0.00000000E+00  0.00000000E+00
  0.00000000E+00  0.00000000E+00  0.00000000E+00
  0.00000000E+00  0.00000000E+00  0.00000000E+00
  0.00000000E+00  0.00000000E+00  0.00000000E+00
  0.00000000E+00  0.00000000E+00  0.00000000E+00
  0.00000000E+00  0.00000000E+00  0.00000000E+00
  0.00000000E+00  0.00000000E+00  0.00000000E+00
  0.00000000E+00  0.00000000E+00  0.00000000E+00
  0.00000000E+00  0.00000000E+00  0.00000000E+00
  0.00000000E+00  0.00000000E+00  0.00000000E+00
  0.00000000E+00  0.00000000E+00  0.00000000E+00
  0.00000000E+00  0.00000000E+00  0.00000000E+00
  0.00000000E+00  0.00000000E+00  0.00000000E+00
  0.00000000E+00  0.00000000E+00  0.00000000E+00
  0.00000000E+00  0.00000000E+00  0.00000000E+00
  0.00000000E+00  0.00000000E+00  0.00000000E+00
  0.00000000E+00  0.00000000E+00  0.00000000E+00
  0.00000000E+00  0.00000000E+00  0.00000000E+00
  0.00000000E+00  0.00000000E+00  0.00000000E+00
  0.00000000E+00  0.00000000E+00  0.00000000E+00
  0.00000000E+00  0.00000000E+00  0.00000000E+00
  0.00000000E+00  0.00000000E+00  0.00000000E+00
  0.00000000E+00  0.00000000E+00  0.00000000E+00
  0.00000000E+00  0.00000000E+00  0.00000000E+00
  0.00000000E+00  0.00000000E+00  0.00000000E+00
  0.00000000E+00  0.00000000E+00  0.00000000E+00
  0.00000000E+00  0.00000000E+00  0.00000000E+00
  0.00000000E+00  0.00000000E+00  0.00000000E+00
  0.00000000E+00  0.00000000E+00  0.00000000E+00
  0.00000000E+00  0.00000000E+00  0.00000000E+00
  0.00000000E+00  0.00000000E+00  0.00000000E+00
  0.00000000E+00  0.00000000E+00  0.00000000E+00
  0.00000000E+00  0.00000000E+00  0.00000000E+00
  0.00000000E+00  0.00000000E+00  0.00000000E+00
  0.00000000E+00  0.00000000E+00  0.00000000E+00
  0.00000000E+00  0.00000000E+00  0.00000000E+00
