Co H                                    
   1.00000000000000     
    29.0000000000000000    0.0000000000000000    0.0000000000000000
     0.0000000000000000   29.0000000000000000    0.0000000000000000
     0.0000000000000000    0.0000000000000000   29.0000000000000000
   Co   H 
    68     1
Selective dynamics
Direct
  0.5216309944585701  0.4860406858455700  0.6889298522895303   T   T   T
  0.3951678761670260  0.5789633583686482  0.4611417889821540   T   T   T
  0.4031566064943232  0.5431980632278136  0.5297157591298369   T   T   T
  0.5782761563691210  0.4268116521524590  0.4635435472142291   F   F   F
  0.4641638116308826  0.4268116521524590  0.5772364307857742   F   F   F
  0.6400110381411867  0.5433354258137507  0.5098092946190528   T   T   T
  0.4640306611430541  0.4736792245320088  0.4018108929282493   T   T   T
  0.4621757491314238  0.3655434911866648  0.5303428646002523   T   T   T
  0.5795499550490553  0.4733128159578916  0.6382046415982993   T   T   T
  0.4257965935249631  0.4260295519736529  0.6459300755455231   T   T   T
  0.5098628567806168  0.6035162873725890  0.5791374521355086   T   T   T
  0.5800468392728431  0.3576118126584402  0.4259435892297699   T   T   T
  0.4623460541640440  0.6034281753745490  0.5093336465623151   T   T   T
  0.4634987936720369  0.6102965036468792  0.4246626812691499   T   T   T
  0.6400045051050735  0.4949935149458992  0.5795076075503330   T   T   T
  0.6475653418329950  0.5421106428506715  0.4252249935614277   T   T   T
  0.6161976686953180  0.3579425033157747  0.5785960413660484   T   T   T
  0.5212200280000019  0.4252660896114264  0.5203899739999969   F   F   F
  0.4030459507259141  0.4259804558036718  0.5110022131548773   T   T   T
  0.5212200280000019  0.5427717147372562  0.5203899739999969   F   F   F
  0.5212200280000019  0.4841535664240482  0.5783626638499726   F   F   F
  0.4616252662249231  0.5795977324134858  0.6461521375832733   T   T   T
  0.5798513084913353  0.4841330892939268  0.5203899739999969   F   F   F
  0.5312387436870322  0.3652553094939890  0.5789831771485172   T   T   T
  0.3521973613834323  0.4856418286742857  0.5195795236702334   T   T   T
  0.4023781623403541  0.4734365840029655  0.5792367869143129   T   T   T
  0.5230226399545714  0.4848764363336230  0.3510314705634245   T   T   T
  0.3942335207091350  0.4233941186273891  0.4229743159785855   T   T   T
  0.6177090110970419  0.4256906924667500  0.3949853879283489   T   T   T
  0.6399532285130265  0.4736187009725949  0.4620182987313102   T   T   T
  0.4641638116308826  0.4268116521524590  0.4635435472142291   F   F   F
  0.4642268120283362  0.5414337674016210  0.4634884080096526   F   F   F
  0.5782131559716674  0.5414337674016210  0.4634884080096526   F   F   F
  0.5318391740034805  0.6030617301851063  0.4611510961900210   T   T   T
  0.5216281487899026  0.6539624993236186  0.5203535118091545   T   T   T
  0.4253356410565933  0.6103837892079483  0.5774630763440274   T   T   T
  0.6400124369024145  0.4252317610371546  0.5313783747565153   T   T   T
  0.4227259968207719  0.3576409499531950  0.4600458254222510   T   T   T
  0.4272231205865539  0.5419363500342507  0.3936306341413777   T   T   T
  0.4629349460882337  0.3576448172374894  0.6151056244126060   T   T   T
  0.6467847140208883  0.4264073977154359  0.6161971046923133   T   T   T
  0.5782131559716674  0.5414337674016210  0.5772915699903507   F   F   F
  0.5330407834793296  0.4252419130637384  0.4014586421442252   T   T   T
  0.5212200280000019  0.4841535664240482  0.4624173141500307   F   F   F
  0.6472394984476498  0.5797180177792254  0.5775745876082051   T   T   T
  0.5307519602881022  0.5446619114082337  0.6378845778209830   T   T   T
  0.4642268120283362  0.5414337674016210  0.5772915699903507   F   F   F
  0.4617877539652387  0.4949825042714162  0.6385409160001034   T   T   T
  0.5810568457768692  0.4943395976503561  0.4023810027958477   T   T   T
  0.6478473279963916  0.3889003278889808  0.4632067302128942   T   T   T
  0.5782761563691210  0.4268116521524590  0.5772364307857742   F   F   F
  0.3942907847701525  0.5422862252738513  0.6140580929452589   T   T   T
  0.5211316450323217  0.3143239444057654  0.5199228976080548   T   T   T
  0.6158100122247537  0.5430808702754204  0.6471685128259579   T   T   T
  0.3955398710579213  0.3875816068048581  0.5782890497068786   T   T   T
  0.5113699735187727  0.5434270408579703  0.4021753042964444   T   T   T
  0.6165450913445616  0.6105152051974364  0.4622188395709173   T   T   T
  0.5798021859861198  0.5791773299844346  0.3941120302898415   T   T   T
  0.5802561921001353  0.3650229182803558  0.5099431341618518   T   T   T
  0.4625886595086683  0.4841330892939268  0.5203899739999969   F   F   F
  0.5801509458558183  0.6030457763516686  0.5305024202516134   T   T   T
  0.5793150731282367  0.6115276555057559  0.6134623648894422   T   T   T
  0.5109036223066509  0.3655602926516443  0.4610729826043388   T   T   T
  0.4659649419175153  0.3894793395106825  0.3923748135356250   T   T   T
  0.5784639958016907  0.3887310600332006  0.6463388714116085   T   T   T
  0.5104847609678963  0.4258531441439209  0.6388926174359189   T   T   T
  0.6907539067221304  0.4842237366520254  0.5208031087835886   T   T   T
  0.4038205551591668  0.4939659536223010  0.4607998068143571   T   T   T
  0.4038500565916349  0.3657285577716105  0.4009522033635696   T   T   T
 
  0.00000000E+00  0.00000000E+00  0.00000000E+00
  0.00000000E+00  0.00000000E+00  0.00000000E+00
  0.00000000E+00  0.00000000E+00  0.00000000E+00
  0.00000000E+00  0.00000000E+00  0.00000000E+00
  0.00000000E+00  0.00000000E+00  0.00000000E+00
  0.00000000E+00  0.00000000E+00  0.00000000E+00
  0.00000000E+00  0.00000000E+00  0.00000000E+00
  0.00000000E+00  0.00000000E+00  0.00000000E+00
  0.00000000E+00  0.00000000E+00  0.00000000E+00
  0.00000000E+00  0.00000000E+00  0.00000000E+00
  0.00000000E+00  0.00000000E+00  0.00000000E+00
  0.00000000E+00  0.00000000E+00  0.00000000E+00
  0.00000000E+00  0.00000000E+00  0.00000000E+00
  0.00000000E+00  0.00000000E+00  0.00000000E+00
  0.00000000E+00  0.00000000E+00  0.00000000E+00
  0.00000000E+00  0.00000000E+00  0.00000000E+00
  0.00000000E+00  0.00000000E+00  0.00000000E+00
  0.00000000E+00  0.00000000E+00  0.00000000E+00
  0.00000000E+00  0.00000000E+00  0.00000000E+00
  0.00000000E+00  0.00000000E+00  0.00000000E+00
  0.00000000E+00  0.00000000E+00  0.00000000E+00
  0.00000000E+00  0.00000000E+00  0.00000000E+00
  0.00000000E+00  0.00000000E+00  0.00000000E+00
  0.00000000E+00  0.00000000E+00  0.00000000E+00
  0.00000000E+00  0.00000000E+00  0.00000000E+00
  0.00000000E+00  0.00000000E+00  0.00000000E+00
  0.00000000E+00  0.00000000E+00  0.00000000E+00
  0.00000000E+00  0.00000000E+00  0.00000000E+00
  0.00000000E+00  0.00000000E+00  0.00000000E+00
  0.00000000E+00  0.00000000E+00  0.00000000E+00
  0.00000000E+00  0.00000000E+00  0.00000000E+00
  0.00000000E+00  0.00000000E+00  0.00000000E+00
  0.00000000E+00  0.00000000E+00  0.00000000E+00
  0.00000000E+00  0.00000000E+00  0.00000000E+00
  0.00000000E+00  0.00000000E+00  0.00000000E+00
  0.00000000E+00  0.00000000E+00  0.00000000E+00
  0.00000000E+00  0.00000000E+00  0.00000000E+00
  0.00000000E+00  0.00000000E+00  0.00000000E+00
  0.00000000E+00  0.00000000E+00  0.00000000E+00
  0.00000000E+00  0.00000000E+00  0.00000000E+00
  0.00000000E+00  0.00000000E+00  0.00000000E+00
  0.00000000E+00  0.00000000E+00  0.00000000E+00
  0.00000000E+00  0.00000000E+00  0.00000000E+00
  0.00000000E+00  0.00000000E+00  0.00000000E+00
  0.00000000E+00  0.00000000E+00  0.00000000E+00
  0.00000000E+00  0.00000000E+00  0.00000000E+00
  0.00000000E+00  0.00000000E+00  0.00000000E+00
  0.00000000E+00  0.00000000E+00  0.00000000E+00
  0.00000000E+00  0.00000000E+00  0.00000000E+00
  0.00000000E+00  0.00000000E+00  0.00000000E+00
  0.00000000E+00  0.00000000E+00  0.00000000E+00
  0.00000000E+00  0.00000000E+00  0.00000000E+00
  0.00000000E+00  0.00000000E+00  0.00000000E+00
  0.00000000E+00  0.00000000E+00  0.00000000E+00
  0.00000000E+00  0.00000000E+00  0.00000000E+00
  0.00000000E+00  0.00000000E+00  0.00000000E+00
  0.00000000E+00  0.00000000E+00  0.00000000E+00
  0.00000000E+00  0.00000000E+00  0.00000000E+00
  0.00000000E+00  0.00000000E+00  0.00000000E+00
  0.00000000E+00  0.00000000E+00  0.00000000E+00
  0.00000000E+00  0.00000000E+00  0.00000000E+00
  0.00000000E+00  0.00000000E+00  0.00000000E+00
  0.00000000E+00  0.00000000E+00  0.00000000E+00
  0.00000000E+00  0.00000000E+00  0.00000000E+00
  0.00000000E+00  0.00000000E+00  0.00000000E+00
  0.00000000E+00  0.00000000E+00  0.00000000E+00
  0.00000000E+00  0.00000000E+00  0.00000000E+00
  0.00000000E+00  0.00000000E+00  0.00000000E+00
  0.00000000E+00  0.00000000E+00  0.00000000E+00
