Co H                                    
   1.00000000000000     
    29.0000000000000000    0.0000000000000000    0.0000000000000000
     0.0000000000000000   29.0000000000000000    0.0000000000000000
     0.0000000000000000    0.0000000000000000   29.0000000000000000
   Co   H 
    68     1
Selective dynamics
Direct
  0.5146984663924813  0.4819463712038324  0.6825546600009809   T   T   T
  0.3935461124394330  0.5774924431170740  0.4570643578813585   T   T   T
  0.4025074792689826  0.5468094597858548  0.5276751687820282   T   T   T
  0.5782761563691210  0.4268116521524590  0.4635435472142291   F   F   F
  0.4641638116308826  0.4268116521524590  0.5772364307857742   F   F   F
  0.6367516745279931  0.5442749160873033  0.5121585496473056   T   T   T
  0.4628075702214509  0.4728237724650264  0.4009211144905284   T   T   T
  0.4660309843426046  0.3670832950203506  0.5209804075398662   T   T   T
  0.5843868091621797  0.4788368023365034  0.6376061001315027   T   T   T
  0.3936930399258330  0.4280549114577706  0.6208729035801184   T   T   T
  0.5091234728171773  0.6033358710437369  0.5798964254385283   T   T   T
  0.5876187282957990  0.3533589872184742  0.4366632271406816   T   T   T
  0.4612641704188620  0.6040663751123584  0.5100141335150420   T   T   T
  0.4646399284205875  0.6104837104703704  0.4225694763458891   T   T   T
  0.6399488975208728  0.4951671584448084  0.5815287846384100   T   T   T
  0.6487567750314887  0.5455695421119652  0.4283919521760032   T   T   T
  0.6465546542691771  0.3600997924136605  0.5508832862458638   T   T   T
  0.5212200280000019  0.4252660896114264  0.5203899739999969   F   F   F
  0.4046097409487432  0.4184936552837272  0.5179528712937234   T   T   T
  0.5212200280000019  0.5427717147372562  0.5203899739999969   F   F   F
  0.5212200280000019  0.4841535664240482  0.5783626638499726   F   F   F
  0.4598305984827168  0.5728977497496761  0.6488006661245426   T   T   T
  0.5798513084913353  0.4841330892939268  0.5203899739999969   F   F   F
  0.5150496804452859  0.3657809249552537  0.5826951646784978   T   T   T
  0.3509562715239317  0.4821575085631571  0.5084106333397989   T   T   T
  0.3999809530019684  0.4796531579792226  0.5676332043064114   T   T   T
  0.5218180173841384  0.4839135330923029  0.3505788473861734   T   T   T
  0.3917689680145500  0.4209074582503008  0.4348123367568435   T   T   T
  0.6165005527420272  0.4231051893041705  0.3956583611011515   T   T   T
  0.6393497481792236  0.4756552676117234  0.4590424932983744   T   T   T
  0.4641638116308826  0.4268116521524590  0.4635435472142291   F   F   F
  0.4642268120283362  0.5414337674016210  0.4634884080096526   F   F   F
  0.5782131559716674  0.5414337674016210  0.4634884080096526   F   F   F
  0.5310990539651065  0.6024989179357229  0.4617358988563348   T   T   T
  0.5218192195950399  0.6539608154088870  0.5209412203126372   T   T   T
  0.4255925025544841  0.6092037058109050  0.5812215523144180   T   T   T
  0.6425512283971614  0.4333909841089719  0.5292154553386027   T   T   T
  0.4309597499309352  0.3533158630440431  0.4544452039551536   T   T   T
  0.4289286557126741  0.5413727653876013  0.3918750507157781   T   T   T
  0.4602128796840981  0.4019515048717288  0.6518749560222061   T   T   T
  0.6451456013343074  0.4214911259205208  0.6124175445468737   T   T   T
  0.5782131559716674  0.5414337674016210  0.5772915699903507   F   F   F
  0.5336276153659306  0.4250322276806706  0.4004384817463674   T   T   T
  0.5212200280000019  0.4841535664240482  0.4624173141500307   F   F   F
  0.6471259351000054  0.5807622367122456  0.5794499489223846   T   T   T
  0.5289491866860054  0.5431108700924212  0.6372538892924380   T   T   T
  0.4642268120283362  0.5414337674016210  0.5772915699903507   F   F   F
  0.4553187364114757  0.4850280957683181  0.6340674407866375   T   T   T
  0.5816630088499719  0.4940851522117272  0.4024400277337277   T   T   T
  0.6524696082987819  0.3906643430542029  0.4655706925595096   T   T   T
  0.5782761563691210  0.4268116521524590  0.5772364307857742   F   F   F
  0.3937979214021919  0.5403214828278656  0.6150506688290571   T   T   T
  0.5265475505972652  0.3142314108803114  0.5167846672714671   T   T   T
  0.6137385864129966  0.5494560417762673  0.6478139066650220   T   T   T
  0.4256426480730121  0.3607556983921165  0.5868109712556460   T   T   T
  0.5123088322027103  0.5418528318115274  0.4022302774500573   T   T   T
  0.6149471684331625  0.6120551538794690  0.4628300753071082   T   T   T
  0.5796904298704374  0.5794441594310182  0.3947154346750854   T   T   T
  0.5786083369139536  0.3670448125445676  0.5201956275367688   T   T   T
  0.4625886595086683  0.4841330892939268  0.5203899739999969   F   F   F
  0.5797870904890038  0.6035273713955709  0.5313631437328029   T   T   T
  0.5776508000708513  0.6127746060302764  0.6138272967058669   T   T   T
  0.5148927073049625  0.3677922743352507  0.4551587449583416   T   T   T
  0.4625106131837594  0.3922428024270194  0.3921032506858185   T   T   T
  0.5876400516635437  0.3582432571985397  0.6089386499350550   T   T   T
  0.5317829979207659  0.4205731046123484  0.6379202255328619   T   T   T
  0.6940810187131845  0.4911959738250221  0.5189218090886754   T   T   T
  0.4064369339273594  0.4920228063063770  0.4597336092335121   T   T   T
  0.4259061530832968  0.6303586822019712  0.4703528877745541   T   T   T
 
  0.00000000E+00  0.00000000E+00  0.00000000E+00
  0.00000000E+00  0.00000000E+00  0.00000000E+00
  0.00000000E+00  0.00000000E+00  0.00000000E+00
  0.00000000E+00  0.00000000E+00  0.00000000E+00
  0.00000000E+00  0.00000000E+00  0.00000000E+00
  0.00000000E+00  0.00000000E+00  0.00000000E+00
  0.00000000E+00  0.00000000E+00  0.00000000E+00
  0.00000000E+00  0.00000000E+00  0.00000000E+00
  0.00000000E+00  0.00000000E+00  0.00000000E+00
  0.00000000E+00  0.00000000E+00  0.00000000E+00
  0.00000000E+00  0.00000000E+00  0.00000000E+00
  0.00000000E+00  0.00000000E+00  0.00000000E+00
  0.00000000E+00  0.00000000E+00  0.00000000E+00
  0.00000000E+00  0.00000000E+00  0.00000000E+00
  0.00000000E+00  0.00000000E+00  0.00000000E+00
  0.00000000E+00  0.00000000E+00  0.00000000E+00
  0.00000000E+00  0.00000000E+00  0.00000000E+00
  0.00000000E+00  0.00000000E+00  0.00000000E+00
  0.00000000E+00  0.00000000E+00  0.00000000E+00
  0.00000000E+00  0.00000000E+00  0.00000000E+00
  0.00000000E+00  0.00000000E+00  0.00000000E+00
  0.00000000E+00  0.00000000E+00  0.00000000E+00
  0.00000000E+00  0.00000000E+00  0.00000000E+00
  0.00000000E+00  0.00000000E+00  0.00000000E+00
  0.00000000E+00  0.00000000E+00  0.00000000E+00
  0.00000000E+00  0.00000000E+00  0.00000000E+00
  0.00000000E+00  0.00000000E+00  0.00000000E+00
  0.00000000E+00  0.00000000E+00  0.00000000E+00
  0.00000000E+00  0.00000000E+00  0.00000000E+00
  0.00000000E+00  0.00000000E+00  0.00000000E+00
  0.00000000E+00  0.00000000E+00  0.00000000E+00
  0.00000000E+00  0.00000000E+00  0.00000000E+00
  0.00000000E+00  0.00000000E+00  0.00000000E+00
  0.00000000E+00  0.00000000E+00  0.00000000E+00
  0.00000000E+00  0.00000000E+00  0.00000000E+00
  0.00000000E+00  0.00000000E+00  0.00000000E+00
  0.00000000E+00  0.00000000E+00  0.00000000E+00
  0.00000000E+00  0.00000000E+00  0.00000000E+00
  0.00000000E+00  0.00000000E+00  0.00000000E+00
  0.00000000E+00  0.00000000E+00  0.00000000E+00
  0.00000000E+00  0.00000000E+00  0.00000000E+00
  0.00000000E+00  0.00000000E+00  0.00000000E+00
  0.00000000E+00  0.00000000E+00  0.00000000E+00
  0.00000000E+00  0.00000000E+00  0.00000000E+00
  0.00000000E+00  0.00000000E+00  0.00000000E+00
  0.00000000E+00  0.00000000E+00  0.00000000E+00
  0.00000000E+00  0.00000000E+00  0.00000000E+00
  0.00000000E+00  0.00000000E+00  0.00000000E+00
  0.00000000E+00  0.00000000E+00  0.00000000E+00
  0.00000000E+00  0.00000000E+00  0.00000000E+00
  0.00000000E+00  0.00000000E+00  0.00000000E+00
  0.00000000E+00  0.00000000E+00  0.00000000E+00
  0.00000000E+00  0.00000000E+00  0.00000000E+00
  0.00000000E+00  0.00000000E+00  0.00000000E+00
  0.00000000E+00  0.00000000E+00  0.00000000E+00
  0.00000000E+00  0.00000000E+00  0.00000000E+00
  0.00000000E+00  0.00000000E+00  0.00000000E+00
  0.00000000E+00  0.00000000E+00  0.00000000E+00
  0.00000000E+00  0.00000000E+00  0.00000000E+00
  0.00000000E+00  0.00000000E+00  0.00000000E+00
  0.00000000E+00  0.00000000E+00  0.00000000E+00
  0.00000000E+00  0.00000000E+00  0.00000000E+00
  0.00000000E+00  0.00000000E+00  0.00000000E+00
  0.00000000E+00  0.00000000E+00  0.00000000E+00
  0.00000000E+00  0.00000000E+00  0.00000000E+00
  0.00000000E+00  0.00000000E+00  0.00000000E+00
  0.00000000E+00  0.00000000E+00  0.00000000E+00
  0.00000000E+00  0.00000000E+00  0.00000000E+00
  0.00000000E+00  0.00000000E+00  0.00000000E+00
