Co H                                    
   1.00000000000000     
    29.0000000000000000    0.0000000000000000    0.0000000000000000
     0.0000000000000000   29.0000000000000000    0.0000000000000000
     0.0000000000000000    0.0000000000000000   29.0000000000000000
   Co   H 
    68     1
Selective dynamics
Direct
  0.5201771137764832  0.4843332508109706  0.6885646035077000   T   T   T
  0.4306565358271609  0.6134886347582313  0.4632438383447681   T   T   T
  0.4036873213273379  0.5449981738113041  0.5104242466942800   T   T   T
  0.5782761563691210  0.4268116521524590  0.4635435472142291   F   F   F
  0.4641638116308826  0.4268116521524590  0.5772364307857742   F   F   F
  0.6397750313480040  0.5434767177929201  0.5305444833060425   T   T   T
  0.4616817114997805  0.4956454267372543  0.4010203190143803   T   T   T
  0.4622027206285089  0.3653779476239769  0.5102497753155451   T   T   T
  0.5790517916813719  0.4943648539778994  0.6405812272444874   T   T   T
  0.3947400169712519  0.4271292410730473  0.6150274469368086   T   T   T
  0.5308172780783720  0.6030738119141342  0.5784623680364134   T   T   T
  0.5792729327618477  0.3890456297470333  0.3941987026783989   T   T   T
  0.4603216314379463  0.6038058773485036  0.5344436646846535   T   T   T
  0.4650133464661290  0.5815727811987991  0.3950121231676207   T   T   T
  0.6384798424398086  0.4745697206792625  0.5795124433969965   T   T   T
  0.6170064642841425  0.5419198419728524  0.3947969678997856   T   T   T
  0.6486336863669057  0.3911989008069633  0.5793293030156518   T   T   T
  0.5212200280000019  0.4252660896114264  0.5203899739999969   F   F   F
  0.4024832648793354  0.4263227902403874  0.5303173529690782   T   T   T
  0.5212200280000019  0.5427717147372562  0.5203899739999969   F   F   F
  0.5212200280000019  0.4841535664240482  0.5783626638499726   F   F   F
  0.4610915001690520  0.6079587983774809  0.6214453115389894   T   T   T
  0.5798513084913353  0.4841330892939268  0.5203899739999969   F   F   F
  0.5104657623479857  0.3648604792900756  0.5794703372902560   T   T   T
  0.3525014158602948  0.4865901236878514  0.5208580314819256   T   T   T
  0.4025773282758827  0.4952837078679956  0.5795325778082893   T   T   T
  0.5224947219600045  0.4828722763554508  0.3512528295216055   T   T   T
  0.4272513253542924  0.4240781461116135  0.3935008375981933   T   T   T
  0.6479488338516317  0.4253182074227661  0.4265106093492511   T   T   T
  0.6392073625981860  0.4943960179347337  0.4622942156603619   T   T   T
  0.4641638116308826  0.4268116521524590  0.4635435472142291   F   F   F
  0.4642268120283362  0.5414337674016210  0.4634884080096526   F   F   F
  0.5782131559716674  0.5414337674016210  0.4634884080096526   F   F   F
  0.5116864895159415  0.6010817642443210  0.4613142380949644   T   T   T
  0.5194342709960187  0.6551335456713431  0.5174904379160403   T   T   T
  0.3937767037057908  0.5772709503140165  0.5802442477784580   T   T   T
  0.6387116854534303  0.4238419892564049  0.5105745130799089   T   T   T
  0.3961370960323333  0.3875564719873734  0.4631972865246492   T   T   T
  0.3949044824303981  0.5458082708069826  0.4267309833658641   T   T   T
  0.4617900157393949  0.3888652090952048  0.6459957783936493   T   T   T
  0.6161478649676171  0.4302614661885286  0.6482219929980082   T   T   T
  0.5782131559716674  0.5414337674016210  0.5772915699903507   F   F   F
  0.5112013764319094  0.4255218369354326  0.4028418111503257   T   T   T
  0.5212200280000019  0.4841535664240482  0.4624173141500307   F   F   F
  0.6175261958697297  0.6107018152190343  0.5779090067429586   T   T   T
  0.5132694972562823  0.5450405211582418  0.6363500259418094   T   T   T
  0.4642268120283362  0.5414337674016210  0.5772915699903507   F   F   F
  0.4633994389387499  0.4748413363541952  0.6385755177810943   T   T   T
  0.5814415993766066  0.4733209992693637  0.4023827922390276   T   T   T
  0.6157598801584228  0.3571046211833567  0.4623937006221357   T   T   T
  0.5782761563691210  0.4268116521524590  0.5772364307857742   F   F   F
  0.4286788319351427  0.5417329166513325  0.6497171954613141   T   T   T
  0.5213116479466450  0.3141689376848749  0.5198868685981772   T   T   T
  0.6474582762122565  0.5427314969692318  0.6145751775094711   T   T   T
  0.4250536479750625  0.3588528592071876  0.5781463358644692   T   T   T
  0.5317407174570661  0.5418554955811455  0.4018854814395912   T   T   T
  0.6474302493763070  0.5793867931103471  0.4620419529813292   T   T   T
  0.5793127105465655  0.6102263053469694  0.4253173030050930   T   T   T
  0.5803461873256959  0.3650550819319502  0.5314787829293910   T   T   T
  0.4625886595086683  0.4841330892939268  0.5203899739999969   F   F   F
  0.5804097409686261  0.6015733894537075  0.5110622459484722   T   T   T
  0.5802610269991330  0.5821017051389091  0.6447311966943571   T   T   T
  0.5317573278029381  0.3652307191987102  0.4616524347273581   T   T   T
  0.4638365386410300  0.3568219017605767  0.4257212783565602   T   T   T
  0.5804160803764382  0.3583263532975340  0.6145308544921093   T   T   T
  0.5308685301830726  0.4223819679508489  0.6371660273448632   T   T   T
  0.6921215925146574  0.4819979040431321  0.5217654310939301   T   T   T
  0.4026287659628225  0.4743991822427017  0.4611977534541656   T   T   T
  0.4013199169481695  0.4852043236106763  0.4004151095495803   T   T   T
 
  0.00000000E+00  0.00000000E+00  0.00000000E+00
  0.00000000E+00  0.00000000E+00  0.00000000E+00
  0.00000000E+00  0.00000000E+00  0.00000000E+00
  0.00000000E+00  0.00000000E+00  0.00000000E+00
  0.00000000E+00  0.00000000E+00  0.00000000E+00
  0.00000000E+00  0.00000000E+00  0.00000000E+00
  0.00000000E+00  0.00000000E+00  0.00000000E+00
  0.00000000E+00  0.00000000E+00  0.00000000E+00
  0.00000000E+00  0.00000000E+00  0.00000000E+00
  0.00000000E+00  0.00000000E+00  0.00000000E+00
  0.00000000E+00  0.00000000E+00  0.00000000E+00
  0.00000000E+00  0.00000000E+00  0.00000000E+00
  0.00000000E+00  0.00000000E+00  0.00000000E+00
  0.00000000E+00  0.00000000E+00  0.00000000E+00
  0.00000000E+00  0.00000000E+00  0.00000000E+00
  0.00000000E+00  0.00000000E+00  0.00000000E+00
  0.00000000E+00  0.00000000E+00  0.00000000E+00
  0.00000000E+00  0.00000000E+00  0.00000000E+00
  0.00000000E+00  0.00000000E+00  0.00000000E+00
  0.00000000E+00  0.00000000E+00  0.00000000E+00
  0.00000000E+00  0.00000000E+00  0.00000000E+00
  0.00000000E+00  0.00000000E+00  0.00000000E+00
  0.00000000E+00  0.00000000E+00  0.00000000E+00
  0.00000000E+00  0.00000000E+00  0.00000000E+00
  0.00000000E+00  0.00000000E+00  0.00000000E+00
  0.00000000E+00  0.00000000E+00  0.00000000E+00
  0.00000000E+00  0.00000000E+00  0.00000000E+00
  0.00000000E+00  0.00000000E+00  0.00000000E+00
  0.00000000E+00  0.00000000E+00  0.00000000E+00
  0.00000000E+00  0.00000000E+00  0.00000000E+00
  0.00000000E+00  0.00000000E+00  0.00000000E+00
  0.00000000E+00  0.00000000E+00  0.00000000E+00
  0.00000000E+00  0.00000000E+00  0.00000000E+00
  0.00000000E+00  0.00000000E+00  0.00000000E+00
  0.00000000E+00  0.00000000E+00  0.00000000E+00
  0.00000000E+00  0.00000000E+00  0.00000000E+00
  0.00000000E+00  0.00000000E+00  0.00000000E+00
  0.00000000E+00  0.00000000E+00  0.00000000E+00
  0.00000000E+00  0.00000000E+00  0.00000000E+00
  0.00000000E+00  0.00000000E+00  0.00000000E+00
  0.00000000E+00  0.00000000E+00  0.00000000E+00
  0.00000000E+00  0.00000000E+00  0.00000000E+00
  0.00000000E+00  0.00000000E+00  0.00000000E+00
  0.00000000E+00  0.00000000E+00  0.00000000E+00
  0.00000000E+00  0.00000000E+00  0.00000000E+00
  0.00000000E+00  0.00000000E+00  0.00000000E+00
  0.00000000E+00  0.00000000E+00  0.00000000E+00
  0.00000000E+00  0.00000000E+00  0.00000000E+00
  0.00000000E+00  0.00000000E+00  0.00000000E+00
  0.00000000E+00  0.00000000E+00  0.00000000E+00
  0.00000000E+00  0.00000000E+00  0.00000000E+00
  0.00000000E+00  0.00000000E+00  0.00000000E+00
  0.00000000E+00  0.00000000E+00  0.00000000E+00
  0.00000000E+00  0.00000000E+00  0.00000000E+00
  0.00000000E+00  0.00000000E+00  0.00000000E+00
  0.00000000E+00  0.00000000E+00  0.00000000E+00
  0.00000000E+00  0.00000000E+00  0.00000000E+00
  0.00000000E+00  0.00000000E+00  0.00000000E+00
  0.00000000E+00  0.00000000E+00  0.00000000E+00
  0.00000000E+00  0.00000000E+00  0.00000000E+00
  0.00000000E+00  0.00000000E+00  0.00000000E+00
  0.00000000E+00  0.00000000E+00  0.00000000E+00
  0.00000000E+00  0.00000000E+00  0.00000000E+00
  0.00000000E+00  0.00000000E+00  0.00000000E+00
  0.00000000E+00  0.00000000E+00  0.00000000E+00
  0.00000000E+00  0.00000000E+00  0.00000000E+00
  0.00000000E+00  0.00000000E+00  0.00000000E+00
  0.00000000E+00  0.00000000E+00  0.00000000E+00
  0.00000000E+00  0.00000000E+00  0.00000000E+00
