Co H                                    
   1.00000000000000     
    29.0000000000000000    0.0000000000000000    0.0000000000000000
     0.0000000000000000   29.0000000000000000    0.0000000000000000
     0.0000000000000000    0.0000000000000000   29.0000000000000000
   Co   H 
    68     1
Selective dynamics
Direct
  0.5212309591942186  0.4845308898025960  0.6894089129219514   T   T   T
  0.4260731749422232  0.6106153998581424  0.4625940339296050   T   T   T
  0.4028631536161263  0.5437016733459887  0.5103795923266987   T   T   T
  0.5782761563691210  0.4268116521524590  0.4635435472142291   F   F   F
  0.4641638116308826  0.4268116521524590  0.5772364307857742   F   F   F
  0.6399282295578935  0.5431927164529855  0.5306558904205695   T   T   T
  0.4621729967020301  0.4948686217138645  0.4020692802365598   T   T   T
  0.4617312005435397  0.3650244096904440  0.5099642164020688   T   T   T
  0.5804597303539880  0.4944684381028742  0.6385764538389913   T   T   T
  0.3949911186403553  0.4266513550079794  0.6153563515542440   T   T   T
  0.5319793742856016  0.6031595350861233  0.5794342459323343   T   T   T
  0.5785678191471773  0.3892155551398849  0.3938196763580751   T   T   T
  0.4623879187467244  0.6032432930404896  0.5311666154111568   T   T   T
  0.4631165461456105  0.5797376666294831  0.3945507670860938   T   T   T
  0.6400115610512321  0.4732886265457398  0.5790672933406918   T   T   T
  0.6165604822545865  0.5422315271672539  0.3943692775420435   T   T   T
  0.6479231341012499  0.3893280034009178  0.5779588421233484   T   T   T
  0.5212200280000019  0.4252660896114264  0.5203899739999969   F   F   F
  0.4026206147861702  0.4251458455546379  0.5306853229418274   T   T   T
  0.5212200280000019  0.5427717147372562  0.5203899739999969   F   F   F
  0.5212200280000019  0.4841535664240482  0.5783626638499726   F   F   F
  0.4637188943447018  0.6104799367465440  0.6159076300957113   T   T   T
  0.5798513084913353  0.4841330892939268  0.5203899739999969   F   F   F
  0.5107186535513040  0.3652203958139075  0.5798287409444534   T   T   T
  0.3521414140531899  0.4843822978294947  0.5204397857645686   T   T   T
  0.4024651460426083  0.4950569979291726  0.5796010573663777   T   T   T
  0.5209582500331122  0.4841485604529209  0.3511576550398460   T   T   T
  0.4259172977063900  0.4265012278715284  0.3942399406504954   T   T   T
  0.6469411651071445  0.4264835146767585  0.4241855412751160   T   T   T
  0.6398336849110147  0.4946783551458745  0.4611007269899696   T   T   T
  0.4641638116308826  0.4268116521524590  0.4635435472142291   F   F   F
  0.4642268120283362  0.5414337674016210  0.4634884080096526   F   F   F
  0.5782131559716674  0.5414337674016210  0.4634884080096526   F   F   F
  0.5108891760894185  0.6030298761915067  0.4615450201614008   T   T   T
  0.5216019843203854  0.6539184790833078  0.5205338703906057   T   T   T
  0.3953931994137246  0.5799227132230089  0.5788943920558700   T   T   T
  0.6406135173027803  0.4251866493407545  0.5089807223895301   T   T   T
  0.3947420647221326  0.3894240513741900  0.4620218857836496   T   T   T
  0.3951220051146860  0.5427249576626584  0.4253926565180419   T   T   T
  0.4627639618882250  0.3900553017211667  0.6470551724159160   T   T   T
  0.6163435099109126  0.4254180276301714  0.6460173830312091   T   T   T
  0.5782131559716674  0.5414337674016210  0.5772915699903507   F   F   F
  0.5103942150183467  0.4252288099131580  0.4016562769712204   T   T   T
  0.5212200280000019  0.4841535664240482  0.4624173141500307   F   F   F
  0.6171567102067878  0.6100934658036001  0.5783139462764380   T   T   T
  0.5112436905641448  0.5433081386532967  0.6385513085947365   T   T   T
  0.4642268120283362  0.5414337674016210  0.5772915699903507   F   F   F
  0.4623274056481996  0.4739057417339747  0.6386349783105534   T   T   T
  0.5799054519407352  0.4740888327164318  0.4019663796435596   T   T   T
  0.6165878790783819  0.3578573498399819  0.4606431819229363   T   T   T
  0.5782761563691210  0.4268116521524590  0.5772364307857742   F   F   F
  0.4266270355770395  0.5425711860688808  0.6466755177774047   T   T   T
  0.5222533626017090  0.3152870011813730  0.5209022229833604   T   T   T
  0.6477425406676168  0.5417924630036356  0.6151335978317131   T   T   T
  0.4259694733829757  0.3581511729248544  0.5790167210263424   T   T   T
  0.5315849687505066  0.5434966224967900  0.4018748149706029   T   T   T
  0.6474117895652644  0.5795767125056752  0.4622422728690876   T   T   T
  0.5794735708598816  0.6104435764457875  0.4252368281147805   T   T   T
  0.5813836952477295  0.3668522255986404  0.5289162866136982   T   T   T
  0.4625886595086683  0.4841330892939268  0.5203899739999969   F   F   F
  0.5804553041014744  0.6030253171986085  0.5099910050773659   T   T   T
  0.5799733143157925  0.5791973395972243  0.6463953142638260   T   T   T
  0.5312033299639594  0.3650867047347368  0.4610544442035940   T   T   T
  0.4626458937629838  0.3580636048075144  0.4250067854641780   T   T   T
  0.5801968140663186  0.3556944165020140  0.6136675839831370   T   T   T
  0.5317938135217121  0.4254885894312400  0.6388439499824922   T   T   T
  0.6907975042299409  0.4843860597816190  0.5200640520362355   T   T   T
  0.4027139570913495  0.4740655961166366  0.4613207879839374   T   T   T
  0.5395436790239642  0.3145492951376628  0.5835252989136983   T   T   T
 
  0.00000000E+00  0.00000000E+00  0.00000000E+00
  0.00000000E+00  0.00000000E+00  0.00000000E+00
  0.00000000E+00  0.00000000E+00  0.00000000E+00
  0.00000000E+00  0.00000000E+00  0.00000000E+00
  0.00000000E+00  0.00000000E+00  0.00000000E+00
  0.00000000E+00  0.00000000E+00  0.00000000E+00
  0.00000000E+00  0.00000000E+00  0.00000000E+00
  0.00000000E+00  0.00000000E+00  0.00000000E+00
  0.00000000E+00  0.00000000E+00  0.00000000E+00
  0.00000000E+00  0.00000000E+00  0.00000000E+00
  0.00000000E+00  0.00000000E+00  0.00000000E+00
  0.00000000E+00  0.00000000E+00  0.00000000E+00
  0.00000000E+00  0.00000000E+00  0.00000000E+00
  0.00000000E+00  0.00000000E+00  0.00000000E+00
  0.00000000E+00  0.00000000E+00  0.00000000E+00
  0.00000000E+00  0.00000000E+00  0.00000000E+00
  0.00000000E+00  0.00000000E+00  0.00000000E+00
  0.00000000E+00  0.00000000E+00  0.00000000E+00
  0.00000000E+00  0.00000000E+00  0.00000000E+00
  0.00000000E+00  0.00000000E+00  0.00000000E+00
  0.00000000E+00  0.00000000E+00  0.00000000E+00
  0.00000000E+00  0.00000000E+00  0.00000000E+00
  0.00000000E+00  0.00000000E+00  0.00000000E+00
  0.00000000E+00  0.00000000E+00  0.00000000E+00
  0.00000000E+00  0.00000000E+00  0.00000000E+00
  0.00000000E+00  0.00000000E+00  0.00000000E+00
  0.00000000E+00  0.00000000E+00  0.00000000E+00
  0.00000000E+00  0.00000000E+00  0.00000000E+00
  0.00000000E+00  0.00000000E+00  0.00000000E+00
  0.00000000E+00  0.00000000E+00  0.00000000E+00
  0.00000000E+00  0.00000000E+00  0.00000000E+00
  0.00000000E+00  0.00000000E+00  0.00000000E+00
  0.00000000E+00  0.00000000E+00  0.00000000E+00
  0.00000000E+00  0.00000000E+00  0.00000000E+00
  0.00000000E+00  0.00000000E+00  0.00000000E+00
  0.00000000E+00  0.00000000E+00  0.00000000E+00
  0.00000000E+00  0.00000000E+00  0.00000000E+00
  0.00000000E+00  0.00000000E+00  0.00000000E+00
  0.00000000E+00  0.00000000E+00  0.00000000E+00
  0.00000000E+00  0.00000000E+00  0.00000000E+00
  0.00000000E+00  0.00000000E+00  0.00000000E+00
  0.00000000E+00  0.00000000E+00  0.00000000E+00
  0.00000000E+00  0.00000000E+00  0.00000000E+00
  0.00000000E+00  0.00000000E+00  0.00000000E+00
  0.00000000E+00  0.00000000E+00  0.00000000E+00
  0.00000000E+00  0.00000000E+00  0.00000000E+00
  0.00000000E+00  0.00000000E+00  0.00000000E+00
  0.00000000E+00  0.00000000E+00  0.00000000E+00
  0.00000000E+00  0.00000000E+00  0.00000000E+00
  0.00000000E+00  0.00000000E+00  0.00000000E+00
  0.00000000E+00  0.00000000E+00  0.00000000E+00
  0.00000000E+00  0.00000000E+00  0.00000000E+00
  0.00000000E+00  0.00000000E+00  0.00000000E+00
  0.00000000E+00  0.00000000E+00  0.00000000E+00
  0.00000000E+00  0.00000000E+00  0.00000000E+00
  0.00000000E+00  0.00000000E+00  0.00000000E+00
  0.00000000E+00  0.00000000E+00  0.00000000E+00
  0.00000000E+00  0.00000000E+00  0.00000000E+00
  0.00000000E+00  0.00000000E+00  0.00000000E+00
  0.00000000E+00  0.00000000E+00  0.00000000E+00
  0.00000000E+00  0.00000000E+00  0.00000000E+00
  0.00000000E+00  0.00000000E+00  0.00000000E+00
  0.00000000E+00  0.00000000E+00  0.00000000E+00
  0.00000000E+00  0.00000000E+00  0.00000000E+00
  0.00000000E+00  0.00000000E+00  0.00000000E+00
  0.00000000E+00  0.00000000E+00  0.00000000E+00
  0.00000000E+00  0.00000000E+00  0.00000000E+00
  0.00000000E+00  0.00000000E+00  0.00000000E+00
  0.00000000E+00  0.00000000E+00  0.00000000E+00
