Co H                                    
   1.00000000000000     
    29.0000000000000000    0.0000000000000000    0.0000000000000000
     0.0000000000000000   29.0000000000000000    0.0000000000000000
     0.0000000000000000    0.0000000000000000   29.0000000000000000
   Co   H 
    68     1
Selective dynamics
Direct
  0.5198408466933854  0.4837559471635233  0.6896917976860865   T   T   T
  0.4257702057542417  0.6102545800185813  0.4622602530290250   T   T   T
  0.4026834492810349  0.5434581602678132  0.5101390880328920   T   T   T
  0.5782761563691210  0.4268116521524590  0.4635435472142291   F   F   F
  0.4641638116308826  0.4268116521524590  0.5772364307857742   F   F   F
  0.6396545891395136  0.5435814199922615  0.5302476547795334   T   T   T
  0.4622369223314474  0.4946149512324330  0.4019372223100124   T   T   T
  0.4620012451450826  0.3650567374859395  0.5099999616222702   T   T   T
  0.5802391109229572  0.4948664777295969  0.6397485021894866   T   T   T
  0.3955200153166177  0.4259206037631530  0.6156716289402194   T   T   T
  0.5317115651815213  0.6033641218967601  0.5788547931476424   T   T   T
  0.5790219002830955  0.3889533905192124  0.3942344727716914   T   T   T
  0.4619755120875492  0.6033115573053511  0.5309159234416719   T   T   T
  0.4629535308540386  0.5793999152358992  0.3942143330361365   T   T   T
  0.6396833775018780  0.4732858046896177  0.5787468519711628   T   T   T
  0.6164913321086296  0.5421880340576348  0.3944452120840841   T   T   T
  0.6471322113671401  0.3883217891348609  0.5777787542220306   T   T   T
  0.5212200280000019  0.4252660896114264  0.5203899739999969   F   F   F
  0.4026191337610066  0.4250861736448748  0.5306995180367774   T   T   T
  0.5212200280000019  0.5427717147372562  0.5203899739999969   F   F   F
  0.5212200280000019  0.4841535664240482  0.5783626638499726   F   F   F
  0.4633123307323868  0.6105138659754014  0.6155688862322155   T   T   T
  0.5798513084913353  0.4841330892939268  0.5203899739999969   F   F   F
  0.5108240054905016  0.3651510282590961  0.5794897767780450   T   T   T
  0.3519449856788756  0.4843366197342917  0.5203534004422254   T   T   T
  0.4025608715786202  0.4946431890913003  0.5794123033786285   T   T   T
  0.5212017868803432  0.4840430974791129  0.3511616256381884   T   T   T
  0.4259088021376510  0.4261469304465212  0.3943659409751086   T   T   T
  0.6470897682896138  0.4261934701696259  0.4249100426910062   T   T   T
  0.6400249489030734  0.4947579475273485  0.4613823036050017   T   T   T
  0.4641638116308826  0.4268116521524590  0.4635435472142291   F   F   F
  0.4642268120283362  0.5414337674016210  0.4634884080096526   F   F   F
  0.5782131559716674  0.5414337674016210  0.4634884080096526   F   F   F
  0.5105632504801232  0.6029276275733048  0.4612988242677318   T   T   T
  0.5208439641757793  0.6541197231488883  0.5200106174773177   T   T   T
  0.3952789927802533  0.5799486920050184  0.5785357276081038   T   T   T
  0.6402537141625907  0.4250446983301076  0.5095465367358168   T   T   T
  0.3950829230718165  0.3888288647281370  0.4620953644053771   T   T   T
  0.3952786566293621  0.5419217291978463  0.4249733910038005   T   T   T
  0.4637624094697200  0.3889595333477903  0.6466334704321461   T   T   T
  0.6167491725706008  0.4258998282232840  0.6460019328943498   T   T   T
  0.5782131559716674  0.5414337674016210  0.5772915699903507   F   F   F
  0.5107139054585562  0.4251547454451428  0.4018859649681156   T   T   T
  0.5212200280000019  0.4841535664240482  0.4624173141500307   F   F   F
  0.6167270572294691  0.6104156132779166  0.5773339136170030   T   T   T
  0.5106101328940843  0.5433471138794924  0.6387600471422445   T   T   T
  0.4642268120283362  0.5414337674016210  0.5772915699903507   F   F   F
  0.4621136583560887  0.4738997666909394  0.6386002814272072   T   T   T
  0.5800490790399133  0.4738696176468732  0.4021756067137617   T   T   T
  0.6162816298182688  0.3578038336430753  0.4619701538981196   T   T   T
  0.5782761563691210  0.4268116521524590  0.5772364307857742   F   F   F
  0.4256420700775145  0.5422659942465762  0.6462529405966173   T   T   T
  0.5210201347526640  0.3142064476622959  0.5204418774504954   T   T   T
  0.6494834301946050  0.5416809984384597  0.6145582107844024   T   T   T
  0.4265780675484034  0.3576874507015290  0.5790530714363340   T   T   T
  0.5314548975880760  0.5432445443616511  0.4019184419776909   T   T   T
  0.6471350083532305  0.5799422892918857  0.4620301082225027   T   T   T
  0.5789119104524221  0.6103094668853114  0.4247284568895988   T   T   T
  0.5801311906536432  0.3649839018400743  0.5306135071844050   T   T   T
  0.4625886595086683  0.4841330892939268  0.5203899739999969   F   F   F
  0.5799696180232369  0.6035346774902487  0.5094639366742799   T   T   T
  0.5783568634463001  0.5810456780473077  0.6467905583403837   T   T   T
  0.5314570427835805  0.3651942581200463  0.4613608831166928   T   T   T
  0.4630442711638464  0.3579806773186732  0.4249416478158664   T   T   T
  0.5794353470920419  0.3578729513539283  0.6154589468432430   T   T   T
  0.5320323466929493  0.4253987510086964  0.6387159313673356   T   T   T
  0.6907314810283791  0.4845347476192028  0.5205926810101363   T   T   T
  0.4025836214861831  0.4736995396321985  0.4614989452116812   T   T   T
  0.6151534604422334  0.5327748744394707  0.6675121815628182   T   T   T
 
  0.00000000E+00  0.00000000E+00  0.00000000E+00
  0.00000000E+00  0.00000000E+00  0.00000000E+00
  0.00000000E+00  0.00000000E+00  0.00000000E+00
  0.00000000E+00  0.00000000E+00  0.00000000E+00
  0.00000000E+00  0.00000000E+00  0.00000000E+00
  0.00000000E+00  0.00000000E+00  0.00000000E+00
  0.00000000E+00  0.00000000E+00  0.00000000E+00
  0.00000000E+00  0.00000000E+00  0.00000000E+00
  0.00000000E+00  0.00000000E+00  0.00000000E+00
  0.00000000E+00  0.00000000E+00  0.00000000E+00
  0.00000000E+00  0.00000000E+00  0.00000000E+00
  0.00000000E+00  0.00000000E+00  0.00000000E+00
  0.00000000E+00  0.00000000E+00  0.00000000E+00
  0.00000000E+00  0.00000000E+00  0.00000000E+00
  0.00000000E+00  0.00000000E+00  0.00000000E+00
  0.00000000E+00  0.00000000E+00  0.00000000E+00
  0.00000000E+00  0.00000000E+00  0.00000000E+00
  0.00000000E+00  0.00000000E+00  0.00000000E+00
  0.00000000E+00  0.00000000E+00  0.00000000E+00
  0.00000000E+00  0.00000000E+00  0.00000000E+00
  0.00000000E+00  0.00000000E+00  0.00000000E+00
  0.00000000E+00  0.00000000E+00  0.00000000E+00
  0.00000000E+00  0.00000000E+00  0.00000000E+00
  0.00000000E+00  0.00000000E+00  0.00000000E+00
  0.00000000E+00  0.00000000E+00  0.00000000E+00
  0.00000000E+00  0.00000000E+00  0.00000000E+00
  0.00000000E+00  0.00000000E+00  0.00000000E+00
  0.00000000E+00  0.00000000E+00  0.00000000E+00
  0.00000000E+00  0.00000000E+00  0.00000000E+00
  0.00000000E+00  0.00000000E+00  0.00000000E+00
  0.00000000E+00  0.00000000E+00  0.00000000E+00
  0.00000000E+00  0.00000000E+00  0.00000000E+00
  0.00000000E+00  0.00000000E+00  0.00000000E+00
  0.00000000E+00  0.00000000E+00  0.00000000E+00
  0.00000000E+00  0.00000000E+00  0.00000000E+00
  0.00000000E+00  0.00000000E+00  0.00000000E+00
  0.00000000E+00  0.00000000E+00  0.00000000E+00
  0.00000000E+00  0.00000000E+00  0.00000000E+00
  0.00000000E+00  0.00000000E+00  0.00000000E+00
  0.00000000E+00  0.00000000E+00  0.00000000E+00
  0.00000000E+00  0.00000000E+00  0.00000000E+00
  0.00000000E+00  0.00000000E+00  0.00000000E+00
  0.00000000E+00  0.00000000E+00  0.00000000E+00
  0.00000000E+00  0.00000000E+00  0.00000000E+00
  0.00000000E+00  0.00000000E+00  0.00000000E+00
  0.00000000E+00  0.00000000E+00  0.00000000E+00
  0.00000000E+00  0.00000000E+00  0.00000000E+00
  0.00000000E+00  0.00000000E+00  0.00000000E+00
  0.00000000E+00  0.00000000E+00  0.00000000E+00
  0.00000000E+00  0.00000000E+00  0.00000000E+00
  0.00000000E+00  0.00000000E+00  0.00000000E+00
  0.00000000E+00  0.00000000E+00  0.00000000E+00
  0.00000000E+00  0.00000000E+00  0.00000000E+00
  0.00000000E+00  0.00000000E+00  0.00000000E+00
  0.00000000E+00  0.00000000E+00  0.00000000E+00
  0.00000000E+00  0.00000000E+00  0.00000000E+00
  0.00000000E+00  0.00000000E+00  0.00000000E+00
  0.00000000E+00  0.00000000E+00  0.00000000E+00
  0.00000000E+00  0.00000000E+00  0.00000000E+00
  0.00000000E+00  0.00000000E+00  0.00000000E+00
  0.00000000E+00  0.00000000E+00  0.00000000E+00
  0.00000000E+00  0.00000000E+00  0.00000000E+00
  0.00000000E+00  0.00000000E+00  0.00000000E+00
  0.00000000E+00  0.00000000E+00  0.00000000E+00
  0.00000000E+00  0.00000000E+00  0.00000000E+00
  0.00000000E+00  0.00000000E+00  0.00000000E+00
  0.00000000E+00  0.00000000E+00  0.00000000E+00
  0.00000000E+00  0.00000000E+00  0.00000000E+00
  0.00000000E+00  0.00000000E+00  0.00000000E+00
