Co H                                    
   1.00000000000000     
    29.0000000000000000    0.0000000000000000    0.0000000000000000
     0.0000000000000000   29.0000000000000000    0.0000000000000000
     0.0000000000000000    0.0000000000000000   29.0000000000000000
   Co   H 
    68     1
Selective dynamics
Direct
  0.5227469827698024  0.4838760379530878  0.6898094907791049   T   T   T
  0.3957282133803248  0.5798447987291346  0.4608640021073588   T   T   T
  0.4029827820697470  0.5441909779006925  0.5304051258781629   T   T   T
  0.5782761563691210  0.4268116521524590  0.4635435472142291   F   F   F
  0.4641638116308826  0.4268116521524590  0.5772364307857742   F   F   F
  0.6397925053034857  0.5435193659198033  0.5098992652975293   T   T   T
  0.4628498613750804  0.4730372656670132  0.4016135198647288   T   T   T
  0.4623061902277479  0.3645654000081935  0.5314310630506598   T   T   T
  0.5806731010627817  0.4742994112887297  0.6379597568874115   T   T   T
  0.4259362091835852  0.4274398614335611  0.6465309794634797   T   T   T
  0.5112376582487448  0.6030968551500578  0.5790462965065782   T   T   T
  0.5798922246644023  0.3574944010660689  0.4263556719018295   T   T   T
  0.4624884241541275  0.6032854054851035  0.5092221093919836   T   T   T
  0.4643596579562723  0.6099179066927307  0.4237857147285912   T   T   T
  0.6406932203953943  0.4956085711205493  0.5790025631417359   T   T   T
  0.6473239695982259  0.5425194787225992  0.4252370591064768   T   T   T
  0.6150683162711763  0.3561558034877959  0.5803408404079402   T   T   T
  0.5212200280000019  0.4252660896114264  0.5203899739999969   F   F   F
  0.4028674458243798  0.4243447512037884  0.5102943053521929   T   T   T
  0.5212200280000019  0.5427717147372562  0.5203899739999969   F   F   F
  0.5212200280000019  0.4841535664240482  0.5783626638499726   F   F   F
  0.4649003885493687  0.5814840865434860  0.6456325450035239   T   T   T
  0.5798513084913353  0.4841330892939268  0.5203899739999969   F   F   F
  0.5304394759270904  0.3667911112479736  0.5807922580233116   T   T   T
  0.3525078715200013  0.4839307800189256  0.5208395338077811   T   T   T
  0.4034753440990037  0.4737888430612581  0.5790990093672103   T   T   T
  0.5217457702188167  0.4840136943851869  0.3512187638372482   T   T   T
  0.3947099352287445  0.4253583153649422  0.4247531483203822   T   T   T
  0.6162124739334313  0.4258217461254526  0.3942410289630663   T   T   T
  0.6397431064362749  0.4737974793918194  0.4611686068464454   T   T   T
  0.4641638116308826  0.4268116521524590  0.4635435472142291   F   F   F
  0.4642268120283362  0.5414337674016210  0.4634884080096526   F   F   F
  0.5782131559716674  0.5414337674016210  0.4634884080096526   F   F   F
  0.5319583054126404  0.6032018333914136  0.4615512996632476   T   T   T
  0.5213180027385118  0.6541091571046216  0.5205648018512838   T   T   T
  0.4281053635128107  0.6118367957357237  0.5783389363507947   T   T   T
  0.6402899531331289  0.4260481145532630  0.5310751632448812   T   T   T
  0.4275780671498078  0.3570029818906369  0.4620868538104570   T   T   T
  0.4267735146397302  0.5415441584986048  0.3940038934205158   T   T   T
  0.4625553474651531  0.3584589982507932  0.6168547279233269   T   T   T
  0.6476527913170479  0.4265860915413275  0.6148092099206102   T   T   T
  0.5782131559716674  0.5414337674016210  0.5772915699903507   F   F   F
  0.5320147505502741  0.4248741613618199  0.4021532178884881   T   T   T
  0.5212200280000019  0.4841535664240482  0.4624173141500307   F   F   F
  0.6472887769214217  0.5802692383703304  0.5783336349623626   T   T   T
  0.5321074444369772  0.5433995218404367  0.6391178714527289   T   T   T
  0.4642268120283362  0.5414337674016210  0.5772915699903507   F   F   F
  0.4630962403222130  0.4957412662448366  0.6396760055398126   T   T   T
  0.5804266224819445  0.4946094403963618  0.4020739226603114   T   T   T
  0.6482855240349824  0.3900025203206494  0.4620848120947971   T   T   T
  0.5782761563691210  0.4268116521524590  0.5772364307857742   F   F   F
  0.3950810538922645  0.5437053813396551  0.6161245532552152   T   T   T
  0.5234497033040283  0.3151960206702633  0.5217184142838561   T   T   T
  0.6169801265688236  0.5427086050938439  0.6462043677759909   T   T   T
  0.3948211269669348  0.3893551306837676  0.5792743791846371   T   T   T
  0.5112609070007192  0.5428259800650834  0.4021412728933257   T   T   T
  0.6163838814897744  0.6107322566135235  0.4621950782837946   T   T   T
  0.5793547542163900  0.5795411373610019  0.3942168713169080   T   T   T
  0.5815343735490224  0.3657341438964772  0.5105517349030542   T   T   T
  0.4625886595086683  0.4841330892939268  0.5203899739999969   F   F   F
  0.5803555247151437  0.6032053071280917  0.5308007475833064   T   T   T
  0.5792194160097155  0.6107453166836569  0.6156243790892006   T   T   T
  0.5111200647949975  0.3649589427751134  0.4618925880589929   T   T   T
  0.4645749219814923  0.3880140423361059  0.3946456336804273   T   T   T
  0.5797999505618658  0.3911923475135802  0.6477130386388821   T   T   T
  0.5105010907890827  0.4258729117217581  0.6390105915973756   T   T   T
  0.6909979586898164  0.4848269639793921  0.5195076097991853   T   T   T
  0.4032764471596744  0.4951692663698749  0.4620914306859585   T   T   T
  0.5886346843924886  0.3149666737500726  0.5378180905309097   T   T   T
 
  0.00000000E+00  0.00000000E+00  0.00000000E+00
  0.00000000E+00  0.00000000E+00  0.00000000E+00
  0.00000000E+00  0.00000000E+00  0.00000000E+00
  0.00000000E+00  0.00000000E+00  0.00000000E+00
  0.00000000E+00  0.00000000E+00  0.00000000E+00
  0.00000000E+00  0.00000000E+00  0.00000000E+00
  0.00000000E+00  0.00000000E+00  0.00000000E+00
  0.00000000E+00  0.00000000E+00  0.00000000E+00
  0.00000000E+00  0.00000000E+00  0.00000000E+00
  0.00000000E+00  0.00000000E+00  0.00000000E+00
  0.00000000E+00  0.00000000E+00  0.00000000E+00
  0.00000000E+00  0.00000000E+00  0.00000000E+00
  0.00000000E+00  0.00000000E+00  0.00000000E+00
  0.00000000E+00  0.00000000E+00  0.00000000E+00
  0.00000000E+00  0.00000000E+00  0.00000000E+00
  0.00000000E+00  0.00000000E+00  0.00000000E+00
  0.00000000E+00  0.00000000E+00  0.00000000E+00
  0.00000000E+00  0.00000000E+00  0.00000000E+00
  0.00000000E+00  0.00000000E+00  0.00000000E+00
  0.00000000E+00  0.00000000E+00  0.00000000E+00
  0.00000000E+00  0.00000000E+00  0.00000000E+00
  0.00000000E+00  0.00000000E+00  0.00000000E+00
  0.00000000E+00  0.00000000E+00  0.00000000E+00
  0.00000000E+00  0.00000000E+00  0.00000000E+00
  0.00000000E+00  0.00000000E+00  0.00000000E+00
  0.00000000E+00  0.00000000E+00  0.00000000E+00
  0.00000000E+00  0.00000000E+00  0.00000000E+00
  0.00000000E+00  0.00000000E+00  0.00000000E+00
  0.00000000E+00  0.00000000E+00  0.00000000E+00
  0.00000000E+00  0.00000000E+00  0.00000000E+00
  0.00000000E+00  0.00000000E+00  0.00000000E+00
  0.00000000E+00  0.00000000E+00  0.00000000E+00
  0.00000000E+00  0.00000000E+00  0.00000000E+00
  0.00000000E+00  0.00000000E+00  0.00000000E+00
  0.00000000E+00  0.00000000E+00  0.00000000E+00
  0.00000000E+00  0.00000000E+00  0.00000000E+00
  0.00000000E+00  0.00000000E+00  0.00000000E+00
  0.00000000E+00  0.00000000E+00  0.00000000E+00
  0.00000000E+00  0.00000000E+00  0.00000000E+00
  0.00000000E+00  0.00000000E+00  0.00000000E+00
  0.00000000E+00  0.00000000E+00  0.00000000E+00
  0.00000000E+00  0.00000000E+00  0.00000000E+00
  0.00000000E+00  0.00000000E+00  0.00000000E+00
  0.00000000E+00  0.00000000E+00  0.00000000E+00
  0.00000000E+00  0.00000000E+00  0.00000000E+00
  0.00000000E+00  0.00000000E+00  0.00000000E+00
  0.00000000E+00  0.00000000E+00  0.00000000E+00
  0.00000000E+00  0.00000000E+00  0.00000000E+00
  0.00000000E+00  0.00000000E+00  0.00000000E+00
  0.00000000E+00  0.00000000E+00  0.00000000E+00
  0.00000000E+00  0.00000000E+00  0.00000000E+00
  0.00000000E+00  0.00000000E+00  0.00000000E+00
  0.00000000E+00  0.00000000E+00  0.00000000E+00
  0.00000000E+00  0.00000000E+00  0.00000000E+00
  0.00000000E+00  0.00000000E+00  0.00000000E+00
  0.00000000E+00  0.00000000E+00  0.00000000E+00
  0.00000000E+00  0.00000000E+00  0.00000000E+00
  0.00000000E+00  0.00000000E+00  0.00000000E+00
  0.00000000E+00  0.00000000E+00  0.00000000E+00
  0.00000000E+00  0.00000000E+00  0.00000000E+00
  0.00000000E+00  0.00000000E+00  0.00000000E+00
  0.00000000E+00  0.00000000E+00  0.00000000E+00
  0.00000000E+00  0.00000000E+00  0.00000000E+00
  0.00000000E+00  0.00000000E+00  0.00000000E+00
  0.00000000E+00  0.00000000E+00  0.00000000E+00
  0.00000000E+00  0.00000000E+00  0.00000000E+00
  0.00000000E+00  0.00000000E+00  0.00000000E+00
  0.00000000E+00  0.00000000E+00  0.00000000E+00
  0.00000000E+00  0.00000000E+00  0.00000000E+00
