La H                                    
   1.00000000000000     
    29.0000000000000000    0.0000000000000000    0.0000000000000000
     0.0000000000000000   29.0000000000000000    0.0000000000000000
     0.0000000000000000    0.0000000000000000   29.0000000000000000
   La   H 
    68     1
Selective dynamics
Direct
  0.5151909088502489  0.5110676362024076  0.6953319942744020   T   T   T
  0.3979781547145141  0.6784329407819572  0.3978553542083442   T   T   T
  0.3648391169240319  0.6001607472184023  0.4735395235487768   T   T   T
  0.5847735850602547  0.4395563749397482  0.4024863989397502   F   F   F
  0.4413263949397503  0.4395563749397482  0.5459335890602546   F   F   F
  0.6612038611573740  0.6000290966888427  0.4741965689531503   T   T   T
  0.4243705906096399  0.5113808663119132  0.3262415067284933   T   T   T
  0.4530719329890749  0.3661461097934260  0.4744715679704516   T   T   T
  0.6020685132770861  0.5116665561560400  0.6225110358869218   T   T   T
  0.3443412160075533  0.4384110695427741  0.5897934274114717   T   T   T
  0.5127984913609515  0.6590566250247822  0.5632020400567632   T   T   T
  0.5891936292035398  0.3951478831782800  0.3083140682964395   T   T   T
  0.4530216330790995  0.6566238162317882  0.4749739266454192   T   T   T
  0.4360467878701217  0.6288719638908414  0.3103245160135474   T   T   T
  0.6580518296849145  0.5111883939044580  0.5340537984140323   T   T   T
  0.6773879655566329  0.5895723176885005  0.3584528262618120   T   T   T
  0.6306403898156806  0.3486431907434424  0.5530509325182055   T   T   T
  0.5130500200000014  0.4385212377386409  0.4742099939999989   F   F   F
  0.3646713850945024  0.4232089455464216  0.4731147409156539   T   T   T
  0.5130500200000014  0.5840387622613576  0.4742099939999989   F   F   F
  0.5130500200000014  0.5112799999999993  0.5469687262613618   F   F   F
  0.4334686014599318  0.6269220049585325  0.6376911771902503   T   T   T
  0.5858087222613619  0.5112799999999993  0.4742099939999989   F   F   F
  0.5136167745186005  0.3633472318041353  0.5627866720333148   T   T   T
  0.2925425030486307  0.5131791024146942  0.4754300141839806   T   T   T
  0.3684967542771889  0.5117373822430662  0.5335837181658709   T   T   T
  0.5149390355805562  0.5112421119353066  0.2538779940259541   T   T   T
  0.3497956521828151  0.4320698408357744  0.3578504807632411   T   T   T
  0.6768214648405350  0.4330783006230105  0.3578209747179345   T   T   T
  0.6587542322064840  0.5111662210847523  0.4144103101002682   T   T   T
  0.4413263949397503  0.4395563749397482  0.4024863989397502   F   F   F
  0.4413263949397503  0.5830036250602504  0.4024863989397502   F   F   F
  0.5847735850602547  0.5830036250602504  0.4024863989397502   F   F   F
  0.5131666984585660  0.6592179888549088  0.3862247330344584   T   T   T
  0.5129849257239467  0.7317269549391500  0.4719356120000083   T   T   T
  0.3949268454631469  0.6758485205890874  0.5509728795103779   T   T   T
  0.6612125419733158  0.4227648717190275  0.4741008742455821   T   T   T
  0.3986848716413969  0.3442686685948390  0.3965998148931942   T   T   T
  0.3485726863128693  0.5904886814952988  0.3592234431026563   T   T   T
  0.4361625016273518  0.3964397467348938  0.6393057962388706   T   T   T
  0.6802075625001864  0.4357706946338062  0.5906502683903269   T   T   T
  0.5847735850602547  0.5830036250602504  0.5459335890602546   F   F   F
  0.5127041321318856  0.4515413635456847  0.3286587979140153   T   T   T
  0.5130500200000014  0.5112799999999993  0.4014512617386430   F   F   F
  0.6299336565554514  0.6750118868625529  0.5525022040132057   T   T   T
  0.5126845567817668  0.5711146878177354  0.6196488213691500   T   T   T
  0.4413263949397503  0.5830036250602504  0.5459335890602546   F   F   F
  0.4243517917055847  0.5119340418857710  0.6225088415186493   T   T   T
  0.6018088505628320  0.5113477771112264  0.3265116720668345   T   T   T
  0.6277365430413224  0.3452988190485722  0.3963364534756408   T   T   T
  0.5847735850602547  0.4395563749397482  0.5459335890602546   F   F   F
  0.3455031595422446  0.5878368458441207  0.5889384668752358   T   T   T
  0.5131285088324484  0.2913113616792032  0.4696200115346360   T   T   T
  0.6795539929033195  0.5874585838583747  0.5902275634398815   T   T   T
  0.3947036217264225  0.3471916824010199  0.5495689339534938   T   T   T
  0.5128339300644530  0.5714929815558860  0.3288887748137698   T   T   T
  0.6282646599656013  0.6770250613940263  0.3968628322371642   T   T   T
  0.5900443155421388  0.6276752234886356  0.3090510882281249   T   T   T
  0.5734249317021917  0.3661049048668913  0.4748527992147053   T   T   T
  0.4402912577386431  0.5112799999999993  0.4742099939999989   F   F   F
  0.5731946857545823  0.6565565422950449  0.4749025122876709   T   T   T
  0.5913528267154948  0.6258782014352062  0.6397496796745930   T   T   T
  0.5134883537326455  0.3637432447924382  0.3856056674837359   T   T   T
  0.4371252934606338  0.3935915512752760  0.3091161085149937   T   T   T
  0.5917917789637834  0.3972101659126819  0.6402686869326620   T   T   T
  0.5132118686414441  0.4518268652490113  0.6194814801453999   T   T   T
  0.7337713133134064  0.5120379717095377  0.4752995467019321   T   T   T
  0.3677041321730633  0.5112048564284850  0.4138570385141874   T   T   T
  0.3630883644348573  0.3665939919360534  0.6215740363056501   T   T   T
 
  0.00000000E+00  0.00000000E+00  0.00000000E+00
  0.00000000E+00  0.00000000E+00  0.00000000E+00
  0.00000000E+00  0.00000000E+00  0.00000000E+00
  0.00000000E+00  0.00000000E+00  0.00000000E+00
  0.00000000E+00  0.00000000E+00  0.00000000E+00
  0.00000000E+00  0.00000000E+00  0.00000000E+00
  0.00000000E+00  0.00000000E+00  0.00000000E+00
  0.00000000E+00  0.00000000E+00  0.00000000E+00
  0.00000000E+00  0.00000000E+00  0.00000000E+00
  0.00000000E+00  0.00000000E+00  0.00000000E+00
  0.00000000E+00  0.00000000E+00  0.00000000E+00
  0.00000000E+00  0.00000000E+00  0.00000000E+00
  0.00000000E+00  0.00000000E+00  0.00000000E+00
  0.00000000E+00  0.00000000E+00  0.00000000E+00
  0.00000000E+00  0.00000000E+00  0.00000000E+00
  0.00000000E+00  0.00000000E+00  0.00000000E+00
  0.00000000E+00  0.00000000E+00  0.00000000E+00
  0.00000000E+00  0.00000000E+00  0.00000000E+00
  0.00000000E+00  0.00000000E+00  0.00000000E+00
  0.00000000E+00  0.00000000E+00  0.00000000E+00
  0.00000000E+00  0.00000000E+00  0.00000000E+00
  0.00000000E+00  0.00000000E+00  0.00000000E+00
  0.00000000E+00  0.00000000E+00  0.00000000E+00
  0.00000000E+00  0.00000000E+00  0.00000000E+00
  0.00000000E+00  0.00000000E+00  0.00000000E+00
  0.00000000E+00  0.00000000E+00  0.00000000E+00
  0.00000000E+00  0.00000000E+00  0.00000000E+00
  0.00000000E+00  0.00000000E+00  0.00000000E+00
  0.00000000E+00  0.00000000E+00  0.00000000E+00
  0.00000000E+00  0.00000000E+00  0.00000000E+00
  0.00000000E+00  0.00000000E+00  0.00000000E+00
  0.00000000E+00  0.00000000E+00  0.00000000E+00
  0.00000000E+00  0.00000000E+00  0.00000000E+00
  0.00000000E+00  0.00000000E+00  0.00000000E+00
  0.00000000E+00  0.00000000E+00  0.00000000E+00
  0.00000000E+00  0.00000000E+00  0.00000000E+00
  0.00000000E+00  0.00000000E+00  0.00000000E+00
  0.00000000E+00  0.00000000E+00  0.00000000E+00
  0.00000000E+00  0.00000000E+00  0.00000000E+00
  0.00000000E+00  0.00000000E+00  0.00000000E+00
  0.00000000E+00  0.00000000E+00  0.00000000E+00
  0.00000000E+00  0.00000000E+00  0.00000000E+00
  0.00000000E+00  0.00000000E+00  0.00000000E+00
  0.00000000E+00  0.00000000E+00  0.00000000E+00
  0.00000000E+00  0.00000000E+00  0.00000000E+00
  0.00000000E+00  0.00000000E+00  0.00000000E+00
  0.00000000E+00  0.00000000E+00  0.00000000E+00
  0.00000000E+00  0.00000000E+00  0.00000000E+00
  0.00000000E+00  0.00000000E+00  0.00000000E+00
  0.00000000E+00  0.00000000E+00  0.00000000E+00
  0.00000000E+00  0.00000000E+00  0.00000000E+00
  0.00000000E+00  0.00000000E+00  0.00000000E+00
  0.00000000E+00  0.00000000E+00  0.00000000E+00
  0.00000000E+00  0.00000000E+00  0.00000000E+00
  0.00000000E+00  0.00000000E+00  0.00000000E+00
  0.00000000E+00  0.00000000E+00  0.00000000E+00
  0.00000000E+00  0.00000000E+00  0.00000000E+00
  0.00000000E+00  0.00000000E+00  0.00000000E+00
  0.00000000E+00  0.00000000E+00  0.00000000E+00
  0.00000000E+00  0.00000000E+00  0.00000000E+00
  0.00000000E+00  0.00000000E+00  0.00000000E+00
  0.00000000E+00  0.00000000E+00  0.00000000E+00
  0.00000000E+00  0.00000000E+00  0.00000000E+00
  0.00000000E+00  0.00000000E+00  0.00000000E+00
  0.00000000E+00  0.00000000E+00  0.00000000E+00
  0.00000000E+00  0.00000000E+00  0.00000000E+00
  0.00000000E+00  0.00000000E+00  0.00000000E+00
  0.00000000E+00  0.00000000E+00  0.00000000E+00
  0.00000000E+00  0.00000000E+00  0.00000000E+00
