La H                                    
   1.00000000000000     
    29.0000000000000000    0.0000000000000000    0.0000000000000000
     0.0000000000000000   29.0000000000000000    0.0000000000000000
     0.0000000000000000    0.0000000000000000   29.0000000000000000
   La   H 
    68     1
Selective dynamics
Direct
  0.5132305643996735  0.5247945029699361  0.6947777935409112   T   T   T
  0.3610713579283058  0.6479327869735432  0.4053112953693647   T   T   T
  0.3597597695587337  0.5959817522553135  0.4871276416857078   T   T   T
  0.5847735850602547  0.4395563749397482  0.4024863989397502   F   F   F
  0.4413263949397503  0.4395563749397482  0.5459335890602546   F   F   F
  0.6588932507731131  0.5960024926226682  0.4766674847105478   T   T   T
  0.4274357542308340  0.5014274328806129  0.3249245106308772   T   T   T
  0.4522400529220154  0.3671432166560782  0.4718758323646439   T   T   T
  0.5954306930666867  0.5216963192717035  0.6242602816095114   T   T   T
  0.3459709291183045  0.4330165163897522  0.5893987641756957   T   T   T
  0.5116756683187170  0.6607992942615507  0.5588750497209184   T   T   T
  0.5895581600224400  0.3965840526173645  0.3062104284694255   T   T   T
  0.4473010715265062  0.6564265414359124  0.4675222800249251   T   T   T
  0.4425491360108764  0.6703110046072508  0.3438762817879766   T   T   T
  0.6592182608952202  0.5029851771004065  0.5409615838927280   T   T   T
  0.6772053778212667  0.5884583242741956  0.3554219535692233   T   T   T
  0.6688454123463697  0.3810025376492220  0.5455067901214274   T   T   T
  0.5130500200000014  0.4385212377386409  0.4742099939999989   F   F   F
  0.3667929719429763  0.4264078435442529  0.4723056385312952   T   T   T
  0.5130500200000014  0.5840387622613576  0.4742099939999989   F   F   F
  0.5130500200000014  0.5112799999999993  0.5469687262613618   F   F   F
  0.4391484361667859  0.6285798308813476  0.6439126318748677   T   T   T
  0.5858087222613619  0.5112799999999993  0.4742099939999989   F   F   F
  0.5030697790960528  0.3613246347511939  0.5577365188267575   T   T   T
  0.2950553593883030  0.5012123305731758  0.4782987751004366   T   T   T
  0.3695071939633198  0.5101587264619702  0.5368033000987820   T   T   T
  0.5172958332584299  0.5059440437309332  0.2571642489854186   T   T   T
  0.3491094100006327  0.4345178479511487  0.3603172522823894   T   T   T
  0.6751298695733786  0.4401839071741990  0.3490284056902557   T   T   T
  0.6567824005939501  0.5131815515974574  0.4113165955348556   T   T   T
  0.4413263949397503  0.4395563749397482  0.4024863989397502   F   F   F
  0.4413263949397503  0.5830036250602504  0.4024863989397502   F   F   F
  0.5847735850602547  0.5830036250602504  0.4024863989397502   F   F   F
  0.5252980273884308  0.6598776193578715  0.3897854709618810   T   T   T
  0.5156127296771548  0.7291284027671602  0.4661431937912685   T   T   T
  0.3980838426669719  0.6714770291252815  0.5545031652737319   T   T   T
  0.6644256486528889  0.4278174189588661  0.4617032814176921   T   T   T
  0.3944858216073596  0.3449688404160119  0.3995224270768121   T   T   T
  0.3800739244108988  0.5856503388468153  0.3214850123880073   T   T   T
  0.4324232177065508  0.3897090446569337  0.6325371656845109   T   T   T
  0.6466775262566128  0.4405578284976858  0.6294007344785191   T   T   T
  0.5847735850602547  0.5830036250602504  0.5459335890602546   F   F   F
  0.5130878601990366  0.4486218279344853  0.3313236554371888   T   T   T
  0.5130500200000014  0.5112799999999993  0.4014512617386430   F   F   F
  0.6287285619932600  0.6751891892885854  0.5555916839711742   T   T   T
  0.5103997048776124  0.5736971592862167  0.6156749499279852   T   T   T
  0.4413263949397503  0.5830036250602504  0.5459335890602546   F   F   F
  0.4291247985964233  0.5072848985992563  0.6213065996266333   T   T   T
  0.5962483842845399  0.5154433003910863  0.3263364267665245   T   T   T
  0.6314166778724928  0.3514931132156239  0.3940548940763165   T   T   T
  0.5847735850602547  0.4395563749397482  0.5459335890602546   F   F   F
  0.3519085052420090  0.5848524618570722  0.5992612682064564   T   T   T
  0.5115568525404693  0.2942925876153306  0.4775557469920869   T   T   T
  0.6736058281259266  0.5874643802553841  0.5944296691390452   T   T   T
  0.3910840117984647  0.3461339140014422  0.5445425095586049   T   T   T
  0.5030685305410226  0.5778300346157499  0.3268343646561848   T   T   T
  0.6331388796997511  0.6749390296484817  0.3987993932798344   T   T   T
  0.5895083675700798  0.6281206627725197  0.3111098652570236   T   T   T
  0.5808379167931753  0.3655673038134629  0.4808971341172745   T   T   T
  0.4402912577386431  0.5112799999999993  0.4742099939999989   F   F   F
  0.5750088439927932  0.6559907054674533  0.4767524490460084   T   T   T
  0.5836558231432600  0.6306036402712778  0.6413356984500065   T   T   T
  0.5161910391165028  0.3629331159546684  0.3894457606813379   T   T   T
  0.4364901265502006  0.3893177433070533  0.3128552963874585   T   T   T
  0.5864304847933339  0.3546458000113422  0.6056799646346196   T   T   T
  0.5215442877525749  0.4441818473714818  0.6223295555503433   T   T   T
  0.7300105359590285  0.5129306898008391  0.4700186893364968   T   T   T
  0.3660483764352338  0.5207097233801864  0.4094310919144022   T   T   T
  0.4623976912062190  0.4552018298476463  0.6772413549040843   T   T   T
 
  0.00000000E+00  0.00000000E+00  0.00000000E+00
  0.00000000E+00  0.00000000E+00  0.00000000E+00
  0.00000000E+00  0.00000000E+00  0.00000000E+00
  0.00000000E+00  0.00000000E+00  0.00000000E+00
  0.00000000E+00  0.00000000E+00  0.00000000E+00
  0.00000000E+00  0.00000000E+00  0.00000000E+00
  0.00000000E+00  0.00000000E+00  0.00000000E+00
  0.00000000E+00  0.00000000E+00  0.00000000E+00
  0.00000000E+00  0.00000000E+00  0.00000000E+00
  0.00000000E+00  0.00000000E+00  0.00000000E+00
  0.00000000E+00  0.00000000E+00  0.00000000E+00
  0.00000000E+00  0.00000000E+00  0.00000000E+00
  0.00000000E+00  0.00000000E+00  0.00000000E+00
  0.00000000E+00  0.00000000E+00  0.00000000E+00
  0.00000000E+00  0.00000000E+00  0.00000000E+00
  0.00000000E+00  0.00000000E+00  0.00000000E+00
  0.00000000E+00  0.00000000E+00  0.00000000E+00
  0.00000000E+00  0.00000000E+00  0.00000000E+00
  0.00000000E+00  0.00000000E+00  0.00000000E+00
  0.00000000E+00  0.00000000E+00  0.00000000E+00
  0.00000000E+00  0.00000000E+00  0.00000000E+00
  0.00000000E+00  0.00000000E+00  0.00000000E+00
  0.00000000E+00  0.00000000E+00  0.00000000E+00
  0.00000000E+00  0.00000000E+00  0.00000000E+00
  0.00000000E+00  0.00000000E+00  0.00000000E+00
  0.00000000E+00  0.00000000E+00  0.00000000E+00
  0.00000000E+00  0.00000000E+00  0.00000000E+00
  0.00000000E+00  0.00000000E+00  0.00000000E+00
  0.00000000E+00  0.00000000E+00  0.00000000E+00
  0.00000000E+00  0.00000000E+00  0.00000000E+00
  0.00000000E+00  0.00000000E+00  0.00000000E+00
  0.00000000E+00  0.00000000E+00  0.00000000E+00
  0.00000000E+00  0.00000000E+00  0.00000000E+00
  0.00000000E+00  0.00000000E+00  0.00000000E+00
  0.00000000E+00  0.00000000E+00  0.00000000E+00
  0.00000000E+00  0.00000000E+00  0.00000000E+00
  0.00000000E+00  0.00000000E+00  0.00000000E+00
  0.00000000E+00  0.00000000E+00  0.00000000E+00
  0.00000000E+00  0.00000000E+00  0.00000000E+00
  0.00000000E+00  0.00000000E+00  0.00000000E+00
  0.00000000E+00  0.00000000E+00  0.00000000E+00
  0.00000000E+00  0.00000000E+00  0.00000000E+00
  0.00000000E+00  0.00000000E+00  0.00000000E+00
  0.00000000E+00  0.00000000E+00  0.00000000E+00
  0.00000000E+00  0.00000000E+00  0.00000000E+00
  0.00000000E+00  0.00000000E+00  0.00000000E+00
  0.00000000E+00  0.00000000E+00  0.00000000E+00
  0.00000000E+00  0.00000000E+00  0.00000000E+00
  0.00000000E+00  0.00000000E+00  0.00000000E+00
  0.00000000E+00  0.00000000E+00  0.00000000E+00
  0.00000000E+00  0.00000000E+00  0.00000000E+00
  0.00000000E+00  0.00000000E+00  0.00000000E+00
  0.00000000E+00  0.00000000E+00  0.00000000E+00
  0.00000000E+00  0.00000000E+00  0.00000000E+00
  0.00000000E+00  0.00000000E+00  0.00000000E+00
  0.00000000E+00  0.00000000E+00  0.00000000E+00
  0.00000000E+00  0.00000000E+00  0.00000000E+00
  0.00000000E+00  0.00000000E+00  0.00000000E+00
  0.00000000E+00  0.00000000E+00  0.00000000E+00
  0.00000000E+00  0.00000000E+00  0.00000000E+00
  0.00000000E+00  0.00000000E+00  0.00000000E+00
  0.00000000E+00  0.00000000E+00  0.00000000E+00
  0.00000000E+00  0.00000000E+00  0.00000000E+00
  0.00000000E+00  0.00000000E+00  0.00000000E+00
  0.00000000E+00  0.00000000E+00  0.00000000E+00
  0.00000000E+00  0.00000000E+00  0.00000000E+00
  0.00000000E+00  0.00000000E+00  0.00000000E+00
  0.00000000E+00  0.00000000E+00  0.00000000E+00
  0.00000000E+00  0.00000000E+00  0.00000000E+00
