La H                                    
   1.00000000000000     
    29.0000000000000000    0.0000000000000000    0.0000000000000000
     0.0000000000000000   29.0000000000000000    0.0000000000000000
     0.0000000000000000    0.0000000000000000   29.0000000000000000
   La   H 
    68     1
Selective dynamics
Direct
  0.5127444154721643  0.5111528926376618  0.6896462023776888   T   T   T
  0.3669227759643752  0.6561274826582660  0.4049832687947802   T   T   T
  0.3665227681051033  0.5838826157065600  0.4742447323276540   T   T   T
  0.5847735850602547  0.4395563749397482  0.4024863989397502   F   F   F
  0.4413263949397503  0.4395563749397482  0.5459335890602546   F   F   F
  0.6594383830568501  0.5836873444654656  0.4743488188953091   T   T   T
  0.4403503505095491  0.5111795558209147  0.3277154975170999   T   T   T
  0.4403311104416463  0.3647448307794661  0.4741519642852891   T   T   T
  0.5859230548343338  0.5116485363769672  0.6206818310098402   T   T   T
  0.3667517032763795  0.4419861938835746  0.6189326965059170   T   T   T
  0.5130775009083277  0.6577088044023722  0.5469753288682244   T   T   T
  0.5821473068345668  0.3656107857377638  0.3285108392679475   T   T   T
  0.4405702695299382  0.6575819709496810  0.4741252242657273   T   T   T
  0.4438897471253733  0.6565680627628149  0.3284315468520124   T   T   T
  0.6593929439177846  0.5110201597932384  0.5464329691643545   T   T   T
  0.6582518232026624  0.5803377186734169  0.3283692131237747   T   T   T
  0.6581246906387443  0.3652493219115597  0.5431986602625859   T   T   T
  0.5130500200000014  0.4385212377386409  0.4742099939999989   F   F   F
  0.3665433810491396  0.4386905283487565  0.4742348939471516   T   T   T
  0.5130500200000014  0.5840387622613576  0.4742099939999989   F   F   F
  0.5130500200000014  0.5112799999999993  0.5469687262613618   F   F   F
  0.4435177859746366  0.6568249474534528  0.6197623957522796   T   T   T
  0.5858087222613619  0.5112799999999993  0.4742099939999989   F   F   F
  0.5131329230306114  0.3647417805832263  0.5467304480575438   T   T   T
  0.2972575656898647  0.5111942102873251  0.4741136702025095   T   T   T
  0.3665806982184330  0.5112760954735420  0.5467977659666865   T   T   T
  0.5131379799846073  0.5113433497918218  0.2583132556687892   T   T   T
  0.3672776304986273  0.4420982713024353  0.3288518350764356   T   T   T
  0.6585730222614303  0.4417941925301014  0.3286935924688514   T   T   T
  0.6594535932746416  0.5114334253743424  0.4015308749510019   T   T   T
  0.4413263949397503  0.4395563749397482  0.4024863989397502   F   F   F
  0.4413263949397503  0.5830036250602504  0.4024863989397502   F   F   F
  0.5847735850602547  0.5830036250602504  0.4024863989397502   F   F   F
  0.5132291877366553  0.6577363483706828  0.4015152642534018   T   T   T
  0.5127473573086674  0.7267485310529747  0.4741358906907369   T   T   T
  0.3674681941073329  0.6568134528732776  0.5435079956024181   T   T   T
  0.6594206029774540  0.4385020604119033  0.4741766888075050   T   T   T
  0.3673554342497071  0.3658661279309107  0.4049604843520020   T   T   T
  0.3677585462778787  0.5804056704150199  0.3282291399549057   T   T   T
  0.4438538268470726  0.3656781661230916  0.6196156274859387   T   T   T
  0.6590194189243503  0.4422944503003279  0.6194318880794748   T   T   T
  0.5847735850602547  0.5830036250602504  0.5459335890602546   F   F   F
  0.5130265671102412  0.4386365158730316  0.3277982882649157   T   T   T
  0.5130500200000014  0.5112799999999993  0.4014512617386430   F   F   F
  0.6602540941479991  0.6556491609053781  0.5431498925085935   T   T   T
  0.5127943163646809  0.5840661640372649  0.6204401957084553   T   T   T
  0.4413263949397503  0.5830036250602504  0.5459335890602546   F   F   F
  0.4405347668909284  0.5110857192579530  0.6205319832322351   T   T   T
  0.5856994768608360  0.5111971104565219  0.3276484263519258   T   T   T
  0.6585579993736151  0.3656532099466467  0.4047013530200708   T   T   T
  0.5847735850602547  0.4395563749397482  0.5459335890602546   F   F   F
  0.3673694567802895  0.5805255850606742  0.6197009674292571   T   T   T
  0.5131053008511286  0.2952779304954898  0.4742403488212932   T   T   T
  0.6615206010271090  0.5796012108542608  0.6173977981236018   T   T   T
  0.3677148668211522  0.3652486861505753  0.5432660489931519   T   T   T
  0.5131430565173947  0.5838096521229452  0.3277486559093440   T   T   T
  0.6589026836236561  0.6566005801136806  0.4051713997567311   T   T   T
  0.5824986724289646  0.6570330321392603  0.3289104446855681   T   T   T
  0.5856525998516688  0.3646665144290550  0.4741421349870991   T   T   T
  0.4402912577386431  0.5112799999999993  0.4742099939999989   F   F   F
  0.5859751006328094  0.6577573584685852  0.4743747500299533   T   T   T
  0.5839995847792269  0.6566014122744472  0.6206138401506580   T   T   T
  0.5129947151044432  0.3649121378645960  0.4015976670604501   T   T   T
  0.4438384338218904  0.3657810034949331  0.3286217370930006   T   T   T
  0.5825543895580182  0.3661269411993165  0.6200534890116032   T   T   T
  0.5132571883738488  0.4385461520983044  0.6206371731941440   T   T   T
  0.7288124322622727  0.5114829610452812  0.4744779221660358   T   T   T
  0.3665378201115255  0.5113657450013895  0.4015916468589013   T   T   T
  0.5975966207630421  0.7135889530918825  0.6668063084488128   T   T   T
 
  0.00000000E+00  0.00000000E+00  0.00000000E+00
  0.00000000E+00  0.00000000E+00  0.00000000E+00
  0.00000000E+00  0.00000000E+00  0.00000000E+00
  0.00000000E+00  0.00000000E+00  0.00000000E+00
  0.00000000E+00  0.00000000E+00  0.00000000E+00
  0.00000000E+00  0.00000000E+00  0.00000000E+00
  0.00000000E+00  0.00000000E+00  0.00000000E+00
  0.00000000E+00  0.00000000E+00  0.00000000E+00
  0.00000000E+00  0.00000000E+00  0.00000000E+00
  0.00000000E+00  0.00000000E+00  0.00000000E+00
  0.00000000E+00  0.00000000E+00  0.00000000E+00
  0.00000000E+00  0.00000000E+00  0.00000000E+00
  0.00000000E+00  0.00000000E+00  0.00000000E+00
  0.00000000E+00  0.00000000E+00  0.00000000E+00
  0.00000000E+00  0.00000000E+00  0.00000000E+00
  0.00000000E+00  0.00000000E+00  0.00000000E+00
  0.00000000E+00  0.00000000E+00  0.00000000E+00
  0.00000000E+00  0.00000000E+00  0.00000000E+00
  0.00000000E+00  0.00000000E+00  0.00000000E+00
  0.00000000E+00  0.00000000E+00  0.00000000E+00
  0.00000000E+00  0.00000000E+00  0.00000000E+00
  0.00000000E+00  0.00000000E+00  0.00000000E+00
  0.00000000E+00  0.00000000E+00  0.00000000E+00
  0.00000000E+00  0.00000000E+00  0.00000000E+00
  0.00000000E+00  0.00000000E+00  0.00000000E+00
  0.00000000E+00  0.00000000E+00  0.00000000E+00
  0.00000000E+00  0.00000000E+00  0.00000000E+00
  0.00000000E+00  0.00000000E+00  0.00000000E+00
  0.00000000E+00  0.00000000E+00  0.00000000E+00
  0.00000000E+00  0.00000000E+00  0.00000000E+00
  0.00000000E+00  0.00000000E+00  0.00000000E+00
  0.00000000E+00  0.00000000E+00  0.00000000E+00
  0.00000000E+00  0.00000000E+00  0.00000000E+00
  0.00000000E+00  0.00000000E+00  0.00000000E+00
  0.00000000E+00  0.00000000E+00  0.00000000E+00
  0.00000000E+00  0.00000000E+00  0.00000000E+00
  0.00000000E+00  0.00000000E+00  0.00000000E+00
  0.00000000E+00  0.00000000E+00  0.00000000E+00
  0.00000000E+00  0.00000000E+00  0.00000000E+00
  0.00000000E+00  0.00000000E+00  0.00000000E+00
  0.00000000E+00  0.00000000E+00  0.00000000E+00
  0.00000000E+00  0.00000000E+00  0.00000000E+00
  0.00000000E+00  0.00000000E+00  0.00000000E+00
  0.00000000E+00  0.00000000E+00  0.00000000E+00
  0.00000000E+00  0.00000000E+00  0.00000000E+00
  0.00000000E+00  0.00000000E+00  0.00000000E+00
  0.00000000E+00  0.00000000E+00  0.00000000E+00
  0.00000000E+00  0.00000000E+00  0.00000000E+00
  0.00000000E+00  0.00000000E+00  0.00000000E+00
  0.00000000E+00  0.00000000E+00  0.00000000E+00
  0.00000000E+00  0.00000000E+00  0.00000000E+00
  0.00000000E+00  0.00000000E+00  0.00000000E+00
  0.00000000E+00  0.00000000E+00  0.00000000E+00
  0.00000000E+00  0.00000000E+00  0.00000000E+00
  0.00000000E+00  0.00000000E+00  0.00000000E+00
  0.00000000E+00  0.00000000E+00  0.00000000E+00
  0.00000000E+00  0.00000000E+00  0.00000000E+00
  0.00000000E+00  0.00000000E+00  0.00000000E+00
  0.00000000E+00  0.00000000E+00  0.00000000E+00
  0.00000000E+00  0.00000000E+00  0.00000000E+00
  0.00000000E+00  0.00000000E+00  0.00000000E+00
  0.00000000E+00  0.00000000E+00  0.00000000E+00
  0.00000000E+00  0.00000000E+00  0.00000000E+00
  0.00000000E+00  0.00000000E+00  0.00000000E+00
  0.00000000E+00  0.00000000E+00  0.00000000E+00
  0.00000000E+00  0.00000000E+00  0.00000000E+00
  0.00000000E+00  0.00000000E+00  0.00000000E+00
  0.00000000E+00  0.00000000E+00  0.00000000E+00
  0.00000000E+00  0.00000000E+00  0.00000000E+00
