La H                                    
   1.00000000000000     
    29.0000000000000000    0.0000000000000000    0.0000000000000000
     0.0000000000000000   29.0000000000000000    0.0000000000000000
     0.0000000000000000    0.0000000000000000   29.0000000000000000
   La   H 
    68     1
Selective dynamics
Direct
  0.5131648356254846  0.5108590527653817  0.6952718934073947   T   T   T
  0.3457349777607560  0.6257002948716596  0.3967277844027119   T   T   T
  0.3681499991544560  0.5713697857574608  0.4741790662980369   T   T   T
  0.5847735850602547  0.4395563749397482  0.4024863989397502   F   F   F
  0.4413263949397503  0.4395563749397482  0.5459335890602546   F   F   F
  0.6581965381575485  0.5712500472938659  0.4747902068204381   T   T   T
  0.4537113956536810  0.5117647606971779  0.3284986130377940   T   T   T
  0.4247141060578245  0.3633766985352258  0.4737064869077944   T   T   T
  0.5730432798483783  0.5119098327991756  0.6195730119768633   T   T   T
  0.3986974453661037  0.4326060238736623  0.6397944756103925   T   T   T
  0.5137816846286729  0.6562841736503924  0.5329224219138970   T   T   T
  0.5912877991806322  0.3472438992872289  0.3580207082940239   T   T   T
  0.4250248566664543  0.6598839689045288  0.4727970725205488   T   T   T
  0.4336408701080366  0.6746075875651510  0.3580139043861036   T   T   T
  0.6609108623736557  0.5116361959858144  0.5631685326065164   T   T   T
  0.6309116449105217  0.5881376507923812  0.3104400140689778   T   T   T
  0.6772401325605577  0.3947599127227156  0.5524363344791638   T   T   T
  0.5130500200000014  0.4385212377386409  0.4742099939999989   F   F   F
  0.3678517329357000  0.4510253468441291  0.4744834589249368   T   T   T
  0.5130500200000014  0.5840387622613576  0.4742099939999989   F   F   F
  0.5130500200000014  0.5112799999999993  0.5469687262613618   F   F   F
  0.4402670027205240  0.6803182500983074  0.5891172039950506   T   T   T
  0.5858087222613619  0.5112799999999993  0.4742099939999989   F   F   F
  0.5130486877847580  0.3664671204993443  0.5342110061889880   T   T   T
  0.2931500381012649  0.5118039791877719  0.4690676559210206   T   T   T
  0.3650908198208925  0.5109627325246386  0.5624801168021392   T   T   T
  0.5133719251400797  0.5083504151083307  0.2536358360714228   T   T   T
  0.3974318241469096  0.4353770585900156  0.3076114410217032   T   T   T
  0.6290054443736438  0.4344435131959807  0.3083950037129448   T   T   T
  0.6611351313736551  0.5110066291590862  0.3860556172476333   T   T   T
  0.4413263949397503  0.4395563749397482  0.4024863989397502   F   F   F
  0.4413263949397503  0.5830036250602504  0.4024863989397502   F   F   F
  0.5847735850602547  0.5830036250602504  0.4024863989397502   F   F   F
  0.5131581841711012  0.6563647027901252  0.4135083270384866   T   T   T
  0.5144324872128622  0.7320204203569521  0.4742594222342202   T   T   T
  0.3490465329368474  0.6299080890990632  0.5488131021938377   T   T   T
  0.6585145331060576  0.4513160916402493  0.4747395516974216   T   T   T
  0.3470656099720990  0.3968971670835804  0.3955489069215339   T   T   T
  0.3955546938405358  0.5872788471325763  0.3090416834714351   T   T   T
  0.4376780347107067  0.3441668942826286  0.5905976925502960   T   T   T
  0.6278222781364018  0.4330206996179420  0.6394223616052473   T   T   T
  0.5847735850602547  0.5830036250602504  0.5459335890602546   F   F   F
  0.5130685313484963  0.4224914145632170  0.3263232571067404   T   T   T
  0.5130500200000014  0.5112799999999993  0.4014512617386430   F   F   F
  0.6778239479459379  0.6290959620292705  0.5509970264162487   T   T   T
  0.5136786051964981  0.6005424600319527  0.6221060619788749   T   T   T
  0.4413263949397503  0.5830036250602504  0.5459335890602546   F   F   F
  0.4533788023431982  0.5113300444771210  0.6195343683481115   T   T   T
  0.5732436736152525  0.5115214528745954  0.3289818068677904   T   T   T
  0.6787465783526424  0.3963628211438707  0.3963298130855799   T   T   T
  0.5847735850602547  0.4395563749397482  0.5459335890602546   F   F   F
  0.3981712730651236  0.5889710339830105  0.6390355940467169   T   T   T
  0.5143234825184286  0.2908582438929880  0.4756772399402371   T   T   T
  0.6285802770187808  0.5913471106990523  0.6378270762130653   T   T   T
  0.3502001747652699  0.3936702920929897  0.5524275568403392   T   T   T
  0.5133287101218319  0.6000754585698088  0.3256289406524375   T   T   T
  0.6811078433152554  0.6257585978682537  0.3978093462856049   T   T   T
  0.5930298007021619  0.6756412234996064  0.3594636251722690   T   T   T
  0.6019440047783965  0.3634331476833818  0.4741037694382073   T   T   T
  0.4402912577386431  0.5112799999999993  0.4742099939999989   F   F   F
  0.6021863345777070  0.6597670429733157  0.4733226532826747   T   T   T
  0.5898165719344338  0.6788436954456250  0.5887703934707216   T   T   T
  0.5130597033963690  0.3655330052485845  0.4142374067619802   T   T   T
  0.4349466064770491  0.3479645061655183  0.3572111867966103   T   T   T
  0.5895402494931513  0.3448928161093368  0.5900987133045770   T   T   T
  0.5135513435012780  0.4227566989068088  0.6226232469432206   T   T   T
  0.7335805027591187  0.5116745885502606  0.4723551284490799   T   T   T
  0.3659013944460845  0.5108216817856502  0.3852378734923619   T   T   T
  0.3684323665614497  0.6618481103306664  0.6206230193227927   T   T   T
 
  0.00000000E+00  0.00000000E+00  0.00000000E+00
  0.00000000E+00  0.00000000E+00  0.00000000E+00
  0.00000000E+00  0.00000000E+00  0.00000000E+00
  0.00000000E+00  0.00000000E+00  0.00000000E+00
  0.00000000E+00  0.00000000E+00  0.00000000E+00
  0.00000000E+00  0.00000000E+00  0.00000000E+00
  0.00000000E+00  0.00000000E+00  0.00000000E+00
  0.00000000E+00  0.00000000E+00  0.00000000E+00
  0.00000000E+00  0.00000000E+00  0.00000000E+00
  0.00000000E+00  0.00000000E+00  0.00000000E+00
  0.00000000E+00  0.00000000E+00  0.00000000E+00
  0.00000000E+00  0.00000000E+00  0.00000000E+00
  0.00000000E+00  0.00000000E+00  0.00000000E+00
  0.00000000E+00  0.00000000E+00  0.00000000E+00
  0.00000000E+00  0.00000000E+00  0.00000000E+00
  0.00000000E+00  0.00000000E+00  0.00000000E+00
  0.00000000E+00  0.00000000E+00  0.00000000E+00
  0.00000000E+00  0.00000000E+00  0.00000000E+00
  0.00000000E+00  0.00000000E+00  0.00000000E+00
  0.00000000E+00  0.00000000E+00  0.00000000E+00
  0.00000000E+00  0.00000000E+00  0.00000000E+00
  0.00000000E+00  0.00000000E+00  0.00000000E+00
  0.00000000E+00  0.00000000E+00  0.00000000E+00
  0.00000000E+00  0.00000000E+00  0.00000000E+00
  0.00000000E+00  0.00000000E+00  0.00000000E+00
  0.00000000E+00  0.00000000E+00  0.00000000E+00
  0.00000000E+00  0.00000000E+00  0.00000000E+00
  0.00000000E+00  0.00000000E+00  0.00000000E+00
  0.00000000E+00  0.00000000E+00  0.00000000E+00
  0.00000000E+00  0.00000000E+00  0.00000000E+00
  0.00000000E+00  0.00000000E+00  0.00000000E+00
  0.00000000E+00  0.00000000E+00  0.00000000E+00
  0.00000000E+00  0.00000000E+00  0.00000000E+00
  0.00000000E+00  0.00000000E+00  0.00000000E+00
  0.00000000E+00  0.00000000E+00  0.00000000E+00
  0.00000000E+00  0.00000000E+00  0.00000000E+00
  0.00000000E+00  0.00000000E+00  0.00000000E+00
  0.00000000E+00  0.00000000E+00  0.00000000E+00
  0.00000000E+00  0.00000000E+00  0.00000000E+00
  0.00000000E+00  0.00000000E+00  0.00000000E+00
  0.00000000E+00  0.00000000E+00  0.00000000E+00
  0.00000000E+00  0.00000000E+00  0.00000000E+00
  0.00000000E+00  0.00000000E+00  0.00000000E+00
  0.00000000E+00  0.00000000E+00  0.00000000E+00
  0.00000000E+00  0.00000000E+00  0.00000000E+00
  0.00000000E+00  0.00000000E+00  0.00000000E+00
  0.00000000E+00  0.00000000E+00  0.00000000E+00
  0.00000000E+00  0.00000000E+00  0.00000000E+00
  0.00000000E+00  0.00000000E+00  0.00000000E+00
  0.00000000E+00  0.00000000E+00  0.00000000E+00
  0.00000000E+00  0.00000000E+00  0.00000000E+00
  0.00000000E+00  0.00000000E+00  0.00000000E+00
  0.00000000E+00  0.00000000E+00  0.00000000E+00
  0.00000000E+00  0.00000000E+00  0.00000000E+00
  0.00000000E+00  0.00000000E+00  0.00000000E+00
  0.00000000E+00  0.00000000E+00  0.00000000E+00
  0.00000000E+00  0.00000000E+00  0.00000000E+00
  0.00000000E+00  0.00000000E+00  0.00000000E+00
  0.00000000E+00  0.00000000E+00  0.00000000E+00
  0.00000000E+00  0.00000000E+00  0.00000000E+00
  0.00000000E+00  0.00000000E+00  0.00000000E+00
  0.00000000E+00  0.00000000E+00  0.00000000E+00
  0.00000000E+00  0.00000000E+00  0.00000000E+00
  0.00000000E+00  0.00000000E+00  0.00000000E+00
  0.00000000E+00  0.00000000E+00  0.00000000E+00
  0.00000000E+00  0.00000000E+00  0.00000000E+00
  0.00000000E+00  0.00000000E+00  0.00000000E+00
  0.00000000E+00  0.00000000E+00  0.00000000E+00
  0.00000000E+00  0.00000000E+00  0.00000000E+00
