La H                                    
   1.00000000000000     
    29.0000000000000000    0.0000000000000000    0.0000000000000000
     0.0000000000000000   29.0000000000000000    0.0000000000000000
     0.0000000000000000    0.0000000000000000   29.0000000000000000
   La   H 
    68     1
Selective dynamics
Direct
  0.5114510490606671  0.5115608774902373  0.6948463268229750   T   T   T
  0.3964786777742633  0.6759498613231423  0.3969914829000228   T   T   T
  0.3652991449279425  0.6004410609924196  0.4742563640424151   T   T   T
  0.5847735850602547  0.4395563749397482  0.4024863989397502   F   F   F
  0.4413263949397503  0.4395563749397482  0.5459335890602546   F   F   F
  0.6619742788378462  0.6001073190782988  0.4742973567592781   T   T   T
  0.4248100891026706  0.5117958928032820  0.3270349723336236   T   T   T
  0.4528346331064362  0.3663736676504797  0.4742849137676161   T   T   T
  0.6019253039112957  0.5113298977740680  0.6215093424564054   T   T   T
  0.3497027957021455  0.4329961332679537  0.5904017279669379   T   T   T
  0.5129179721520466  0.6592146106391327  0.5627181455279695   T   T   T
  0.5936840101740103  0.3940526384737507  0.3097285187755484   T   T   T
  0.4535443194806532  0.6568712573908326  0.4743627156882139   T   T   T
  0.4348282818474265  0.6272469184758424  0.3093217988453241   T   T   T
  0.6589416501268834  0.5113056618045091  0.5336899566327374   T   T   T
  0.6789867403965529  0.5893045531035652  0.3595807138514532   T   T   T
  0.6279792258179827  0.3438285899810395  0.5511667762010626   T   T   T
  0.5130500200000014  0.4385212377386409  0.4742099939999989   F   F   F
  0.3645723468714996  0.4224186258103430  0.4741923628335067   T   T   T
  0.5130500200000014  0.5840387622613576  0.4742099939999989   F   F   F
  0.5130500200000014  0.5112799999999993  0.5469687262613618   F   F   F
  0.4347265235568135  0.6269018174689885  0.6393838963323548   T   T   T
  0.5858087222613619  0.5112799999999993  0.4742099939999989   F   F   F
  0.5131122249549411  0.3640207403645275  0.5623708269049585   T   T   T
  0.2922130718563835  0.5139043469140702  0.4742101713289222   T   T   T
  0.3672740248762986  0.5114032012200040  0.5340427742559767   T   T   T
  0.5108788196047522  0.5131921192926169  0.2536129917616765   T   T   T
  0.3484423344430890  0.4343606537898084  0.3573175746670942   T   T   T
  0.6785134516218561  0.4332767336955045  0.3591058237710542   T   T   T
  0.6585099401029806  0.5111788965190942  0.4145008957532517   T   T   T
  0.4413263949397503  0.4395563749397482  0.4024863989397502   F   F   F
  0.4413263949397503  0.5830036250602504  0.4024863989397502   F   F   F
  0.5847735850602547  0.5830036250602504  0.4024863989397502   F   F   F
  0.5129272686000987  0.6595174777116792  0.3861084948013592   T   T   T
  0.5148229003832666  0.7316117398382906  0.4749319427582686   T   T   T
  0.3968310702316357  0.6767125579479960  0.5515712193442560   T   T   T
  0.6615339590326337  0.4220655815581697  0.4741847244903610   T   T   T
  0.3963112363877526  0.3467980342771708  0.3965255620199195   T   T   T
  0.3474064533853427  0.5883326917596041  0.3586888098779474   T   T   T
  0.4369099708787439  0.3946904397220004  0.6402724147237137   T   T   T
  0.6769726730479850  0.4320286002887465  0.5891320135819151   T   T   T
  0.5847735850602547  0.5830036250602504  0.5459335890602546   F   F   F
  0.5135185129750106  0.4515347213736947  0.3278302206570152   T   T   T
  0.5130500200000014  0.5112799999999993  0.4014512617386430   F   F   F
  0.6290979463187382  0.6779582117932840  0.5503822385329711   T   T   T
  0.5132817188705268  0.5715711582289054  0.6196104581391578   T   T   T
  0.4413263949397503  0.5830036250602504  0.5459335890602546   F   F   F
  0.4246126395541906  0.5110461332251449  0.6215618757871681   T   T   T
  0.6018374255862635  0.5116310482053102  0.3265306222574180   T   T   T
  0.6301334435841963  0.3455518229195705  0.3982557459723817   T   T   T
  0.5847735850602547  0.4395563749397482  0.5459335890602546   F   F   F
  0.3475328705013847  0.5889833337302879  0.5896780438604386   T   T   T
  0.5131526456010845  0.2906735536313192  0.4794151022266646   T   T   T
  0.6784408156876476  0.5896029630515056  0.5889816563060176   T   T   T
  0.3981974940465512  0.3451691351601660  0.5526338943468080   T   T   T
  0.5135484853152977  0.5722411835587441  0.3291573660279207   T   T   T
  0.6295414578996211  0.6772483111126260  0.3979767983319293   T   T   T
  0.5919339824014057  0.6282688470632465  0.3103808353616680   T   T   T
  0.5728762353406921  0.3665065051411680  0.4743180922345976   T   T   T
  0.4402912577386431  0.5112799999999993  0.4742099939999989   F   F   F
  0.5731362321990162  0.6557505420478368  0.4742336914179546   T   T   T
  0.5914492858708364  0.6283768652233808  0.6381044475496422   T   T   T
  0.5129610295638427  0.3630863317215992  0.3877904899117213   T   T   T
  0.4335992437748026  0.3953270280819652  0.3078312955487930   T   T   T
  0.5903953291235503  0.3940016872015392  0.6388556867828930   T   T   T
  0.5134864692238537  0.4514092854625708  0.6197447029761185   T   T   T
  0.7342847323545483  0.5111931645356267  0.4733566837642362   T   T   T
  0.3672535252588161  0.5110920436644663  0.4145990534105000   T   T   T
  0.5134314128378562  0.3716000970785636  0.3067598009725988   T   T   T
 
  0.00000000E+00  0.00000000E+00  0.00000000E+00
  0.00000000E+00  0.00000000E+00  0.00000000E+00
  0.00000000E+00  0.00000000E+00  0.00000000E+00
  0.00000000E+00  0.00000000E+00  0.00000000E+00
  0.00000000E+00  0.00000000E+00  0.00000000E+00
  0.00000000E+00  0.00000000E+00  0.00000000E+00
  0.00000000E+00  0.00000000E+00  0.00000000E+00
  0.00000000E+00  0.00000000E+00  0.00000000E+00
  0.00000000E+00  0.00000000E+00  0.00000000E+00
  0.00000000E+00  0.00000000E+00  0.00000000E+00
  0.00000000E+00  0.00000000E+00  0.00000000E+00
  0.00000000E+00  0.00000000E+00  0.00000000E+00
  0.00000000E+00  0.00000000E+00  0.00000000E+00
  0.00000000E+00  0.00000000E+00  0.00000000E+00
  0.00000000E+00  0.00000000E+00  0.00000000E+00
  0.00000000E+00  0.00000000E+00  0.00000000E+00
  0.00000000E+00  0.00000000E+00  0.00000000E+00
  0.00000000E+00  0.00000000E+00  0.00000000E+00
  0.00000000E+00  0.00000000E+00  0.00000000E+00
  0.00000000E+00  0.00000000E+00  0.00000000E+00
  0.00000000E+00  0.00000000E+00  0.00000000E+00
  0.00000000E+00  0.00000000E+00  0.00000000E+00
  0.00000000E+00  0.00000000E+00  0.00000000E+00
  0.00000000E+00  0.00000000E+00  0.00000000E+00
  0.00000000E+00  0.00000000E+00  0.00000000E+00
  0.00000000E+00  0.00000000E+00  0.00000000E+00
  0.00000000E+00  0.00000000E+00  0.00000000E+00
  0.00000000E+00  0.00000000E+00  0.00000000E+00
  0.00000000E+00  0.00000000E+00  0.00000000E+00
  0.00000000E+00  0.00000000E+00  0.00000000E+00
  0.00000000E+00  0.00000000E+00  0.00000000E+00
  0.00000000E+00  0.00000000E+00  0.00000000E+00
  0.00000000E+00  0.00000000E+00  0.00000000E+00
  0.00000000E+00  0.00000000E+00  0.00000000E+00
  0.00000000E+00  0.00000000E+00  0.00000000E+00
  0.00000000E+00  0.00000000E+00  0.00000000E+00
  0.00000000E+00  0.00000000E+00  0.00000000E+00
  0.00000000E+00  0.00000000E+00  0.00000000E+00
  0.00000000E+00  0.00000000E+00  0.00000000E+00
  0.00000000E+00  0.00000000E+00  0.00000000E+00
  0.00000000E+00  0.00000000E+00  0.00000000E+00
  0.00000000E+00  0.00000000E+00  0.00000000E+00
  0.00000000E+00  0.00000000E+00  0.00000000E+00
  0.00000000E+00  0.00000000E+00  0.00000000E+00
  0.00000000E+00  0.00000000E+00  0.00000000E+00
  0.00000000E+00  0.00000000E+00  0.00000000E+00
  0.00000000E+00  0.00000000E+00  0.00000000E+00
  0.00000000E+00  0.00000000E+00  0.00000000E+00
  0.00000000E+00  0.00000000E+00  0.00000000E+00
  0.00000000E+00  0.00000000E+00  0.00000000E+00
  0.00000000E+00  0.00000000E+00  0.00000000E+00
  0.00000000E+00  0.00000000E+00  0.00000000E+00
  0.00000000E+00  0.00000000E+00  0.00000000E+00
  0.00000000E+00  0.00000000E+00  0.00000000E+00
  0.00000000E+00  0.00000000E+00  0.00000000E+00
  0.00000000E+00  0.00000000E+00  0.00000000E+00
  0.00000000E+00  0.00000000E+00  0.00000000E+00
  0.00000000E+00  0.00000000E+00  0.00000000E+00
  0.00000000E+00  0.00000000E+00  0.00000000E+00
  0.00000000E+00  0.00000000E+00  0.00000000E+00
  0.00000000E+00  0.00000000E+00  0.00000000E+00
  0.00000000E+00  0.00000000E+00  0.00000000E+00
  0.00000000E+00  0.00000000E+00  0.00000000E+00
  0.00000000E+00  0.00000000E+00  0.00000000E+00
  0.00000000E+00  0.00000000E+00  0.00000000E+00
  0.00000000E+00  0.00000000E+00  0.00000000E+00
  0.00000000E+00  0.00000000E+00  0.00000000E+00
  0.00000000E+00  0.00000000E+00  0.00000000E+00
  0.00000000E+00  0.00000000E+00  0.00000000E+00
