La H                                    
   1.00000000000000     
    29.0000000000000000    0.0000000000000000    0.0000000000000000
     0.0000000000000000   29.0000000000000000    0.0000000000000000
     0.0000000000000000    0.0000000000000000   29.0000000000000000
   La   H 
    68     1
Selective dynamics
Direct
  0.5128224410788409  0.5131679257270697  0.6944841285139378   T   T   T
  0.3496821509010040  0.6272372272424930  0.3951682242690144   T   T   T
  0.3669686675256695  0.5708696793746175  0.4739183946408596   T   T   T
  0.5847735850602547  0.4395563749397482  0.4024863989397502   F   F   F
  0.4413263949397503  0.4395563749397482  0.5459335890602546   F   F   F
  0.6588441665614860  0.5711313829987764  0.4740678476226184   T   T   T
  0.4529684570159953  0.5109153634568598  0.3292942547277080   T   T   T
  0.4245625933101189  0.3635786945243474  0.4748542344142478   T   T   T
  0.5727355063917077  0.5113114844247728  0.6193917872831314   T   T   T
  0.3956372570133873  0.4346011684504631  0.6389619617971862   T   T   T
  0.5130764276357369  0.6568857963193898  0.5345695616074926   T   T   T
  0.5929178049857168  0.3452063909630006  0.3582846832243639   T   T   T
  0.4243515983595045  0.6584497351931001  0.4744024535343521   T   T   T
  0.4365130815972018  0.6767257280429179  0.3572024869795836   T   T   T
  0.6611087202781686  0.5113008314015377  0.5631535337748416   T   T   T
  0.6274102227998396  0.5887008063486187  0.3069915242840763   T   T   T
  0.6791684595345030  0.3962696525907064  0.5515180628046894   T   T   T
  0.5130500200000014  0.4385212377386409  0.4742099939999989   F   F   F
  0.3678706235956327  0.4513741584661474  0.4739238991235877   T   T   T
  0.5130500200000014  0.5840387622613576  0.4742099939999989   F   F   F
  0.5130500200000014  0.5112799999999993  0.5469687262613618   F   F   F
  0.4346717504795931  0.6755768452006454  0.5908516746689746   T   T   T
  0.5858087222613619  0.5112799999999993  0.4742099939999989   F   F   F
  0.5128790605635640  0.3662056201288351  0.5352928550391575   T   T   T
  0.2921433501350287  0.5095410062572282  0.4755410579996696   T   T   T
  0.3648079239951625  0.5113888045822318  0.5628351033989762   T   T   T
  0.5131184320497335  0.5162225000362137  0.2536164489072593   T   T   T
  0.3959604466318657  0.4336141792181725  0.3094979604706043   T   T   T
  0.6298150078799607  0.4334974279516940  0.3094408998280216   T   T   T
  0.6615378885153439  0.5111620672791245  0.3851949032737026   T   T   T
  0.4413263949397503  0.4395563749397482  0.4024863989397502   F   F   F
  0.4413263949397503  0.5830036250602504  0.4024863989397502   F   F   F
  0.5847735850602547  0.5830036250602504  0.4024863989397502   F   F   F
  0.5130020888278967  0.6565892418755749  0.4143255843647329   T   T   T
  0.5127559294051960  0.7318014175097213  0.4740248819148557   T   T   T
  0.3476523941287308  0.6260886254055982  0.5524646609131592   T   T   T
  0.6585187451692065  0.4515794271900370  0.4740615386792773   T   T   T
  0.3478150931960032  0.3947771238304842  0.3972971295136850   T   T   T
  0.3984998722146349  0.5887133507097697  0.3072159531332088   T   T   T
  0.4338093914082555  0.3470509585335158  0.5904113245864328   T   T   T
  0.6298207851926237  0.4345928765696757  0.6391453416929262   T   T   T
  0.5847735850602547  0.5830036250602504  0.5459335890602546   F   F   F
  0.5130380924500328  0.4244391294465100  0.3258256960896363   T   T   T
  0.5130500200000014  0.5112799999999993  0.4014512617386430   F   F   F
  0.6783928555188342  0.6261419287216756  0.5525956097507566   T   T   T
  0.5130215693180896  0.5996962021281106  0.6217728425655149   T   T   T
  0.4413263949397503  0.5830036250602504  0.5459335890602546   F   F   F
  0.4530653393837010  0.5110840378598006  0.6192235939189985   T   T   T
  0.5731121721539758  0.5109614542773109  0.3293656334746394   T   T   T
  0.6779580217008707  0.3946040823010856  0.3973931904520173   T   T   T
  0.5847735850602547  0.4395563749397482  0.5459335890602546   F   F   F
  0.3968730145580388  0.5876487040475508  0.6403701495191672   T   T   T
  0.5131253287263546  0.2904746249497447  0.4762517992039502   T   T   T
  0.6294165027197327  0.5874272701626839  0.6405328807730416   T   T   T
  0.3464681246972783  0.3963125930702595  0.5511495939860116   T   T   T
  0.5128481097795966  0.5990742689274642  0.3267856703886451   T   T   T
  0.6759416251409398  0.6271788340504110  0.3950145937036505   T   T   T
  0.5891216551619727  0.6767958096122871  0.3570152180341442   T   T   T
  0.6013462960556891  0.3638387932839884  0.4748929999531211   T   T   T
  0.4402912577386431  0.5112799999999993  0.4742099939999989   F   F   F
  0.6016290818700853  0.6587455601991885  0.4743222662625753   T   T   T
  0.5914795072207467  0.6754448103891444  0.5911327758400199   T   T   T
  0.5128950924763661  0.3649358838973598  0.4146892434454287   T   T   T
  0.4328459236806051  0.3453495534858290  0.3581126057210489   T   T   T
  0.5918969993975624  0.3469263928959614  0.5904253544350025   T   T   T
  0.5129546765330101  0.4231546790027988  0.6225388571436836   T   T   T
  0.7338449619017035  0.5107445547693171  0.4765614487971077   T   T   T
  0.3645211368133722  0.5111340915684801  0.3849981351767668   T   T   T
  0.5127554785019189  0.3436216863383933  0.3350378818515879   T   T   T
 
  0.00000000E+00  0.00000000E+00  0.00000000E+00
  0.00000000E+00  0.00000000E+00  0.00000000E+00
  0.00000000E+00  0.00000000E+00  0.00000000E+00
  0.00000000E+00  0.00000000E+00  0.00000000E+00
  0.00000000E+00  0.00000000E+00  0.00000000E+00
  0.00000000E+00  0.00000000E+00  0.00000000E+00
  0.00000000E+00  0.00000000E+00  0.00000000E+00
  0.00000000E+00  0.00000000E+00  0.00000000E+00
  0.00000000E+00  0.00000000E+00  0.00000000E+00
  0.00000000E+00  0.00000000E+00  0.00000000E+00
  0.00000000E+00  0.00000000E+00  0.00000000E+00
  0.00000000E+00  0.00000000E+00  0.00000000E+00
  0.00000000E+00  0.00000000E+00  0.00000000E+00
  0.00000000E+00  0.00000000E+00  0.00000000E+00
  0.00000000E+00  0.00000000E+00  0.00000000E+00
  0.00000000E+00  0.00000000E+00  0.00000000E+00
  0.00000000E+00  0.00000000E+00  0.00000000E+00
  0.00000000E+00  0.00000000E+00  0.00000000E+00
  0.00000000E+00  0.00000000E+00  0.00000000E+00
  0.00000000E+00  0.00000000E+00  0.00000000E+00
  0.00000000E+00  0.00000000E+00  0.00000000E+00
  0.00000000E+00  0.00000000E+00  0.00000000E+00
  0.00000000E+00  0.00000000E+00  0.00000000E+00
  0.00000000E+00  0.00000000E+00  0.00000000E+00
  0.00000000E+00  0.00000000E+00  0.00000000E+00
  0.00000000E+00  0.00000000E+00  0.00000000E+00
  0.00000000E+00  0.00000000E+00  0.00000000E+00
  0.00000000E+00  0.00000000E+00  0.00000000E+00
  0.00000000E+00  0.00000000E+00  0.00000000E+00
  0.00000000E+00  0.00000000E+00  0.00000000E+00
  0.00000000E+00  0.00000000E+00  0.00000000E+00
  0.00000000E+00  0.00000000E+00  0.00000000E+00
  0.00000000E+00  0.00000000E+00  0.00000000E+00
  0.00000000E+00  0.00000000E+00  0.00000000E+00
  0.00000000E+00  0.00000000E+00  0.00000000E+00
  0.00000000E+00  0.00000000E+00  0.00000000E+00
  0.00000000E+00  0.00000000E+00  0.00000000E+00
  0.00000000E+00  0.00000000E+00  0.00000000E+00
  0.00000000E+00  0.00000000E+00  0.00000000E+00
  0.00000000E+00  0.00000000E+00  0.00000000E+00
  0.00000000E+00  0.00000000E+00  0.00000000E+00
  0.00000000E+00  0.00000000E+00  0.00000000E+00
  0.00000000E+00  0.00000000E+00  0.00000000E+00
  0.00000000E+00  0.00000000E+00  0.00000000E+00
  0.00000000E+00  0.00000000E+00  0.00000000E+00
  0.00000000E+00  0.00000000E+00  0.00000000E+00
  0.00000000E+00  0.00000000E+00  0.00000000E+00
  0.00000000E+00  0.00000000E+00  0.00000000E+00
  0.00000000E+00  0.00000000E+00  0.00000000E+00
  0.00000000E+00  0.00000000E+00  0.00000000E+00
  0.00000000E+00  0.00000000E+00  0.00000000E+00
  0.00000000E+00  0.00000000E+00  0.00000000E+00
  0.00000000E+00  0.00000000E+00  0.00000000E+00
  0.00000000E+00  0.00000000E+00  0.00000000E+00
  0.00000000E+00  0.00000000E+00  0.00000000E+00
  0.00000000E+00  0.00000000E+00  0.00000000E+00
  0.00000000E+00  0.00000000E+00  0.00000000E+00
  0.00000000E+00  0.00000000E+00  0.00000000E+00
  0.00000000E+00  0.00000000E+00  0.00000000E+00
  0.00000000E+00  0.00000000E+00  0.00000000E+00
  0.00000000E+00  0.00000000E+00  0.00000000E+00
  0.00000000E+00  0.00000000E+00  0.00000000E+00
  0.00000000E+00  0.00000000E+00  0.00000000E+00
  0.00000000E+00  0.00000000E+00  0.00000000E+00
  0.00000000E+00  0.00000000E+00  0.00000000E+00
  0.00000000E+00  0.00000000E+00  0.00000000E+00
  0.00000000E+00  0.00000000E+00  0.00000000E+00
  0.00000000E+00  0.00000000E+00  0.00000000E+00
  0.00000000E+00  0.00000000E+00  0.00000000E+00
