La H                                    
   1.00000000000000     
    29.0000000000000000    0.0000000000000000    0.0000000000000000
     0.0000000000000000   29.0000000000000000    0.0000000000000000
     0.0000000000000000    0.0000000000000000   29.0000000000000000
   La   H 
    68     1
Selective dynamics
Direct
  0.5154576867863641  0.5171100695246995  0.6952766291733093   T   T   T
  0.3969710132932559  0.6763405371141615  0.3969007909324984   T   T   T
  0.3652531992584710  0.5995772115848370  0.4745715213553558   T   T   T
  0.5847735850602547  0.4395563749397482  0.4024863989397502   F   F   F
  0.4413263949397503  0.4395563749397482  0.5459335890602546   F   F   F
  0.6600380839880075  0.5997632398033362  0.4745067614508000   T   T   T
  0.4241554825204934  0.5113168123503784  0.3272102097840189   T   T   T
  0.4532536222945274  0.3652961924326590  0.4743686253276759   T   T   T
  0.6010324485691479  0.5112585937785363  0.6211686704977538   T   T   T
  0.3483029863981018  0.4338554200429309  0.5911312074177435   T   T   T
  0.5131473481561705  0.6595497168779022  0.5625318384050899   T   T   T
  0.5898135398386415  0.3947602777143341  0.3090872175483602   T   T   T
  0.4531306993476892  0.6567199676552008  0.4745590669256834   T   T   T
  0.4349681740871649  0.6277905270216309  0.3092590260271192   T   T   T
  0.6587563672057949  0.5111318036854949  0.5339939669838334   T   T   T
  0.6779816326728189  0.5892810703934976  0.3579558357887822   T   T   T
  0.6287844139540658  0.3455806378188291  0.5517682688548705   T   T   T
  0.5130500200000014  0.4385212377386409  0.4742099939999989   F   F   F
  0.3657751320603092  0.4228125343515490  0.4745630633418698   T   T   T
  0.5130500200000014  0.5840387622613576  0.4742099939999989   F   F   F
  0.5130500200000014  0.5112799999999993  0.5469687262613618   F   F   F
  0.4378689653832340  0.6280392341497036  0.6398385399143277   T   T   T
  0.5858087222613619  0.5112799999999993  0.4742099939999989   F   F   F
  0.5129590901699759  0.3630467510707072  0.5631469694162250   T   T   T
  0.2921342541114971  0.5103965568459194  0.4760068055795786   T   T   T
  0.3680998869343760  0.5113464071642553  0.5346449253954684   T   T   T
  0.5118701195449675  0.5104110667796343  0.2535994855975704   T   T   T
  0.3473853946252274  0.4338522205928665  0.3581001421229906   T   T   T
  0.6776994585092716  0.4336335420101047  0.3570742932364840   T   T   T
  0.6586193589786012  0.5112415497082051  0.4138811004619286   T   T   T
  0.4413263949397503  0.4395563749397482  0.4024863989397502   F   F   F
  0.4413263949397503  0.5830036250602504  0.4024863989397502   F   F   F
  0.5847735850602547  0.5830036250602504  0.4024863989397502   F   F   F
  0.5127353896841288  0.6588059226085966  0.3861215749805864   T   T   T
  0.5119103006726474  0.7329476850534397  0.4744892346205006   T   T   T
  0.3971413837715392  0.6770028540161870  0.5522588175665830   T   T   T
  0.6605311250029909  0.4229198962304948  0.4740173399491188   T   T   T
  0.3965992896014719  0.3465310482321069  0.3967458730293502   T   T   T
  0.3478879613883435  0.5889545754094174  0.3580816017737319   T   T   T
  0.4356676291808060  0.3947692337991430  0.6394531520332326   T   T   T
  0.6773195430830109  0.4333028471036931  0.5907726964043333   T   T   T
  0.5847735850602547  0.5830036250602504  0.5459335890602546   F   F   F
  0.5126259113243117  0.4510989425049413  0.3288284826571437   T   T   T
  0.5130500200000014  0.5112799999999993  0.4014512617386430   F   F   F
  0.6289230671343333  0.6761417955593004  0.5526772551275199   T   T   T
  0.5130942898342421  0.5721707572868253  0.6171046070237892   T   T   T
  0.4413263949397503  0.5830036250602504  0.5459335890602546   F   F   F
  0.4257621659084114  0.5116151633003994  0.6220859244471852   T   T   T
  0.6009069808549636  0.5114956111527197  0.3267887169479365   T   T   T
  0.6289185290661931  0.3462363188789402  0.3962005501893038   T   T   T
  0.5847735850602547  0.4395563749397482  0.5459335890602546   F   F   F
  0.3491308461677647  0.5890718498802860  0.5915215500500614   T   T   T
  0.5139192635048768  0.2906421123788740  0.4749750853504034   T   T   T
  0.6769091875349141  0.5887033219286008  0.5915082205458860   T   T   T
  0.3968894970962466  0.3461136235802974  0.5523692473192755   T   T   T
  0.5127827434173079  0.5714815621439321  0.3282668494083824   T   T   T
  0.6293020808570732  0.6767445964577358  0.3971663531295953   T   T   T
  0.5903931556795735  0.6285163702399148  0.3099249229973345   T   T   T
  0.5729789008063536  0.3658842996220689  0.4742004354141633   T   T   T
  0.4402912577386431  0.5112799999999993  0.4742099939999989   F   F   F
  0.5724731114199644  0.6573382874025998  0.4745003895379604   T   T   T
  0.5884949233406577  0.6273198537226411  0.6410429021177362   T   T   T
  0.5128277177641559  0.3631616605663839  0.3859787541641400   T   T   T
  0.4349478302522445  0.3949462786115252  0.3095374737595959   T   T   T
  0.5902086455324463  0.3944509377205285  0.6394202284313167   T   T   T
  0.5131173839769883  0.4513255660847711  0.6197601086935695   T   T   T
  0.7339515288901042  0.5121050699064380  0.4737123393722685   T   T   T
  0.3670385173318583  0.5113026077976878  0.4146215246139452   T   T   T
  0.5219487500388149  0.5980791012518020  0.6928557694599693   T   T   T
 
  0.00000000E+00  0.00000000E+00  0.00000000E+00
  0.00000000E+00  0.00000000E+00  0.00000000E+00
  0.00000000E+00  0.00000000E+00  0.00000000E+00
  0.00000000E+00  0.00000000E+00  0.00000000E+00
  0.00000000E+00  0.00000000E+00  0.00000000E+00
  0.00000000E+00  0.00000000E+00  0.00000000E+00
  0.00000000E+00  0.00000000E+00  0.00000000E+00
  0.00000000E+00  0.00000000E+00  0.00000000E+00
  0.00000000E+00  0.00000000E+00  0.00000000E+00
  0.00000000E+00  0.00000000E+00  0.00000000E+00
  0.00000000E+00  0.00000000E+00  0.00000000E+00
  0.00000000E+00  0.00000000E+00  0.00000000E+00
  0.00000000E+00  0.00000000E+00  0.00000000E+00
  0.00000000E+00  0.00000000E+00  0.00000000E+00
  0.00000000E+00  0.00000000E+00  0.00000000E+00
  0.00000000E+00  0.00000000E+00  0.00000000E+00
  0.00000000E+00  0.00000000E+00  0.00000000E+00
  0.00000000E+00  0.00000000E+00  0.00000000E+00
  0.00000000E+00  0.00000000E+00  0.00000000E+00
  0.00000000E+00  0.00000000E+00  0.00000000E+00
  0.00000000E+00  0.00000000E+00  0.00000000E+00
  0.00000000E+00  0.00000000E+00  0.00000000E+00
  0.00000000E+00  0.00000000E+00  0.00000000E+00
  0.00000000E+00  0.00000000E+00  0.00000000E+00
  0.00000000E+00  0.00000000E+00  0.00000000E+00
  0.00000000E+00  0.00000000E+00  0.00000000E+00
  0.00000000E+00  0.00000000E+00  0.00000000E+00
  0.00000000E+00  0.00000000E+00  0.00000000E+00
  0.00000000E+00  0.00000000E+00  0.00000000E+00
  0.00000000E+00  0.00000000E+00  0.00000000E+00
  0.00000000E+00  0.00000000E+00  0.00000000E+00
  0.00000000E+00  0.00000000E+00  0.00000000E+00
  0.00000000E+00  0.00000000E+00  0.00000000E+00
  0.00000000E+00  0.00000000E+00  0.00000000E+00
  0.00000000E+00  0.00000000E+00  0.00000000E+00
  0.00000000E+00  0.00000000E+00  0.00000000E+00
  0.00000000E+00  0.00000000E+00  0.00000000E+00
  0.00000000E+00  0.00000000E+00  0.00000000E+00
  0.00000000E+00  0.00000000E+00  0.00000000E+00
  0.00000000E+00  0.00000000E+00  0.00000000E+00
  0.00000000E+00  0.00000000E+00  0.00000000E+00
  0.00000000E+00  0.00000000E+00  0.00000000E+00
  0.00000000E+00  0.00000000E+00  0.00000000E+00
  0.00000000E+00  0.00000000E+00  0.00000000E+00
  0.00000000E+00  0.00000000E+00  0.00000000E+00
  0.00000000E+00  0.00000000E+00  0.00000000E+00
  0.00000000E+00  0.00000000E+00  0.00000000E+00
  0.00000000E+00  0.00000000E+00  0.00000000E+00
  0.00000000E+00  0.00000000E+00  0.00000000E+00
  0.00000000E+00  0.00000000E+00  0.00000000E+00
  0.00000000E+00  0.00000000E+00  0.00000000E+00
  0.00000000E+00  0.00000000E+00  0.00000000E+00
  0.00000000E+00  0.00000000E+00  0.00000000E+00
  0.00000000E+00  0.00000000E+00  0.00000000E+00
  0.00000000E+00  0.00000000E+00  0.00000000E+00
  0.00000000E+00  0.00000000E+00  0.00000000E+00
  0.00000000E+00  0.00000000E+00  0.00000000E+00
  0.00000000E+00  0.00000000E+00  0.00000000E+00
  0.00000000E+00  0.00000000E+00  0.00000000E+00
  0.00000000E+00  0.00000000E+00  0.00000000E+00
  0.00000000E+00  0.00000000E+00  0.00000000E+00
  0.00000000E+00  0.00000000E+00  0.00000000E+00
  0.00000000E+00  0.00000000E+00  0.00000000E+00
  0.00000000E+00  0.00000000E+00  0.00000000E+00
  0.00000000E+00  0.00000000E+00  0.00000000E+00
  0.00000000E+00  0.00000000E+00  0.00000000E+00
  0.00000000E+00  0.00000000E+00  0.00000000E+00
  0.00000000E+00  0.00000000E+00  0.00000000E+00
  0.00000000E+00  0.00000000E+00  0.00000000E+00
