La H                                    
   1.00000000000000     
    29.0000000000000000    0.0000000000000000    0.0000000000000000
     0.0000000000000000   29.0000000000000000    0.0000000000000000
     0.0000000000000000    0.0000000000000000   29.0000000000000000
   La   H 
    68     1
Selective dynamics
Direct
  0.5129594366073091  0.5114529256920608  0.6898854034100393   T   T   T
  0.3670075791035650  0.6560981709180727  0.4046663564480922   T   T   T
  0.3666808952771278  0.5839754189436750  0.4739011421288154   T   T   T
  0.5847735850602547  0.4395563749397482  0.4024863989397502   F   F   F
  0.4413263949397503  0.4395563749397482  0.5459335890602546   F   F   F
  0.6595184228516093  0.5838971737455660  0.4742898515806461   T   T   T
  0.4408254878069165  0.5119756443836039  0.3279808912024061   T   T   T
  0.4404235947762247  0.3647832915727507  0.4739147738386481   T   T   T
  0.5857615031848001  0.5110523592747805  0.6207493791981020   T   T   T
  0.3675443285861783  0.4421540698550442  0.6198928031814355   T   T   T
  0.5130993538402792  0.6577875543690066  0.5468329765988026   T   T   T
  0.5821154685361514  0.3659657406953474  0.3283126773064822   T   T   T
  0.4403903834325171  0.6578820631044561  0.4741547785880640   T   T   T
  0.4440849423472130  0.6575557940019596  0.3293206991235499   T   T   T
  0.6595217841531139  0.5114529024509609  0.5468250595696085   T   T   T
  0.6584444451327339  0.5808192558482077  0.3286373246206431   T   T   T
  0.6590543108321629  0.3661441213982545  0.5433981857779600   T   T   T
  0.5130500200000014  0.4385212377386409  0.4742099939999989   F   F   F
  0.3668335284241394  0.4385847149733229  0.4743970062080528   T   T   T
  0.5130500200000014  0.5840387622613576  0.4742099939999989   F   F   F
  0.5130500200000014  0.5112799999999993  0.5469687262613618   F   F   F
  0.4440702701973821  0.6574752752627404  0.6192687536574373   T   T   T
  0.5858087222613619  0.5112799999999993  0.4742099939999989   F   F   F
  0.5131767355621802  0.3649468006898562  0.5467565294685152   T   T   T
  0.2976316071879971  0.5116389650910480  0.4745407505710675   T   T   T
  0.3666896477707570  0.5115519866196474  0.5467841876650313   T   T   T
  0.5124160339043580  0.5110388729487098  0.2584531106488834   T   T   T
  0.3712320937842776  0.4428253965597099  0.3245343538782200   T   T   T
  0.6588326250747591  0.4421810227623105  0.3288715204109077   T   T   T
  0.6596640944583577  0.5114948550341338  0.4015668303610261   T   T   T
  0.4413263949397503  0.4395563749397482  0.4024863989397502   F   F   F
  0.4413263949397503  0.5830036250602504  0.4024863989397502   F   F   F
  0.5847735850602547  0.5830036250602504  0.4024863989397502   F   F   F
  0.5132134258643365  0.6579395730673780  0.4017199206854841   T   T   T
  0.5129743306788315  0.7272706207887902  0.4741091541388702   T   T   T
  0.3674991517657475  0.6566973155517605  0.5433895761174796   T   T   T
  0.6595238541326163  0.4386950522563497  0.4741223321780589   T   T   T
  0.3661999415610954  0.3661463671840505  0.4037415433899709   T   T   T
  0.3679406263701496  0.5802986277953898  0.3280524796487080   T   T   T
  0.4437365911785421  0.3657411159853668  0.6196931271947572   T   T   T
  0.6591565033250069  0.4421768731293666  0.6193105647839937   T   T   T
  0.5847735850602547  0.5830036250602504  0.5459335890602546   F   F   F
  0.5127759901545751  0.4386869801217062  0.3278168263890293   T   T   T
  0.5130500200000014  0.5112799999999993  0.4014512617386430   F   F   F
  0.6587882979561773  0.6567454958774074  0.5434301917448827   T   T   T
  0.5129896751080140  0.5839450785979751  0.6206763903287731   T   T   T
  0.4413263949397503  0.5830036250602504  0.5459335890602546   F   F   F
  0.4404824635418879  0.5111344933312451  0.6206357804093766   T   T   T
  0.5856434485141288  0.5110820081805784  0.3277679959829690   T   T   T
  0.6583939616283663  0.3656682812739530  0.4047131007163643   T   T   T
  0.5847735850602547  0.4395563749397482  0.5459335890602546   F   F   F
  0.3684596604152635  0.5804781989582271  0.6207183764253575   T   T   T
  0.5129686398820287  0.2957839154620244  0.4744347798956905   T   T   T
  0.6582302469255383  0.5805077275018360  0.6200680641729323   T   T   T
  0.3673723230035058  0.3658286275127668  0.5437627550315118   T   T   T
  0.5133435387637318  0.5841198673791415  0.3278350971388079   T   T   T
  0.6587383076003664  0.6568628659163407  0.4050339678373432   T   T   T
  0.5826187273947089  0.6572226632163298  0.3289081031888733   T   T   T
  0.5857507789301890  0.3647733857488742  0.4740665953479282   T   T   T
  0.4402912577386431  0.5112799999999993  0.4742099939999989   F   F   F
  0.5856097373603510  0.6576527821671867  0.4743588841552287   T   T   T
  0.5822658238437632  0.6568734415190247  0.6197057030453970   T   T   T
  0.5130242857399462  0.3648246363840186  0.4012974920229985   T   T   T
  0.4439274181440681  0.3661030924444015  0.3276127355926451   T   T   T
  0.5821807882771585  0.3663827157325050  0.6203209501021967   T   T   T
  0.5128544961853377  0.4386306177510534  0.6207645885733621   T   T   T
  0.7289323018661142  0.5112901025791698  0.4740400435915512   T   T   T
  0.3664892277778936  0.5106924478059497  0.4012677929029252   T   T   T
  0.3255486025954087  0.3043231960230128  0.3929971735615576   T   T   T
 
  0.00000000E+00  0.00000000E+00  0.00000000E+00
  0.00000000E+00  0.00000000E+00  0.00000000E+00
  0.00000000E+00  0.00000000E+00  0.00000000E+00
  0.00000000E+00  0.00000000E+00  0.00000000E+00
  0.00000000E+00  0.00000000E+00  0.00000000E+00
  0.00000000E+00  0.00000000E+00  0.00000000E+00
  0.00000000E+00  0.00000000E+00  0.00000000E+00
  0.00000000E+00  0.00000000E+00  0.00000000E+00
  0.00000000E+00  0.00000000E+00  0.00000000E+00
  0.00000000E+00  0.00000000E+00  0.00000000E+00
  0.00000000E+00  0.00000000E+00  0.00000000E+00
  0.00000000E+00  0.00000000E+00  0.00000000E+00
  0.00000000E+00  0.00000000E+00  0.00000000E+00
  0.00000000E+00  0.00000000E+00  0.00000000E+00
  0.00000000E+00  0.00000000E+00  0.00000000E+00
  0.00000000E+00  0.00000000E+00  0.00000000E+00
  0.00000000E+00  0.00000000E+00  0.00000000E+00
  0.00000000E+00  0.00000000E+00  0.00000000E+00
  0.00000000E+00  0.00000000E+00  0.00000000E+00
  0.00000000E+00  0.00000000E+00  0.00000000E+00
  0.00000000E+00  0.00000000E+00  0.00000000E+00
  0.00000000E+00  0.00000000E+00  0.00000000E+00
  0.00000000E+00  0.00000000E+00  0.00000000E+00
  0.00000000E+00  0.00000000E+00  0.00000000E+00
  0.00000000E+00  0.00000000E+00  0.00000000E+00
  0.00000000E+00  0.00000000E+00  0.00000000E+00
  0.00000000E+00  0.00000000E+00  0.00000000E+00
  0.00000000E+00  0.00000000E+00  0.00000000E+00
  0.00000000E+00  0.00000000E+00  0.00000000E+00
  0.00000000E+00  0.00000000E+00  0.00000000E+00
  0.00000000E+00  0.00000000E+00  0.00000000E+00
  0.00000000E+00  0.00000000E+00  0.00000000E+00
  0.00000000E+00  0.00000000E+00  0.00000000E+00
  0.00000000E+00  0.00000000E+00  0.00000000E+00
  0.00000000E+00  0.00000000E+00  0.00000000E+00
  0.00000000E+00  0.00000000E+00  0.00000000E+00
  0.00000000E+00  0.00000000E+00  0.00000000E+00
  0.00000000E+00  0.00000000E+00  0.00000000E+00
  0.00000000E+00  0.00000000E+00  0.00000000E+00
  0.00000000E+00  0.00000000E+00  0.00000000E+00
  0.00000000E+00  0.00000000E+00  0.00000000E+00
  0.00000000E+00  0.00000000E+00  0.00000000E+00
  0.00000000E+00  0.00000000E+00  0.00000000E+00
  0.00000000E+00  0.00000000E+00  0.00000000E+00
  0.00000000E+00  0.00000000E+00  0.00000000E+00
  0.00000000E+00  0.00000000E+00  0.00000000E+00
  0.00000000E+00  0.00000000E+00  0.00000000E+00
  0.00000000E+00  0.00000000E+00  0.00000000E+00
  0.00000000E+00  0.00000000E+00  0.00000000E+00
  0.00000000E+00  0.00000000E+00  0.00000000E+00
  0.00000000E+00  0.00000000E+00  0.00000000E+00
  0.00000000E+00  0.00000000E+00  0.00000000E+00
  0.00000000E+00  0.00000000E+00  0.00000000E+00
  0.00000000E+00  0.00000000E+00  0.00000000E+00
  0.00000000E+00  0.00000000E+00  0.00000000E+00
  0.00000000E+00  0.00000000E+00  0.00000000E+00
  0.00000000E+00  0.00000000E+00  0.00000000E+00
  0.00000000E+00  0.00000000E+00  0.00000000E+00
  0.00000000E+00  0.00000000E+00  0.00000000E+00
  0.00000000E+00  0.00000000E+00  0.00000000E+00
  0.00000000E+00  0.00000000E+00  0.00000000E+00
  0.00000000E+00  0.00000000E+00  0.00000000E+00
  0.00000000E+00  0.00000000E+00  0.00000000E+00
  0.00000000E+00  0.00000000E+00  0.00000000E+00
  0.00000000E+00  0.00000000E+00  0.00000000E+00
  0.00000000E+00  0.00000000E+00  0.00000000E+00
  0.00000000E+00  0.00000000E+00  0.00000000E+00
  0.00000000E+00  0.00000000E+00  0.00000000E+00
  0.00000000E+00  0.00000000E+00  0.00000000E+00
