La H                                    
   1.00000000000000     
    29.0000000000000000    0.0000000000000000    0.0000000000000000
     0.0000000000000000   29.0000000000000000    0.0000000000000000
     0.0000000000000000    0.0000000000000000   29.0000000000000000
   La   H 
    68     1
Selective dynamics
Direct
  0.5053283501745529  0.5105773654881511  0.6954420688074160   T   T   T
  0.3479364717907718  0.6267948770673269  0.3961546630391622   T   T   T
  0.3670940175659297  0.5706742984488795  0.4744526178388201   T   T   T
  0.5847735850602547  0.4395563749397482  0.4024863989397502   F   F   F
  0.4413263949397503  0.4395563749397482  0.5459335890602546   F   F   F
  0.6587474322893023  0.5711432189442862  0.4742219552783795   T   T   T
  0.4529612250497435  0.5109086470275155  0.3284952393259835   T   T   T
  0.4242397858342918  0.3635972437243206  0.4749202572839482   T   T   T
  0.5728833804023691  0.5111724510175218  0.6202497042695398   T   T   T
  0.3965437891738496  0.4374401386955937  0.6415427242747962   T   T   T
  0.5127511072618557  0.6566715040751492  0.5345774682205989   T   T   T
  0.5896754138794873  0.3443607681177458  0.3590288443612943   T   T   T
  0.4244461485940908  0.6583670419012030  0.4745025606480083   T   T   T
  0.4353042639032922  0.6759620660220774  0.3573117567150018   T   T   T
  0.6609486123941318  0.5112227430439689  0.5632714345204347   T   T   T
  0.6292719296289644  0.5894841926222301  0.3100961409622002   T   T   T
  0.6790290321714754  0.3950162611310784  0.5511193509696425   T   T   T
  0.5130500200000014  0.4385212377386409  0.4742099939999989   F   F   F
  0.3674099669934968  0.4515907693862235  0.4744354922289837   T   T   T
  0.5130500200000014  0.5840387622613576  0.4742099939999989   F   F   F
  0.5130500200000014  0.5112799999999993  0.5469687262613618   F   F   F
  0.4347206248236943  0.6737849340831328  0.5924469332659645   T   T   T
  0.5858087222613619  0.5112799999999993  0.4742099939999989   F   F   F
  0.5127293133666473  0.3659383312796982  0.5344252693078612   T   T   T
  0.2910726713154957  0.5106780605164769  0.4745340847953140   T   T   T
  0.3647424434278886  0.5112867369901963  0.5624279357136813   T   T   T
  0.5129552573776303  0.5102154152694672  0.2534565381867184   T   T   T
  0.3965117558408991  0.4332336032156863  0.3092267917771086   T   T   T
  0.6288029404773894  0.4319544587301236  0.3102828633714232   T   T   T
  0.6609281859678650  0.5109842235448113  0.3859558883758665   T   T   T
  0.4413263949397503  0.4395563749397482  0.4024863989397502   F   F   F
  0.4413263949397503  0.5830036250602504  0.4024863989397502   F   F   F
  0.5847735850602547  0.5830036250602504  0.4024863989397502   F   F   F
  0.5127585248001150  0.6564792960102491  0.4137762332275650   T   T   T
  0.5140082617918530  0.7316415289590628  0.4734742820941434   T   T   T
  0.3474226920500018  0.6260226631568432  0.5533064912020500   T   T   T
  0.6584221604779519  0.4511113496705623  0.4742315830336057   T   T   T
  0.3480282268409118  0.3950743724024985  0.3965491574752485   T   T   T
  0.3967107067890911  0.5885154738101860  0.3089380802498716   T   T   T
  0.4346392431720378  0.3485451933846032  0.5921413115518005   T   T   T
  0.6299393546184630  0.4333601661288422  0.6385159652056965   T   T   T
  0.5847735850602547  0.5830036250602504  0.5459335890602546   F   F   F
  0.5129152894494095  0.4223025238863134  0.3270813396787450   T   T   T
  0.5130500200000014  0.5112799999999993  0.4014512617386430   F   F   F
  0.6787012981714400  0.6273906733422363  0.5515498489566570   T   T   T
  0.5129164981687621  0.5990105794142943  0.6222152159823342   T   T   T
  0.4413263949397503  0.5830036250602504  0.5459335890602546   F   F   F
  0.4523552673080983  0.5111836625250238  0.6165262981428840   T   T   T
  0.5732220611635862  0.5109188936615974  0.3284563662272781   T   T   T
  0.6774281864562053  0.3937199319550140  0.3974542993223373   T   T   T
  0.5847735850602547  0.4395563749397482  0.5459335890602546   F   F   F
  0.3967128167741710  0.5848996498937858  0.6415788945419288   T   T   T
  0.5146213197684193  0.2902476430375385  0.4747646384598557   T   T   T
  0.6299510809550131  0.5887448638482946  0.6389490896669529   T   T   T
  0.3471626000468577  0.3968548636842067  0.5532801420582459   T   T   T
  0.5130873973065152  0.5992398819817979  0.3265384166699964   T   T   T
  0.6778152139316911  0.6280892188913161  0.3971226638977759   T   T   T
  0.5901131184102016  0.6772961867300757  0.3581204668279429   T   T   T
  0.6011907897294815  0.3636268793600808  0.4745112139297261   T   T   T
  0.4402912577386431  0.5112799999999993  0.4742099939999989   F   F   F
  0.6010519408225693  0.6583643425458600  0.4742709602016661   T   T   T
  0.5908771160537857  0.6759455918712288  0.5906295277970568   T   T   T
  0.5126224328438828  0.3655499688226947  0.4147588169436897   T   T   T
  0.4352920394558022  0.3459754758490994  0.3581134483682562   T   T   T
  0.5910186460332530  0.3462385357267904  0.5899297156797120   T   T   T
  0.5129921498688684  0.4232652762077739  0.6218665247681692   T   T   T
  0.7332129160538385  0.5106188016615681  0.4759800366443621   T   T   T
  0.3654675709005840  0.5110791220283759  0.3860403848470920   T   T   T
  0.4238584907292713  0.5079704425255036  0.6918214142288530   T   T   T
 
  0.00000000E+00  0.00000000E+00  0.00000000E+00
  0.00000000E+00  0.00000000E+00  0.00000000E+00
  0.00000000E+00  0.00000000E+00  0.00000000E+00
  0.00000000E+00  0.00000000E+00  0.00000000E+00
  0.00000000E+00  0.00000000E+00  0.00000000E+00
  0.00000000E+00  0.00000000E+00  0.00000000E+00
  0.00000000E+00  0.00000000E+00  0.00000000E+00
  0.00000000E+00  0.00000000E+00  0.00000000E+00
  0.00000000E+00  0.00000000E+00  0.00000000E+00
  0.00000000E+00  0.00000000E+00  0.00000000E+00
  0.00000000E+00  0.00000000E+00  0.00000000E+00
  0.00000000E+00  0.00000000E+00  0.00000000E+00
  0.00000000E+00  0.00000000E+00  0.00000000E+00
  0.00000000E+00  0.00000000E+00  0.00000000E+00
  0.00000000E+00  0.00000000E+00  0.00000000E+00
  0.00000000E+00  0.00000000E+00  0.00000000E+00
  0.00000000E+00  0.00000000E+00  0.00000000E+00
  0.00000000E+00  0.00000000E+00  0.00000000E+00
  0.00000000E+00  0.00000000E+00  0.00000000E+00
  0.00000000E+00  0.00000000E+00  0.00000000E+00
  0.00000000E+00  0.00000000E+00  0.00000000E+00
  0.00000000E+00  0.00000000E+00  0.00000000E+00
  0.00000000E+00  0.00000000E+00  0.00000000E+00
  0.00000000E+00  0.00000000E+00  0.00000000E+00
  0.00000000E+00  0.00000000E+00  0.00000000E+00
  0.00000000E+00  0.00000000E+00  0.00000000E+00
  0.00000000E+00  0.00000000E+00  0.00000000E+00
  0.00000000E+00  0.00000000E+00  0.00000000E+00
  0.00000000E+00  0.00000000E+00  0.00000000E+00
  0.00000000E+00  0.00000000E+00  0.00000000E+00
  0.00000000E+00  0.00000000E+00  0.00000000E+00
  0.00000000E+00  0.00000000E+00  0.00000000E+00
  0.00000000E+00  0.00000000E+00  0.00000000E+00
  0.00000000E+00  0.00000000E+00  0.00000000E+00
  0.00000000E+00  0.00000000E+00  0.00000000E+00
  0.00000000E+00  0.00000000E+00  0.00000000E+00
  0.00000000E+00  0.00000000E+00  0.00000000E+00
  0.00000000E+00  0.00000000E+00  0.00000000E+00
  0.00000000E+00  0.00000000E+00  0.00000000E+00
  0.00000000E+00  0.00000000E+00  0.00000000E+00
  0.00000000E+00  0.00000000E+00  0.00000000E+00
  0.00000000E+00  0.00000000E+00  0.00000000E+00
  0.00000000E+00  0.00000000E+00  0.00000000E+00
  0.00000000E+00  0.00000000E+00  0.00000000E+00
  0.00000000E+00  0.00000000E+00  0.00000000E+00
  0.00000000E+00  0.00000000E+00  0.00000000E+00
  0.00000000E+00  0.00000000E+00  0.00000000E+00
  0.00000000E+00  0.00000000E+00  0.00000000E+00
  0.00000000E+00  0.00000000E+00  0.00000000E+00
  0.00000000E+00  0.00000000E+00  0.00000000E+00
  0.00000000E+00  0.00000000E+00  0.00000000E+00
  0.00000000E+00  0.00000000E+00  0.00000000E+00
  0.00000000E+00  0.00000000E+00  0.00000000E+00
  0.00000000E+00  0.00000000E+00  0.00000000E+00
  0.00000000E+00  0.00000000E+00  0.00000000E+00
  0.00000000E+00  0.00000000E+00  0.00000000E+00
  0.00000000E+00  0.00000000E+00  0.00000000E+00
  0.00000000E+00  0.00000000E+00  0.00000000E+00
  0.00000000E+00  0.00000000E+00  0.00000000E+00
  0.00000000E+00  0.00000000E+00  0.00000000E+00
  0.00000000E+00  0.00000000E+00  0.00000000E+00
  0.00000000E+00  0.00000000E+00  0.00000000E+00
  0.00000000E+00  0.00000000E+00  0.00000000E+00
  0.00000000E+00  0.00000000E+00  0.00000000E+00
  0.00000000E+00  0.00000000E+00  0.00000000E+00
  0.00000000E+00  0.00000000E+00  0.00000000E+00
  0.00000000E+00  0.00000000E+00  0.00000000E+00
  0.00000000E+00  0.00000000E+00  0.00000000E+00
  0.00000000E+00  0.00000000E+00  0.00000000E+00
