La H                                    
   1.00000000000000     
    29.0000000000000000    0.0000000000000000    0.0000000000000000
     0.0000000000000000   29.0000000000000000    0.0000000000000000
     0.0000000000000000    0.0000000000000000   29.0000000000000000
   La   H 
    68     1
Selective dynamics
Direct
  0.5133311844918491  0.5120393510433912  0.6953685066632688   T   T   T
  0.3489714619568867  0.6277353204517458  0.3961934483612802   T   T   T
  0.3673851470961659  0.5714642176033734  0.4743549525746745   T   T   T
  0.5847735850602547  0.4395563749397482  0.4024863989397502   F   F   F
  0.4413263949397503  0.4395563749397482  0.5459335890602546   F   F   F
  0.6592291934053449  0.5708612654999136  0.4742437147689803   T   T   T
  0.4529021889269151  0.5111466198010814  0.3288253543720533   T   T   T
  0.4248208887114284  0.3635796355764405  0.4742765429448170   T   T   T
  0.5732476200679431  0.5108297714689178  0.6197455814120713   T   T   T
  0.3969919795818608  0.4335114910932197  0.6394111266512860   T   T   T
  0.5131037286837472  0.6568623562185348  0.5342834094624491   T   T   T
  0.5916578480873206  0.3455893352298824  0.3593510764865667   T   T   T
  0.4248842987893619  0.6592411809042051  0.4744409554600678   T   T   T
  0.4360853859958254  0.6760694546321376  0.3574298672679251   T   T   T
  0.6607205497818861  0.5109910351829348  0.5620826678468418   T   T   T
  0.6294457192168639  0.5893492523850637  0.3097571096155604   T   T   T
  0.6802602419220715  0.3943872509881159  0.5476061048574640   T   T   T
  0.5130500200000014  0.4385212377386409  0.4742099939999989   F   F   F
  0.3672518026117803  0.4510117251503685  0.4742780272219863   T   T   T
  0.5130500200000014  0.5840387622613576  0.4742099939999989   F   F   F
  0.5130500200000014  0.5112799999999993  0.5469687262613618   F   F   F
  0.4359590973722681  0.6755672770642703  0.5914842428121487   T   T   T
  0.5858087222613619  0.5112799999999993  0.4742099939999989   F   F   F
  0.5132574896334182  0.3655749297609783  0.5336894094084457   T   T   T
  0.2923596742006031  0.5114379532937673  0.4753766142721410   T   T   T
  0.3661215189374847  0.5110109406275811  0.5628643810619427   T   T   T
  0.5127502777910675  0.5115095123739393  0.2535328699138034   T   T   T
  0.3969121153717384  0.4333509596884171  0.3091275277427186   T   T   T
  0.6304949030600716  0.4328294304422440  0.3111140958708892   T   T   T
  0.6608619360997560  0.5110112515371888  0.3862626278389402   T   T   T
  0.4413263949397503  0.4395563749397482  0.4024863989397502   F   F   F
  0.4413263949397503  0.5830036250602504  0.4024863989397502   F   F   F
  0.5847735850602547  0.5830036250602504  0.4024863989397502   F   F   F
  0.5131415517317996  0.6568113062434976  0.4142996086531905   T   T   T
  0.5151740839250433  0.7314772202065856  0.4741244817304707   T   T   T
  0.3486890382399253  0.6268418231388133  0.5532335232089504   T   T   T
  0.6553603523615101  0.4505206561920723  0.4741509448104705   T   T   T
  0.3484473169612796  0.3944545298089359  0.3963332845105536   T   T   T
  0.3969361562029217  0.5886190037911413  0.3084148778669771   T   T   T
  0.4354424402528500  0.3460892010607873  0.5901122129499446   T   T   T
  0.6310130053795920  0.4325392934453566  0.6367978895248113   T   T   T
  0.5847735850602547  0.5830036250602504  0.5459335890602546   F   F   F
  0.5133907870212761  0.4226590308594299  0.3269518134736672   T   T   T
  0.5130500200000014  0.5112799999999993  0.4014512617386430   F   F   F
  0.6776346032486402  0.6279922082741570  0.5520452951150169   T   T   T
  0.5133533687096283  0.5993657253329220  0.6217114564832998   T   T   T
  0.4413263949397503  0.5830036250602504  0.5459335890602546   F   F   F
  0.4535478495959265  0.5108764693730541  0.6199664693478919   T   T   T
  0.5732685273012678  0.5111537356250606  0.3287264930516569   T   T   T
  0.6801201436977931  0.3950191064128530  0.3999973886307736   T   T   T
  0.5847735850602547  0.4395563749397482  0.5459335890602546   F   F   F
  0.3974141863367255  0.5879227895529034  0.6406365481986248   T   T   T
  0.5135882601396623  0.2893010717622885  0.4746846870196285   T   T   T
  0.6290537345392347  0.5890816280041653  0.6391150613071344   T   T   T
  0.3481404846508089  0.3947093643177383  0.5522348548491529   T   T   T
  0.5132741208101406  0.5994832366704640  0.3267387285367010   T   T   T
  0.6778905192468589  0.6282374711102944  0.3969530059058741   T   T   T
  0.5905496546896176  0.6772111026576069  0.3584509391092005   T   T   T
  0.6012022867820440  0.3630794479514129  0.4739654709555522   T   T   T
  0.4402912577386431  0.5112799999999993  0.4742099939999989   F   F   F
  0.6022148812753072  0.6589766788652094  0.4743804667229901   T   T   T
  0.5902159777169580  0.6770176657557625  0.5905264200666192   T   T   T
  0.5132013992309689  0.3653989278582343  0.4148323731121299   T   T   T
  0.4357484797585079  0.3459504928264830  0.3581041645852430   T   T   T
  0.5919819238930571  0.3452612434360106  0.5885368726139690   T   T   T
  0.5136334785315215  0.4223638447367765  0.6216819616829339   T   T   T
  0.7345588732346420  0.5029554967045186  0.4744011612579522   T   T   T
  0.3655658679226453  0.5111714377563396  0.3859735118901637   T   T   T
  0.7304663634997961  0.4215393821960646  0.4742888285461024   T   T   T
 
  0.00000000E+00  0.00000000E+00  0.00000000E+00
  0.00000000E+00  0.00000000E+00  0.00000000E+00
  0.00000000E+00  0.00000000E+00  0.00000000E+00
  0.00000000E+00  0.00000000E+00  0.00000000E+00
  0.00000000E+00  0.00000000E+00  0.00000000E+00
  0.00000000E+00  0.00000000E+00  0.00000000E+00
  0.00000000E+00  0.00000000E+00  0.00000000E+00
  0.00000000E+00  0.00000000E+00  0.00000000E+00
  0.00000000E+00  0.00000000E+00  0.00000000E+00
  0.00000000E+00  0.00000000E+00  0.00000000E+00
  0.00000000E+00  0.00000000E+00  0.00000000E+00
  0.00000000E+00  0.00000000E+00  0.00000000E+00
  0.00000000E+00  0.00000000E+00  0.00000000E+00
  0.00000000E+00  0.00000000E+00  0.00000000E+00
  0.00000000E+00  0.00000000E+00  0.00000000E+00
  0.00000000E+00  0.00000000E+00  0.00000000E+00
  0.00000000E+00  0.00000000E+00  0.00000000E+00
  0.00000000E+00  0.00000000E+00  0.00000000E+00
  0.00000000E+00  0.00000000E+00  0.00000000E+00
  0.00000000E+00  0.00000000E+00  0.00000000E+00
  0.00000000E+00  0.00000000E+00  0.00000000E+00
  0.00000000E+00  0.00000000E+00  0.00000000E+00
  0.00000000E+00  0.00000000E+00  0.00000000E+00
  0.00000000E+00  0.00000000E+00  0.00000000E+00
  0.00000000E+00  0.00000000E+00  0.00000000E+00
  0.00000000E+00  0.00000000E+00  0.00000000E+00
  0.00000000E+00  0.00000000E+00  0.00000000E+00
  0.00000000E+00  0.00000000E+00  0.00000000E+00
  0.00000000E+00  0.00000000E+00  0.00000000E+00
  0.00000000E+00  0.00000000E+00  0.00000000E+00
  0.00000000E+00  0.00000000E+00  0.00000000E+00
  0.00000000E+00  0.00000000E+00  0.00000000E+00
  0.00000000E+00  0.00000000E+00  0.00000000E+00
  0.00000000E+00  0.00000000E+00  0.00000000E+00
  0.00000000E+00  0.00000000E+00  0.00000000E+00
  0.00000000E+00  0.00000000E+00  0.00000000E+00
  0.00000000E+00  0.00000000E+00  0.00000000E+00
  0.00000000E+00  0.00000000E+00  0.00000000E+00
  0.00000000E+00  0.00000000E+00  0.00000000E+00
  0.00000000E+00  0.00000000E+00  0.00000000E+00
  0.00000000E+00  0.00000000E+00  0.00000000E+00
  0.00000000E+00  0.00000000E+00  0.00000000E+00
  0.00000000E+00  0.00000000E+00  0.00000000E+00
  0.00000000E+00  0.00000000E+00  0.00000000E+00
  0.00000000E+00  0.00000000E+00  0.00000000E+00
  0.00000000E+00  0.00000000E+00  0.00000000E+00
  0.00000000E+00  0.00000000E+00  0.00000000E+00
  0.00000000E+00  0.00000000E+00  0.00000000E+00
  0.00000000E+00  0.00000000E+00  0.00000000E+00
  0.00000000E+00  0.00000000E+00  0.00000000E+00
  0.00000000E+00  0.00000000E+00  0.00000000E+00
  0.00000000E+00  0.00000000E+00  0.00000000E+00
  0.00000000E+00  0.00000000E+00  0.00000000E+00
  0.00000000E+00  0.00000000E+00  0.00000000E+00
  0.00000000E+00  0.00000000E+00  0.00000000E+00
  0.00000000E+00  0.00000000E+00  0.00000000E+00
  0.00000000E+00  0.00000000E+00  0.00000000E+00
  0.00000000E+00  0.00000000E+00  0.00000000E+00
  0.00000000E+00  0.00000000E+00  0.00000000E+00
  0.00000000E+00  0.00000000E+00  0.00000000E+00
  0.00000000E+00  0.00000000E+00  0.00000000E+00
  0.00000000E+00  0.00000000E+00  0.00000000E+00
  0.00000000E+00  0.00000000E+00  0.00000000E+00
  0.00000000E+00  0.00000000E+00  0.00000000E+00
  0.00000000E+00  0.00000000E+00  0.00000000E+00
  0.00000000E+00  0.00000000E+00  0.00000000E+00
  0.00000000E+00  0.00000000E+00  0.00000000E+00
  0.00000000E+00  0.00000000E+00  0.00000000E+00
  0.00000000E+00  0.00000000E+00  0.00000000E+00
