La Co Ni Sn Bi C  O  H                  
   1.00000000000000     
    29.1044006348000011    0.0000000000000000    0.0000000000000000
     0.4451680315000000   28.3694074727000007    0.0000000000000000
     0.0682082826000000    0.3036559964000000   28.5240018092999996
   La   Co   Ni   Sn   Bi   C    O    H 
    14    13    13    14    14     1     2     1
Selective dynamics
Direct
  0.5922528112677539  0.4201006145337139  0.4082215822848111   T   T   T
  0.6847803169711973  0.5712206957407053  0.3801856609451364   T   T   T
  0.4966015507386197  0.5200743508713974  0.2797855797631643   T   T   T
  0.5625740984190502  0.5217993471307357  0.6020520673191153   T   T   T
  0.5090253562796628  0.3854329596390085  0.3057367068702271   T   T   T
  0.5744920801889646  0.6560564280964848  0.4855656721143969   T   T   T
  0.5087676322111135  0.3382084122200626  0.4998779863466207   T   T   T
  0.5383719756567907  0.6381713145966239  0.3766542101231373   T   T   T
  0.4354208173617449  0.6431949424788896  0.5351874278926382   T   T   T
  0.4373551010143757  0.5015757590148624  0.3842817269995109   F   F   F
  0.4437846394494898  0.4460183835780285  0.5005161578087822   F   F   F
  0.3873508333215558  0.4670720318094219  0.6097035082167535   T   T   T
  0.3449680389506380  0.4432254498362236  0.3463229968564434   T   T   T
  0.3630863731528677  0.5865174830326715  0.3905982825315105   T   T   T
  0.4217425606853311  0.4061295180575186  0.3699802678458894   F   F   F
  0.5011311695957161  0.4887203336762909  0.4395023580252015   F   F   F
  0.4044148221271726  0.6101724300038001  0.4624736492929173   F   F   F
  0.4722931245665194  0.5596737886932672  0.5729988711091565   F   F   F
  0.6552684236953183  0.5165424048424470  0.4543399438695133   F   F   F
  0.5967309916701211  0.5535378348504167  0.5056109707055541   F   F   F
  0.5314074673932367  0.5941153005651714  0.5336729985293047   F   F   F
  0.5796732686089143  0.4997731718447866  0.4507473928409595   F   F   F
  0.4612701179739160  0.3305683838996475  0.3453202903918979   T   T   T
  0.3905180950192175  0.5252419063175111  0.4552418453041511   F   F   F
  0.4546781039656891  0.3245485813490138  0.4248395463644735   T   T   T
  0.5074804872141527  0.4592780196109629  0.3501259710292359   F   F   F
  0.6012877811302459  0.4669891268301640  0.5212355700313438   F   F   F
  0.5384608035519776  0.4312182275275163  0.4821288228790692   F   F   F
  0.4713083414346286  0.4805797151798927  0.5807598339419258   F   F   F
  0.3771163837573610  0.4514853175274567  0.4282230665427278   F   F   F
  0.4059018739390154  0.3822235888080883  0.4561785915149272   F   F   F
  0.5357818896390683  0.5680835373033233  0.4543473312664048   F   F   F
  0.4924712632432886  0.6367287407321953  0.4646113344718685   F   F   F
  0.4677327221812249  0.5829886973614862  0.4038343643763724   F   F   F
  0.5280944416629296  0.5063826634733033  0.5194466411805863   F   F   F
  0.6212454441397384  0.5105019604624417  0.3755946010283822   F   F   F
  0.6054499763524817  0.5821019035045651  0.4188664505762958   F   F   F
  0.4050790883739026  0.5245211222763402  0.5434909784116542   F   F   F
  0.3501096449857004  0.4709855788973736  0.5084585874030207   T   T   T
  0.4340561481356216  0.4547795201776169  0.3016146701519989   T   T   T
  0.5381542459899809  0.4219466985553964  0.5691734897636671   T   T   T
  0.3575753620625486  0.3879822988460094  0.5392248627013986   T   T   T
  0.4625951421883201  0.5516617238622956  0.4875128022361963   F   F   F
  0.6065431224578047  0.3750869109322358  0.5110990052639782   T   T   T
  0.4919480261379214  0.4395284383846358  0.6580896648346508   T   T   T
  0.5887388553303525  0.4654469461285637  0.3071323127301330   T   T   T
  0.4900497958562298  0.4037080615820798  0.4151644571778519   F   F   F
  0.4372291538825944  0.6737672917003360  0.4112752882442346   T   T   T
  0.4687319551533285  0.5379256338559778  0.6601034030320188   T   T   T
  0.5397532608265934  0.5319899791087650  0.3771480104995177   F   F   F
  0.6678744598717343  0.6009155704536946  0.4828113114999630   T   T   T
  0.6659326225273775  0.5189718063672629  0.5499654701439826   T   T   T
  0.3752510425665835  0.3344231122213506  0.3854261188575959   T   T   T
  0.6785448003088412  0.4363019139283253  0.4864822924393176   T   T   T
  0.5399409781577058  0.3182878459739146  0.3928043516901198   T   T   T
  0.3032825094815817  0.5041649399693304  0.4349475190148991   T   T   T
  0.3134063043768514  0.3959529892643824  0.4488697920344691   T   T   T
  0.5124786510609556  0.6260454574926947  0.6160435794121309   T   T   T
  0.4488626590314743  0.3748432084436905  0.5858607546196453   T   T   T
  0.3902899554397438  0.5802498899785509  0.6129783421711157   T   T   T
  0.4051823637038151  0.3061141769516811  0.5020571685100107   T   T   T
  0.4025310597210031  0.3696162649204086  0.2872132608298727   T   T   T
  0.3854833027122407  0.5312580669245422  0.2901357824651603   T   T   T
  0.6924708544006425  0.4601833770690929  0.3872262303980625   T   T   T
  0.3374964673425305  0.5722122628966667  0.5121185861428199   T   T   T
  0.5985888959483907  0.5707944994253497  0.3064014838919465   T   T   T
  0.6130968819734042  0.6139052323004814  0.5761017396577456   T   T   T
  0.4487131966072440  0.6096553548112829  0.3221636634925304   T   T   T
  0.3723361483430587  0.6450685442646185  0.3064209899555299   T   T   T
  0.3364387454355284  0.6493572850993958  0.3301112549035540   T   T   T
  0.3755521604309997  0.6660052596534902  0.2637256973958522   T   T   T
  0.3457719197519626  0.6818117689727639  0.2569439692262038   T   T   T
 
  0.00000000E+00  0.00000000E+00  0.00000000E+00
  0.00000000E+00  0.00000000E+00  0.00000000E+00
  0.00000000E+00  0.00000000E+00  0.00000000E+00
  0.00000000E+00  0.00000000E+00  0.00000000E+00
  0.00000000E+00  0.00000000E+00  0.00000000E+00
  0.00000000E+00  0.00000000E+00  0.00000000E+00
  0.00000000E+00  0.00000000E+00  0.00000000E+00
  0.00000000E+00  0.00000000E+00  0.00000000E+00
  0.00000000E+00  0.00000000E+00  0.00000000E+00
  0.00000000E+00  0.00000000E+00  0.00000000E+00
  0.00000000E+00  0.00000000E+00  0.00000000E+00
  0.00000000E+00  0.00000000E+00  0.00000000E+00
  0.00000000E+00  0.00000000E+00  0.00000000E+00
  0.00000000E+00  0.00000000E+00  0.00000000E+00
  0.00000000E+00  0.00000000E+00  0.00000000E+00
  0.00000000E+00  0.00000000E+00  0.00000000E+00
  0.00000000E+00  0.00000000E+00  0.00000000E+00
  0.00000000E+00  0.00000000E+00  0.00000000E+00
  0.00000000E+00  0.00000000E+00  0.00000000E+00
  0.00000000E+00  0.00000000E+00  0.00000000E+00
  0.00000000E+00  0.00000000E+00  0.00000000E+00
  0.00000000E+00  0.00000000E+00  0.00000000E+00
  0.00000000E+00  0.00000000E+00  0.00000000E+00
  0.00000000E+00  0.00000000E+00  0.00000000E+00
  0.00000000E+00  0.00000000E+00  0.00000000E+00
  0.00000000E+00  0.00000000E+00  0.00000000E+00
  0.00000000E+00  0.00000000E+00  0.00000000E+00
  0.00000000E+00  0.00000000E+00  0.00000000E+00
  0.00000000E+00  0.00000000E+00  0.00000000E+00
  0.00000000E+00  0.00000000E+00  0.00000000E+00
  0.00000000E+00  0.00000000E+00  0.00000000E+00
  0.00000000E+00  0.00000000E+00  0.00000000E+00
  0.00000000E+00  0.00000000E+00  0.00000000E+00
  0.00000000E+00  0.00000000E+00  0.00000000E+00
  0.00000000E+00  0.00000000E+00  0.00000000E+00
  0.00000000E+00  0.00000000E+00  0.00000000E+00
  0.00000000E+00  0.00000000E+00  0.00000000E+00
  0.00000000E+00  0.00000000E+00  0.00000000E+00
  0.00000000E+00  0.00000000E+00  0.00000000E+00
  0.00000000E+00  0.00000000E+00  0.00000000E+00
  0.00000000E+00  0.00000000E+00  0.00000000E+00
  0.00000000E+00  0.00000000E+00  0.00000000E+00
  0.00000000E+00  0.00000000E+00  0.00000000E+00
  0.00000000E+00  0.00000000E+00  0.00000000E+00
  0.00000000E+00  0.00000000E+00  0.00000000E+00
  0.00000000E+00  0.00000000E+00  0.00000000E+00
  0.00000000E+00  0.00000000E+00  0.00000000E+00
  0.00000000E+00  0.00000000E+00  0.00000000E+00
  0.00000000E+00  0.00000000E+00  0.00000000E+00
  0.00000000E+00  0.00000000E+00  0.00000000E+00
  0.00000000E+00  0.00000000E+00  0.00000000E+00
  0.00000000E+00  0.00000000E+00  0.00000000E+00
  0.00000000E+00  0.00000000E+00  0.00000000E+00
  0.00000000E+00  0.00000000E+00  0.00000000E+00
  0.00000000E+00  0.00000000E+00  0.00000000E+00
  0.00000000E+00  0.00000000E+00  0.00000000E+00
  0.00000000E+00  0.00000000E+00  0.00000000E+00
  0.00000000E+00  0.00000000E+00  0.00000000E+00
  0.00000000E+00  0.00000000E+00  0.00000000E+00
  0.00000000E+00  0.00000000E+00  0.00000000E+00
  0.00000000E+00  0.00000000E+00  0.00000000E+00
  0.00000000E+00  0.00000000E+00  0.00000000E+00
  0.00000000E+00  0.00000000E+00  0.00000000E+00
  0.00000000E+00  0.00000000E+00  0.00000000E+00
  0.00000000E+00  0.00000000E+00  0.00000000E+00
  0.00000000E+00  0.00000000E+00  0.00000000E+00
  0.00000000E+00  0.00000000E+00  0.00000000E+00
  0.00000000E+00  0.00000000E+00  0.00000000E+00
  0.00000000E+00  0.00000000E+00  0.00000000E+00
  0.00000000E+00  0.00000000E+00  0.00000000E+00
  0.00000000E+00  0.00000000E+00  0.00000000E+00
  0.00000000E+00  0.00000000E+00  0.00000000E+00
