La Co Ni Sn Bi C  O  H                  
   1.00000000000000     
    29.1044006348000011    0.0000000000000000    0.0000000000000000
     0.4451680315000000   28.3694074727000007    0.0000000000000000
     0.0682082826000000    0.3036559964000000   28.5240018092999996
   La   Co   Ni   Sn   Bi   C    O    H 
    14    13    13    14    14     1     2     1
Selective dynamics
Direct
  0.5923270195545848  0.4210937818044189  0.4069131056920393   T   T   T
  0.6850680502829138  0.5721821552994947  0.3810305498720353   T   T   T
  0.4949436797317662  0.5277786098766741  0.2825830630161127   T   T   T
  0.5625908052106974  0.5217339993660994  0.6018528725844782   T   T   T
  0.5086389402191004  0.3867834780892394  0.3055334327596095   T   T   T
  0.5752406514718327  0.6555234343576192  0.4838441605329694   T   T   T
  0.5067630119272351  0.3379861353553440  0.4999353148541559   T   T   T
  0.5351338250310461  0.6376122644121518  0.3753109851273402   T   T   T
  0.4359948378257061  0.6434913027034370  0.5356007258704082   T   T   T
  0.4373551010143757  0.5015757590148624  0.3842817269995109   F   F   F
  0.4437846394494898  0.4460183835780285  0.5005161578087822   F   F   F
  0.3871987865825418  0.4673543070482390  0.6095558514407377   T   T   T
  0.3443443138716376  0.4441698615072215  0.3469163607696101   T   T   T
  0.3617823731716915  0.5853570247732552  0.3939421645752063   T   T   T
  0.4217425606853311  0.4061295180575186  0.3699802678458894   F   F   F
  0.5011311695957161  0.4887203336762909  0.4395023580252015   F   F   F
  0.4044148221271726  0.6101724300038001  0.4624736492929173   F   F   F
  0.4722931245665194  0.5596737886932672  0.5729988711091565   F   F   F
  0.6552684236953183  0.5165424048424470  0.4543399438695133   F   F   F
  0.5967309916701211  0.5535378348504167  0.5056109707055541   F   F   F
  0.5314074673932367  0.5941153005651714  0.5336729985293047   F   F   F
  0.5796732686089143  0.4997731718447866  0.4507473928409595   F   F   F
  0.4613731053645359  0.3313677251001967  0.3438017372265242   T   T   T
  0.3905180950192175  0.5252419063175111  0.4552418453041511   F   F   F
  0.4538954042797604  0.3247171792819415  0.4232111353783674   T   T   T
  0.5074804872141527  0.4592780196109629  0.3501259710292359   F   F   F
  0.6012877811302459  0.4669891268301640  0.5212355700313438   F   F   F
  0.5384608035519776  0.4312182275275163  0.4821288228790692   F   F   F
  0.4713083414346286  0.4805797151798927  0.5807598339419258   F   F   F
  0.3771163837573610  0.4514853175274567  0.4282230665427278   F   F   F
  0.4059018739390154  0.3822235888080883  0.4561785915149272   F   F   F
  0.5357818896390683  0.5680835373033233  0.4543473312664048   F   F   F
  0.4924712632432886  0.6367287407321953  0.4646113344718685   F   F   F
  0.4677327221812249  0.5829886973614862  0.4038343643763724   F   F   F
  0.5280944416629296  0.5063826634733033  0.5194466411805863   F   F   F
  0.6212454441397384  0.5105019604624417  0.3755946010283822   F   F   F
  0.6054499763524817  0.5821019035045651  0.4188664505762958   F   F   F
  0.4050790883739026  0.5245211222763402  0.5434909784116542   F   F   F
  0.3507137401218116  0.4702600159041516  0.5087923970215175   T   T   T
  0.4336027097412816  0.4573451817751790  0.3019811967092028   T   T   T
  0.5384817738950950  0.4219072559286257  0.5685626197971267   T   T   T
  0.3578389717003275  0.3872803469136575  0.5400461371745112   T   T   T
  0.4625951421883201  0.5516617238622956  0.4875128022361963   F   F   F
  0.6044637138898246  0.3726447552472498  0.5084082532357922   T   T   T
  0.4921128719456377  0.4390373857909977  0.6579162552300654   T   T   T
  0.5868123676627512  0.4678752090650689  0.3058650356113953   T   T   T
  0.4900497958562298  0.4037080615820798  0.4151644571778519   F   F   F
  0.4354179599308788  0.6746848193925076  0.4128538979379814   T   T   T
  0.4681948089187170  0.5370137942725155  0.6601317840614931   T   T   T
  0.5397532608265934  0.5319899791087650  0.3771480104995177   F   F   F
  0.6684394680803756  0.6001513968513824  0.4837984378542671   T   T   T
  0.6659942790103499  0.5182950637869862  0.5494257196192515   T   T   T
  0.3745788262434114  0.3347520220323122  0.3846522100857310   T   T   T
  0.6732827022145847  0.4348088362639336  0.4823524642372410   T   T   T
  0.5398542977972761  0.3191398047701091  0.3925686065823334   T   T   T
  0.3022612165272036  0.5027589988424847  0.4366176171384555   T   T   T
  0.3134964926006663  0.3955964244925025  0.4497667091263365   T   T   T
  0.5123040203830623  0.6251710886653619  0.6168487906992400   T   T   T
  0.4486661557669616  0.3749369203394627  0.5859417713461211   T   T   T
  0.3905232855991053  0.5806740135636947  0.6130414698635233   T   T   T
  0.4032513991891802  0.3053567592885100  0.5001864822464968   T   T   T
  0.4022416617153831  0.3718912929202468  0.2869276533803599   T   T   T
  0.3835307306673793  0.5337751300189385  0.2925146641520202   T   T   T
  0.6938024463560628  0.4619469495470417  0.3861889200873951   T   T   T
  0.3376468158714244  0.5720849337834117  0.5127863122216755   T   T   T
  0.5993698830122132  0.5725029964637253  0.3077561891711743   T   T   T
  0.6130699590713281  0.6139949754081216  0.5754500763859567   T   T   T
  0.4398466386459499  0.6154119167406242  0.3238764803828639   T   T   T
  0.7438287391069334  0.4114180643522153  0.5028306688361458   T   T   T
  0.7788677785590935  0.4252709809723788  0.4838628090549588   T   T   T
  0.7441968102819146  0.3768687524205062  0.5370456448770663   T   T   T
  0.7766894392853184  0.3674400153355283  0.5414948896337121   T   T   T
 
  0.00000000E+00  0.00000000E+00  0.00000000E+00
  0.00000000E+00  0.00000000E+00  0.00000000E+00
  0.00000000E+00  0.00000000E+00  0.00000000E+00
  0.00000000E+00  0.00000000E+00  0.00000000E+00
  0.00000000E+00  0.00000000E+00  0.00000000E+00
  0.00000000E+00  0.00000000E+00  0.00000000E+00
  0.00000000E+00  0.00000000E+00  0.00000000E+00
  0.00000000E+00  0.00000000E+00  0.00000000E+00
  0.00000000E+00  0.00000000E+00  0.00000000E+00
  0.00000000E+00  0.00000000E+00  0.00000000E+00
  0.00000000E+00  0.00000000E+00  0.00000000E+00
  0.00000000E+00  0.00000000E+00  0.00000000E+00
  0.00000000E+00  0.00000000E+00  0.00000000E+00
  0.00000000E+00  0.00000000E+00  0.00000000E+00
  0.00000000E+00  0.00000000E+00  0.00000000E+00
  0.00000000E+00  0.00000000E+00  0.00000000E+00
  0.00000000E+00  0.00000000E+00  0.00000000E+00
  0.00000000E+00  0.00000000E+00  0.00000000E+00
  0.00000000E+00  0.00000000E+00  0.00000000E+00
  0.00000000E+00  0.00000000E+00  0.00000000E+00
  0.00000000E+00  0.00000000E+00  0.00000000E+00
  0.00000000E+00  0.00000000E+00  0.00000000E+00
  0.00000000E+00  0.00000000E+00  0.00000000E+00
  0.00000000E+00  0.00000000E+00  0.00000000E+00
  0.00000000E+00  0.00000000E+00  0.00000000E+00
  0.00000000E+00  0.00000000E+00  0.00000000E+00
  0.00000000E+00  0.00000000E+00  0.00000000E+00
  0.00000000E+00  0.00000000E+00  0.00000000E+00
  0.00000000E+00  0.00000000E+00  0.00000000E+00
  0.00000000E+00  0.00000000E+00  0.00000000E+00
  0.00000000E+00  0.00000000E+00  0.00000000E+00
  0.00000000E+00  0.00000000E+00  0.00000000E+00
  0.00000000E+00  0.00000000E+00  0.00000000E+00
  0.00000000E+00  0.00000000E+00  0.00000000E+00
  0.00000000E+00  0.00000000E+00  0.00000000E+00
  0.00000000E+00  0.00000000E+00  0.00000000E+00
  0.00000000E+00  0.00000000E+00  0.00000000E+00
  0.00000000E+00  0.00000000E+00  0.00000000E+00
  0.00000000E+00  0.00000000E+00  0.00000000E+00
  0.00000000E+00  0.00000000E+00  0.00000000E+00
  0.00000000E+00  0.00000000E+00  0.00000000E+00
  0.00000000E+00  0.00000000E+00  0.00000000E+00
  0.00000000E+00  0.00000000E+00  0.00000000E+00
  0.00000000E+00  0.00000000E+00  0.00000000E+00
  0.00000000E+00  0.00000000E+00  0.00000000E+00
  0.00000000E+00  0.00000000E+00  0.00000000E+00
  0.00000000E+00  0.00000000E+00  0.00000000E+00
  0.00000000E+00  0.00000000E+00  0.00000000E+00
  0.00000000E+00  0.00000000E+00  0.00000000E+00
  0.00000000E+00  0.00000000E+00  0.00000000E+00
  0.00000000E+00  0.00000000E+00  0.00000000E+00
  0.00000000E+00  0.00000000E+00  0.00000000E+00
  0.00000000E+00  0.00000000E+00  0.00000000E+00
  0.00000000E+00  0.00000000E+00  0.00000000E+00
  0.00000000E+00  0.00000000E+00  0.00000000E+00
  0.00000000E+00  0.00000000E+00  0.00000000E+00
  0.00000000E+00  0.00000000E+00  0.00000000E+00
  0.00000000E+00  0.00000000E+00  0.00000000E+00
  0.00000000E+00  0.00000000E+00  0.00000000E+00
  0.00000000E+00  0.00000000E+00  0.00000000E+00
  0.00000000E+00  0.00000000E+00  0.00000000E+00
  0.00000000E+00  0.00000000E+00  0.00000000E+00
  0.00000000E+00  0.00000000E+00  0.00000000E+00
  0.00000000E+00  0.00000000E+00  0.00000000E+00
  0.00000000E+00  0.00000000E+00  0.00000000E+00
  0.00000000E+00  0.00000000E+00  0.00000000E+00
  0.00000000E+00  0.00000000E+00  0.00000000E+00
  0.00000000E+00  0.00000000E+00  0.00000000E+00
  0.00000000E+00  0.00000000E+00  0.00000000E+00
  0.00000000E+00  0.00000000E+00  0.00000000E+00
  0.00000000E+00  0.00000000E+00  0.00000000E+00
  0.00000000E+00  0.00000000E+00  0.00000000E+00
