La Co Ni Sn Bi C  O  H                  
   1.00000000000000     
    29.1044006348000011    0.0000000000000000    0.0000000000000000
     0.4451680315000000   28.3694074727000007    0.0000000000000000
     0.0682082826000000    0.3036559964000000   28.5240018092999996
   La   Co   Ni   Sn   Bi   C    O    H 
    14    13    13    14    14     1     2     1
Selective dynamics
Direct
  0.5924167943678771  0.4205768167350405  0.4078570384142411   T   T   T
  0.6851365537841215  0.5715083599304350  0.3807658620830095   T   T   T
  0.4953578321974078  0.5279939332551384  0.2822646147723684   T   T   T
  0.5628747698624810  0.5229350343027098  0.6021214254116410   T   T   T
  0.5088397331157823  0.3869938145667797  0.3057442759334226   T   T   T
  0.5752442388889890  0.6556163522140417  0.4829530869818120   T   T   T
  0.5087387182216900  0.3394150722551924  0.5001187541327531   T   T   T
  0.5349854868410437  0.6375658566369857  0.3750344428423150   T   T   T
  0.4359253517903640  0.6436862844719283  0.5351611662711323   T   T   T
  0.4373551010143757  0.5015757590148624  0.3842817269995109   F   F   F
  0.4437846394494898  0.4460183835780285  0.5005161578087822   F   F   F
  0.3864418427527987  0.4678938351330744  0.6095419327359090   T   T   T
  0.3445252170582259  0.4440013280279724  0.3469970183569319   T   T   T
  0.3616687576685328  0.5845048067163633  0.3938675680172557   T   T   T
  0.4217425606853311  0.4061295180575186  0.3699802678458894   F   F   F
  0.5011311695957161  0.4887203336762909  0.4395023580252015   F   F   F
  0.4044148221271726  0.6101724300038001  0.4624736492929173   F   F   F
  0.4722931245665194  0.5596737886932672  0.5729988711091565   F   F   F
  0.6552684236953183  0.5165424048424470  0.4543399438695133   F   F   F
  0.5967309916701211  0.5535378348504167  0.5056109707055541   F   F   F
  0.5314074673932367  0.5941153005651714  0.5336729985293047   F   F   F
  0.5796732686089143  0.4997731718447866  0.4507473928409595   F   F   F
  0.4615005116045428  0.3313275491651345  0.3448254112578580   T   T   T
  0.3905180950192175  0.5252419063175111  0.4552418453041511   F   F   F
  0.4547251748476043  0.3246973460018411  0.4242496714694892   T   T   T
  0.5074804872141527  0.4592780196109629  0.3501259710292359   F   F   F
  0.6012877811302459  0.4669891268301640  0.5212355700313438   F   F   F
  0.5384608035519776  0.4312182275275163  0.4821288228790692   F   F   F
  0.4713083414346286  0.4805797151798927  0.5807598339419258   F   F   F
  0.3771163837573610  0.4514853175274567  0.4282230665427278   F   F   F
  0.4059018739390154  0.3822235888080883  0.4561785915149272   F   F   F
  0.5357818896390683  0.5680835373033233  0.4543473312664048   F   F   F
  0.4924712632432886  0.6367287407321953  0.4646113344718685   F   F   F
  0.4677327221812249  0.5829886973614862  0.4038343643763724   F   F   F
  0.5280944416629296  0.5063826634733033  0.5194466411805863   F   F   F
  0.6212454441397384  0.5105019604624417  0.3755946010283822   F   F   F
  0.6054499763524817  0.5821019035045651  0.4188664505762958   F   F   F
  0.4050790883739026  0.5245211222763402  0.5434909784116542   F   F   F
  0.3511224031384553  0.4698695079673543  0.5090462747440423   T   T   T
  0.4342255943894216  0.4569092023955283  0.3019557251956002   T   T   T
  0.5397551158875867  0.4228063659000407  0.5693259873487886   T   T   T
  0.3575084027539592  0.3867438791836847  0.5402989458614034   T   T   T
  0.4625951421883201  0.5516617238622956  0.4875128022361963   F   F   F
  0.6068669758033649  0.3750299958918096  0.5100017817699910   T   T   T
  0.4934356009465923  0.4397869221723700  0.6587948772981548   T   T   T
  0.5871685767583292  0.4677332886644858  0.3061887774934856   T   T   T
  0.4900497958562298  0.4037080615820798  0.4151644571778519   F   F   F
  0.4352310332778235  0.6743580861388455  0.4126638509675647   T   T   T
  0.4677362883555708  0.5372706289897593  0.6594099147582887   T   T   T
  0.5397532608265934  0.5319899791087650  0.3771480104995177   F   F   F
  0.6687254087308758  0.6004258949874683  0.4834741514330387   T   T   T
  0.6657855301684068  0.5193024241587464  0.5506583434762807   T   T   T
  0.3757463110602589  0.3344485438733987  0.3842586879332665   T   T   T
  0.6790099716557993  0.4365633805049620  0.4871389565095574   T   T   T
  0.5400766782755723  0.3186519553508979  0.3925452541958973   T   T   T
  0.3022551954846632  0.5019087308644616  0.4372378833088736   T   T   T
  0.3138889313714162  0.3942281827417543  0.4496882505205129   T   T   T
  0.5120783848142880  0.6259234899136510  0.6163300093934148   T   T   T
  0.4501833582283803  0.3780906396070302  0.5875312887196515   T   T   T
  0.3899805013750022  0.5811716639905576  0.6125118067347207   T   T   T
  0.4082888666993232  0.3057319406745566  0.5030525767140274   T   T   T
  0.4025137207616934  0.3716023560560456  0.2869354229220710   T   T   T
  0.3839795461799995  0.5331033736926358  0.2920921034233815   T   T   T
  0.6928070338815399  0.4606027888885391  0.3876823143424700   T   T   T
  0.3375839485514069  0.5717661802432799  0.5127601869947161   T   T   T
  0.5993632031129476  0.5725531634577111  0.3078181110580150   T   T   T
  0.6127852259236588  0.6152059961438914  0.5749760104944828   T   T   T
  0.4395916836337106  0.6152394806175757  0.3238596189449383   T   T   T
  0.3425674019350545  0.2673347645406089  0.4785104104955337   T   T   T
  0.3054846134773270  0.2836201455650842  0.4658658400597325   T   T   T
  0.3511406576801446  0.2197643293176340  0.4829795208573034   T   T   T
  0.3230295262914186  0.2035720605005154  0.4733403522733118   T   T   T
 
  0.00000000E+00  0.00000000E+00  0.00000000E+00
  0.00000000E+00  0.00000000E+00  0.00000000E+00
  0.00000000E+00  0.00000000E+00  0.00000000E+00
  0.00000000E+00  0.00000000E+00  0.00000000E+00
  0.00000000E+00  0.00000000E+00  0.00000000E+00
  0.00000000E+00  0.00000000E+00  0.00000000E+00
  0.00000000E+00  0.00000000E+00  0.00000000E+00
  0.00000000E+00  0.00000000E+00  0.00000000E+00
  0.00000000E+00  0.00000000E+00  0.00000000E+00
  0.00000000E+00  0.00000000E+00  0.00000000E+00
  0.00000000E+00  0.00000000E+00  0.00000000E+00
  0.00000000E+00  0.00000000E+00  0.00000000E+00
  0.00000000E+00  0.00000000E+00  0.00000000E+00
  0.00000000E+00  0.00000000E+00  0.00000000E+00
  0.00000000E+00  0.00000000E+00  0.00000000E+00
  0.00000000E+00  0.00000000E+00  0.00000000E+00
  0.00000000E+00  0.00000000E+00  0.00000000E+00
  0.00000000E+00  0.00000000E+00  0.00000000E+00
  0.00000000E+00  0.00000000E+00  0.00000000E+00
  0.00000000E+00  0.00000000E+00  0.00000000E+00
  0.00000000E+00  0.00000000E+00  0.00000000E+00
  0.00000000E+00  0.00000000E+00  0.00000000E+00
  0.00000000E+00  0.00000000E+00  0.00000000E+00
  0.00000000E+00  0.00000000E+00  0.00000000E+00
  0.00000000E+00  0.00000000E+00  0.00000000E+00
  0.00000000E+00  0.00000000E+00  0.00000000E+00
  0.00000000E+00  0.00000000E+00  0.00000000E+00
  0.00000000E+00  0.00000000E+00  0.00000000E+00
  0.00000000E+00  0.00000000E+00  0.00000000E+00
  0.00000000E+00  0.00000000E+00  0.00000000E+00
  0.00000000E+00  0.00000000E+00  0.00000000E+00
  0.00000000E+00  0.00000000E+00  0.00000000E+00
  0.00000000E+00  0.00000000E+00  0.00000000E+00
  0.00000000E+00  0.00000000E+00  0.00000000E+00
  0.00000000E+00  0.00000000E+00  0.00000000E+00
  0.00000000E+00  0.00000000E+00  0.00000000E+00
  0.00000000E+00  0.00000000E+00  0.00000000E+00
  0.00000000E+00  0.00000000E+00  0.00000000E+00
  0.00000000E+00  0.00000000E+00  0.00000000E+00
  0.00000000E+00  0.00000000E+00  0.00000000E+00
  0.00000000E+00  0.00000000E+00  0.00000000E+00
  0.00000000E+00  0.00000000E+00  0.00000000E+00
  0.00000000E+00  0.00000000E+00  0.00000000E+00
  0.00000000E+00  0.00000000E+00  0.00000000E+00
  0.00000000E+00  0.00000000E+00  0.00000000E+00
  0.00000000E+00  0.00000000E+00  0.00000000E+00
  0.00000000E+00  0.00000000E+00  0.00000000E+00
  0.00000000E+00  0.00000000E+00  0.00000000E+00
  0.00000000E+00  0.00000000E+00  0.00000000E+00
  0.00000000E+00  0.00000000E+00  0.00000000E+00
  0.00000000E+00  0.00000000E+00  0.00000000E+00
  0.00000000E+00  0.00000000E+00  0.00000000E+00
  0.00000000E+00  0.00000000E+00  0.00000000E+00
  0.00000000E+00  0.00000000E+00  0.00000000E+00
  0.00000000E+00  0.00000000E+00  0.00000000E+00
  0.00000000E+00  0.00000000E+00  0.00000000E+00
  0.00000000E+00  0.00000000E+00  0.00000000E+00
  0.00000000E+00  0.00000000E+00  0.00000000E+00
  0.00000000E+00  0.00000000E+00  0.00000000E+00
  0.00000000E+00  0.00000000E+00  0.00000000E+00
  0.00000000E+00  0.00000000E+00  0.00000000E+00
  0.00000000E+00  0.00000000E+00  0.00000000E+00
  0.00000000E+00  0.00000000E+00  0.00000000E+00
  0.00000000E+00  0.00000000E+00  0.00000000E+00
  0.00000000E+00  0.00000000E+00  0.00000000E+00
  0.00000000E+00  0.00000000E+00  0.00000000E+00
  0.00000000E+00  0.00000000E+00  0.00000000E+00
  0.00000000E+00  0.00000000E+00  0.00000000E+00
  0.00000000E+00  0.00000000E+00  0.00000000E+00
  0.00000000E+00  0.00000000E+00  0.00000000E+00
  0.00000000E+00  0.00000000E+00  0.00000000E+00
  0.00000000E+00  0.00000000E+00  0.00000000E+00
