La Co Ni Sn Bi C  O  H                  
   1.00000000000000     
    29.1044006348000011    0.0000000000000000    0.0000000000000000
     0.4451680315000000   28.3694074727000007    0.0000000000000000
     0.0682082826000000    0.3036559964000000   28.5240018092999996
   La   Co   Ni   Sn   Bi   C    O    H 
    14    13    13    14    14     1     2     1
Selective dynamics
Direct
  0.5927487093159924  0.4195224083681494  0.4091454815302462   T   T   T
  0.6849546153849894  0.5709819092615693  0.3803698933971416   T   T   T
  0.4957877045019829  0.5270394696325047  0.2823231487658700   T   T   T
  0.5625487844335555  0.5219386473043659  0.6021329976667257   T   T   T
  0.5075081761214268  0.3851086976111764  0.3056401542188358   T   T   T
  0.5754765631352842  0.6553578014415926  0.4828243431213060   T   T   T
  0.5087281095336728  0.3380901258364002  0.4996704114827806   T   T   T
  0.5354404876636186  0.6372812876271815  0.3744851521856828   T   T   T
  0.4359857939975254  0.6432228780127573  0.5355634522640393   T   T   T
  0.4373551010143757  0.5015757590148624  0.3842817269995109   F   F   F
  0.4437846394494898  0.4460183835780285  0.5005161578087822   F   F   F
  0.3874496969408693  0.4670585697460617  0.6097024414203089   T   T   T
  0.3443553927743250  0.4443852096445307  0.3472318507472101   T   T   T
  0.3620811203715933  0.5850735007311942  0.3935978428497541   T   T   T
  0.4217425606853311  0.4061295180575186  0.3699802678458894   F   F   F
  0.5011311695957161  0.4887203336762909  0.4395023580252015   F   F   F
  0.4044148221271726  0.6101724300038001  0.4624736492929173   F   F   F
  0.4722931245665194  0.5596737886932672  0.5729988711091565   F   F   F
  0.6552684236953183  0.5165424048424470  0.4543399438695133   F   F   F
  0.5967309916701211  0.5535378348504167  0.5056109707055541   F   F   F
  0.5314074673932367  0.5941153005651714  0.5336729985293047   F   F   F
  0.5796732686089143  0.4997731718447866  0.4507473928409595   F   F   F
  0.4605022906210800  0.3306467344056143  0.3444932302841760   T   T   T
  0.3905180950192175  0.5252419063175111  0.4552418453041511   F   F   F
  0.4541532558079329  0.3246503806884402  0.4241853849752845   T   T   T
  0.5074804872141527  0.4592780196109629  0.3501259710292359   F   F   F
  0.6012877811302459  0.4669891268301640  0.5212355700313438   F   F   F
  0.5384608035519776  0.4312182275275163  0.4821288228790692   F   F   F
  0.4713083414346286  0.4805797151798927  0.5807598339419258   F   F   F
  0.3771163837573610  0.4514853175274567  0.4282230665427278   F   F   F
  0.4059018739390154  0.3822235888080883  0.4561785915149272   F   F   F
  0.5357818896390683  0.5680835373033233  0.4543473312664048   F   F   F
  0.4924712632432886  0.6367287407321953  0.4646113344718685   F   F   F
  0.4677327221812249  0.5829886973614862  0.4038343643763724   F   F   F
  0.5280944416629296  0.5063826634733033  0.5194466411805863   F   F   F
  0.6212454441397384  0.5105019604624417  0.3755946010283822   F   F   F
  0.6054499763524817  0.5821019035045651  0.4188664505762958   F   F   F
  0.4050790883739026  0.5245211222763402  0.5434909784116542   F   F   F
  0.3508784604834800  0.4703801912574055  0.5089277990756442   T   T   T
  0.4339286494233546  0.4566867118845247  0.3019054134937688   T   T   T
  0.5377155427587429  0.4220963272246187  0.5691076079294950   T   T   T
  0.3575214402594339  0.3873703209553053  0.5398084972027065   T   T   T
  0.4625951421883201  0.5516617238622956  0.4875128022361963   F   F   F
  0.6064265935678881  0.3755413591912401  0.5125271343792944   T   T   T
  0.4917335125622756  0.4390460345340466  0.6581714797661248   T   T   T
  0.5893486182993957  0.4656794425356660  0.3085292072283578   T   T   T
  0.4900497958562298  0.4037080615820798  0.4151644571778519   F   F   F
  0.4357909699695797  0.6740431462035582  0.4122488313100688   T   T   T
  0.4685487734963266  0.5371899039450301  0.6602810632417911   T   T   T
  0.5397532608265934  0.5319899791087650  0.3771480104995177   F   F   F
  0.6687259826797708  0.6004391908802154  0.4832283296447040   T   T   T
  0.6657303751135368  0.5193456682169566  0.5505110577992035   T   T   T
  0.3745055353032397  0.3347845231253069  0.3850483981329678   T   T   T
  0.6790974888511937  0.4366446957646885  0.4873815167952785   T   T   T
  0.5394098953806098  0.3180988378805821  0.3922032258804567   T   T   T
  0.3023275615997270  0.5030362630763041  0.4369635592077392   T   T   T
  0.3132598406711807  0.3956699919947458  0.4496087499391739   T   T   T
  0.5122707596149336  0.6253984041522470  0.6168728645039694   T   T   T
  0.4488072377537368  0.3745389011642915  0.5856398892036913   T   T   T
  0.3906370919555775  0.5803655838176937  0.6131755440813089   T   T   T
  0.4049215734437631  0.3057746861419330  0.5015728773530441   T   T   T
  0.4013183376451205  0.3712795561930590  0.2872862480925876   T   T   T
  0.3838291554290739  0.5330747323210812  0.2919204033343070   T   T   T
  0.6924013881774398  0.4598709441525757  0.3877211978612966   T   T   T
  0.3376125232284000  0.5721949385075966  0.5128239103095542   T   T   T
  0.5992462637464445  0.5710481880858412  0.3067254745206434   T   T   T
  0.6125441374622813  0.6144338351047002  0.5752062307272057   T   T   T
  0.4404362906300216  0.6142767532838707  0.3233314860416850   T   T   T
  0.6297617108775128  0.4561772310254752  0.2406055329229235   T   T   T
  0.6239877697109303  0.4756373258450653  0.2025449884563300   T   T   T
  0.6622876158199769  0.4206353947058615  0.2470884847385640   T   T   T
  0.6781190566921691  0.4161257794832154  0.2167607140955266   T   T   T
 
  0.00000000E+00  0.00000000E+00  0.00000000E+00
  0.00000000E+00  0.00000000E+00  0.00000000E+00
  0.00000000E+00  0.00000000E+00  0.00000000E+00
  0.00000000E+00  0.00000000E+00  0.00000000E+00
  0.00000000E+00  0.00000000E+00  0.00000000E+00
  0.00000000E+00  0.00000000E+00  0.00000000E+00
  0.00000000E+00  0.00000000E+00  0.00000000E+00
  0.00000000E+00  0.00000000E+00  0.00000000E+00
  0.00000000E+00  0.00000000E+00  0.00000000E+00
  0.00000000E+00  0.00000000E+00  0.00000000E+00
  0.00000000E+00  0.00000000E+00  0.00000000E+00
  0.00000000E+00  0.00000000E+00  0.00000000E+00
  0.00000000E+00  0.00000000E+00  0.00000000E+00
  0.00000000E+00  0.00000000E+00  0.00000000E+00
  0.00000000E+00  0.00000000E+00  0.00000000E+00
  0.00000000E+00  0.00000000E+00  0.00000000E+00
  0.00000000E+00  0.00000000E+00  0.00000000E+00
  0.00000000E+00  0.00000000E+00  0.00000000E+00
  0.00000000E+00  0.00000000E+00  0.00000000E+00
  0.00000000E+00  0.00000000E+00  0.00000000E+00
  0.00000000E+00  0.00000000E+00  0.00000000E+00
  0.00000000E+00  0.00000000E+00  0.00000000E+00
  0.00000000E+00  0.00000000E+00  0.00000000E+00
  0.00000000E+00  0.00000000E+00  0.00000000E+00
  0.00000000E+00  0.00000000E+00  0.00000000E+00
  0.00000000E+00  0.00000000E+00  0.00000000E+00
  0.00000000E+00  0.00000000E+00  0.00000000E+00
  0.00000000E+00  0.00000000E+00  0.00000000E+00
  0.00000000E+00  0.00000000E+00  0.00000000E+00
  0.00000000E+00  0.00000000E+00  0.00000000E+00
  0.00000000E+00  0.00000000E+00  0.00000000E+00
  0.00000000E+00  0.00000000E+00  0.00000000E+00
  0.00000000E+00  0.00000000E+00  0.00000000E+00
  0.00000000E+00  0.00000000E+00  0.00000000E+00
  0.00000000E+00  0.00000000E+00  0.00000000E+00
  0.00000000E+00  0.00000000E+00  0.00000000E+00
  0.00000000E+00  0.00000000E+00  0.00000000E+00
  0.00000000E+00  0.00000000E+00  0.00000000E+00
  0.00000000E+00  0.00000000E+00  0.00000000E+00
  0.00000000E+00  0.00000000E+00  0.00000000E+00
  0.00000000E+00  0.00000000E+00  0.00000000E+00
  0.00000000E+00  0.00000000E+00  0.00000000E+00
  0.00000000E+00  0.00000000E+00  0.00000000E+00
  0.00000000E+00  0.00000000E+00  0.00000000E+00
  0.00000000E+00  0.00000000E+00  0.00000000E+00
  0.00000000E+00  0.00000000E+00  0.00000000E+00
  0.00000000E+00  0.00000000E+00  0.00000000E+00
  0.00000000E+00  0.00000000E+00  0.00000000E+00
  0.00000000E+00  0.00000000E+00  0.00000000E+00
  0.00000000E+00  0.00000000E+00  0.00000000E+00
  0.00000000E+00  0.00000000E+00  0.00000000E+00
  0.00000000E+00  0.00000000E+00  0.00000000E+00
  0.00000000E+00  0.00000000E+00  0.00000000E+00
  0.00000000E+00  0.00000000E+00  0.00000000E+00
  0.00000000E+00  0.00000000E+00  0.00000000E+00
  0.00000000E+00  0.00000000E+00  0.00000000E+00
  0.00000000E+00  0.00000000E+00  0.00000000E+00
  0.00000000E+00  0.00000000E+00  0.00000000E+00
  0.00000000E+00  0.00000000E+00  0.00000000E+00
  0.00000000E+00  0.00000000E+00  0.00000000E+00
  0.00000000E+00  0.00000000E+00  0.00000000E+00
  0.00000000E+00  0.00000000E+00  0.00000000E+00
  0.00000000E+00  0.00000000E+00  0.00000000E+00
  0.00000000E+00  0.00000000E+00  0.00000000E+00
  0.00000000E+00  0.00000000E+00  0.00000000E+00
  0.00000000E+00  0.00000000E+00  0.00000000E+00
  0.00000000E+00  0.00000000E+00  0.00000000E+00
  0.00000000E+00  0.00000000E+00  0.00000000E+00
  0.00000000E+00  0.00000000E+00  0.00000000E+00
  0.00000000E+00  0.00000000E+00  0.00000000E+00
  0.00000000E+00  0.00000000E+00  0.00000000E+00
  0.00000000E+00  0.00000000E+00  0.00000000E+00
