La Co Ni Sn Bi C  O  H                  
   1.00000000000000     
    29.1044006348000011    0.0000000000000000    0.0000000000000000
     0.4451680315000000   28.3694074727000007    0.0000000000000000
     0.0682082826000000    0.3036559964000000   28.5240018092999996
   La   Co   Ni   Sn   Bi   C    O    H 
    14    13    13    14    14     1     2     1
Selective dynamics
Direct
  0.5923397372768774  0.4204151689581102  0.4077865288582594   T   T   T
  0.6853070771457644  0.5712395525733340  0.3812767068624114   T   T   T
  0.4956169893525824  0.5275384868185587  0.2822851696293764   T   T   T
  0.5619982006776585  0.5216757741045696  0.6022223445911684   T   T   T
  0.5092245101368620  0.3869737338645040  0.3054878588027601   T   T   T
  0.5752981306091048  0.6553236619023746  0.4836434884523829   T   T   T
  0.5088255137614865  0.3379305396208782  0.4996350537028011   T   T   T
  0.5354274386238722  0.6375654494300700  0.3751299189613840   T   T   T
  0.4357430502422535  0.6437743343287499  0.5343875243750718   T   T   T
  0.4373551010143757  0.5015757590148624  0.3842817269995109   F   F   F
  0.4437846394494898  0.4460183835780285  0.5005161578087822   F   F   F
  0.3836583438500710  0.4670567893426386  0.6115044006311912   T   T   T
  0.3447011313300407  0.4439224045402342  0.3461689586392849   T   T   T
  0.3621029561296029  0.5859158182487059  0.3932803399603616   T   T   T
  0.4217425606853311  0.4061295180575186  0.3699802678458894   F   F   F
  0.5011311695957161  0.4887203336762909  0.4395023580252015   F   F   F
  0.4044148221271726  0.6101724300038001  0.4624736492929173   F   F   F
  0.4722931245665194  0.5596737886932672  0.5729988711091565   F   F   F
  0.6552684236953183  0.5165424048424470  0.4543399438695133   F   F   F
  0.5967309916701211  0.5535378348504167  0.5056109707055541   F   F   F
  0.5314074673932367  0.5941153005651714  0.5336729985293047   F   F   F
  0.5796732686089143  0.4997731718447866  0.4507473928409595   F   F   F
  0.4609503224232864  0.3307563241099727  0.3452796351532646   T   T   T
  0.3905180950192175  0.5252419063175111  0.4552418453041511   F   F   F
  0.4546600326698558  0.3244866530621373  0.4248119614558273   T   T   T
  0.5074804872141527  0.4592780196109629  0.3501259710292359   F   F   F
  0.6012877811302459  0.4669891268301640  0.5212355700313438   F   F   F
  0.5384608035519776  0.4312182275275163  0.4821288228790692   F   F   F
  0.4713083414346286  0.4805797151798927  0.5807598339419258   F   F   F
  0.3771163837573610  0.4514853175274567  0.4282230665427278   F   F   F
  0.4059018739390154  0.3822235888080883  0.4561785915149272   F   F   F
  0.5357818896390683  0.5680835373033233  0.4543473312664048   F   F   F
  0.4924712632432886  0.6367287407321953  0.4646113344718685   F   F   F
  0.4677327221812249  0.5829886973614862  0.4038343643763724   F   F   F
  0.5280944416629296  0.5063826634733033  0.5194466411805863   F   F   F
  0.6212454441397384  0.5105019604624417  0.3755946010283822   F   F   F
  0.6054499763524817  0.5821019035045651  0.4188664505762958   F   F   F
  0.4050790883739026  0.5245211222763402  0.5434909784116542   F   F   F
  0.3501143950035148  0.4709955757140095  0.5081065905406802   T   T   T
  0.4341827809022654  0.4571879334013703  0.3019975304393260   T   T   T
  0.5377000839116625  0.4217682613204848  0.5687112994057415   T   T   T
  0.3573588995037368  0.3877863269765728  0.5388056591678513   T   T   T
  0.4625951421883201  0.5516617238622956  0.4875128022361963   F   F   F
  0.6064900014604787  0.3750983605452711  0.5106594945809296   T   T   T
  0.4915739003846633  0.4382773419394494  0.6578257544650429   T   T   T
  0.5874288619013736  0.4675204897342103  0.3063645043886958   T   T   T
  0.4900497958562298  0.4037080615820798  0.4151644571778519   F   F   F
  0.4356937403349957  0.6746072713307555  0.4125432033057213   T   T   T
  0.4676327032658905  0.5358927853255679  0.6600739059221594   T   T   T
  0.5397532608265934  0.5319899791087650  0.3771480104995177   F   F   F
  0.6685498387025657  0.6002439154854241  0.4840942951040780   T   T   T
  0.6655084196657519  0.5188506240145142  0.5509106886829183   T   T   T
  0.3751167574742990  0.3343348575434820  0.3848407050392087   T   T   T
  0.6786505247199327  0.4364155926665325  0.4867085373612728   T   T   T
  0.5398839842239734  0.3185912319292122  0.3921380341030086   T   T   T
  0.3026731858368982  0.5032820398295116  0.4353321618219950   T   T   T
  0.3132383032368560  0.3956654976572997  0.4483544563736018   T   T   T
  0.5112072594589524  0.6251234696078506  0.6170030355974222   T   T   T
  0.4484910128590462  0.3746505448832591  0.5852869736273385   T   T   T
  0.3914480458005344  0.5802782448675865  0.6123441740841614   T   T   T
  0.4047854430143949  0.3057362505909637  0.5012640386648010   T   T   T
  0.4030888415590426  0.3713325294943443  0.2869165393465642   T   T   T
  0.3838696008629850  0.5335305835149385  0.2922168916490059   T   T   T
  0.6926749869869224  0.4603292738204388  0.3875223513146117   T   T   T
  0.3374362374568815  0.5717154521523304  0.5127013611832879   T   T   T
  0.5996615927601330  0.5724219092263747  0.3078430998970036   T   T   T
  0.6122907575979195  0.6140567619160208  0.5757292045544433   T   T   T
  0.4404100817416661  0.6150557209711974  0.3235233421253053   T   T   T
  0.3136648438051966  0.5142407845417174  0.6339628691973096   T   T   T
  0.3183255647489145  0.4849294811046683  0.6675394773233611   T   T   T
  0.2770657670600550  0.5445332316643418  0.6348043089166951   T   T   T
  0.2593279832125902  0.5378789308900054  0.6637016049231246   T   T   T
 
  0.00000000E+00  0.00000000E+00  0.00000000E+00
  0.00000000E+00  0.00000000E+00  0.00000000E+00
  0.00000000E+00  0.00000000E+00  0.00000000E+00
  0.00000000E+00  0.00000000E+00  0.00000000E+00
  0.00000000E+00  0.00000000E+00  0.00000000E+00
  0.00000000E+00  0.00000000E+00  0.00000000E+00
  0.00000000E+00  0.00000000E+00  0.00000000E+00
  0.00000000E+00  0.00000000E+00  0.00000000E+00
  0.00000000E+00  0.00000000E+00  0.00000000E+00
  0.00000000E+00  0.00000000E+00  0.00000000E+00
  0.00000000E+00  0.00000000E+00  0.00000000E+00
  0.00000000E+00  0.00000000E+00  0.00000000E+00
  0.00000000E+00  0.00000000E+00  0.00000000E+00
  0.00000000E+00  0.00000000E+00  0.00000000E+00
  0.00000000E+00  0.00000000E+00  0.00000000E+00
  0.00000000E+00  0.00000000E+00  0.00000000E+00
  0.00000000E+00  0.00000000E+00  0.00000000E+00
  0.00000000E+00  0.00000000E+00  0.00000000E+00
  0.00000000E+00  0.00000000E+00  0.00000000E+00
  0.00000000E+00  0.00000000E+00  0.00000000E+00
  0.00000000E+00  0.00000000E+00  0.00000000E+00
  0.00000000E+00  0.00000000E+00  0.00000000E+00
  0.00000000E+00  0.00000000E+00  0.00000000E+00
  0.00000000E+00  0.00000000E+00  0.00000000E+00
  0.00000000E+00  0.00000000E+00  0.00000000E+00
  0.00000000E+00  0.00000000E+00  0.00000000E+00
  0.00000000E+00  0.00000000E+00  0.00000000E+00
  0.00000000E+00  0.00000000E+00  0.00000000E+00
  0.00000000E+00  0.00000000E+00  0.00000000E+00
  0.00000000E+00  0.00000000E+00  0.00000000E+00
  0.00000000E+00  0.00000000E+00  0.00000000E+00
  0.00000000E+00  0.00000000E+00  0.00000000E+00
  0.00000000E+00  0.00000000E+00  0.00000000E+00
  0.00000000E+00  0.00000000E+00  0.00000000E+00
  0.00000000E+00  0.00000000E+00  0.00000000E+00
  0.00000000E+00  0.00000000E+00  0.00000000E+00
  0.00000000E+00  0.00000000E+00  0.00000000E+00
  0.00000000E+00  0.00000000E+00  0.00000000E+00
  0.00000000E+00  0.00000000E+00  0.00000000E+00
  0.00000000E+00  0.00000000E+00  0.00000000E+00
  0.00000000E+00  0.00000000E+00  0.00000000E+00
  0.00000000E+00  0.00000000E+00  0.00000000E+00
  0.00000000E+00  0.00000000E+00  0.00000000E+00
  0.00000000E+00  0.00000000E+00  0.00000000E+00
  0.00000000E+00  0.00000000E+00  0.00000000E+00
  0.00000000E+00  0.00000000E+00  0.00000000E+00
  0.00000000E+00  0.00000000E+00  0.00000000E+00
  0.00000000E+00  0.00000000E+00  0.00000000E+00
  0.00000000E+00  0.00000000E+00  0.00000000E+00
  0.00000000E+00  0.00000000E+00  0.00000000E+00
  0.00000000E+00  0.00000000E+00  0.00000000E+00
  0.00000000E+00  0.00000000E+00  0.00000000E+00
  0.00000000E+00  0.00000000E+00  0.00000000E+00
  0.00000000E+00  0.00000000E+00  0.00000000E+00
  0.00000000E+00  0.00000000E+00  0.00000000E+00
  0.00000000E+00  0.00000000E+00  0.00000000E+00
  0.00000000E+00  0.00000000E+00  0.00000000E+00
  0.00000000E+00  0.00000000E+00  0.00000000E+00
  0.00000000E+00  0.00000000E+00  0.00000000E+00
  0.00000000E+00  0.00000000E+00  0.00000000E+00
  0.00000000E+00  0.00000000E+00  0.00000000E+00
  0.00000000E+00  0.00000000E+00  0.00000000E+00
  0.00000000E+00  0.00000000E+00  0.00000000E+00
  0.00000000E+00  0.00000000E+00  0.00000000E+00
  0.00000000E+00  0.00000000E+00  0.00000000E+00
  0.00000000E+00  0.00000000E+00  0.00000000E+00
  0.00000000E+00  0.00000000E+00  0.00000000E+00
  0.00000000E+00  0.00000000E+00  0.00000000E+00
  0.00000000E+00  0.00000000E+00  0.00000000E+00
  0.00000000E+00  0.00000000E+00  0.00000000E+00
  0.00000000E+00  0.00000000E+00  0.00000000E+00
  0.00000000E+00  0.00000000E+00  0.00000000E+00
