La Co Ni Sn Bi C  O  H                  
   1.00000000000000     
    29.1044006348000011    0.0000000000000000    0.0000000000000000
     0.4451680315000000   28.3694074727000007    0.0000000000000000
     0.0682082826000000    0.3036559964000000   28.5240018092999996
   La   Co   Ni   Sn   Bi   C    O    H 
    14    13    13    14    14     1     2     1
Selective dynamics
Direct
  0.5923439494002898  0.4205267337446764  0.4080204387806875   T   T   T
  0.6858045064553029  0.5708802276154279  0.3815637774520929   T   T   T
  0.4959268195203763  0.5304349192780499  0.2817397538755362   T   T   T
  0.5622396525422190  0.5217957639302898  0.6022470980502723   T   T   T
  0.5111084159774993  0.3857334452537441  0.3045062470615045   T   T   T
  0.5752038273337670  0.6555389953932326  0.4833812382451900   T   T   T
  0.5097553075929652  0.3381294401242920  0.4996113173742133   T   T   T
  0.5348546811795468  0.6377388786601627  0.3752142958089706   T   T   T
  0.4357143271598511  0.6433681548234312  0.5355700596883057   T   T   T
  0.4373551010143757  0.5015757590148624  0.3842817269995109   F   F   F
  0.4437846394494898  0.4460183835780285  0.5005161578087822   F   F   F
  0.3873598317953764  0.4669488287074357  0.6094873659260328   T   T   T
  0.3447483453199170  0.4433258621908207  0.3466775456390500   T   T   T
  0.3611378636634175  0.5851895740196904  0.3941230112837424   T   T   T
  0.4217425606853311  0.4061295180575186  0.3699802678458894   F   F   F
  0.5011311695957161  0.4887203336762909  0.4395023580252015   F   F   F
  0.4044148221271726  0.6101724300038001  0.4624736492929173   F   F   F
  0.4722931245665194  0.5596737886932672  0.5729988711091565   F   F   F
  0.6552684236953183  0.5165424048424470  0.4543399438695133   F   F   F
  0.5967309916701211  0.5535378348504167  0.5056109707055541   F   F   F
  0.5314074673932367  0.5941153005651714  0.5336729985293047   F   F   F
  0.5796732686089143  0.4997731718447866  0.4507473928409595   F   F   F
  0.4600117294037566  0.3274637080707994  0.3490073607689236   T   T   T
  0.3905180950192175  0.5252419063175111  0.4552418453041511   F   F   F
  0.4551305005501985  0.3244525219603457  0.4271593745660776   T   T   T
  0.5074804872141527  0.4592780196109629  0.3501259710292359   F   F   F
  0.6012877811302459  0.4669891268301640  0.5212355700313438   F   F   F
  0.5384608035519776  0.4312182275275163  0.4821288228790692   F   F   F
  0.4713083414346286  0.4805797151798927  0.5807598339419258   F   F   F
  0.3771163837573610  0.4514853175274567  0.4282230665427278   F   F   F
  0.4059018739390154  0.3822235888080883  0.4561785915149272   F   F   F
  0.5357818896390683  0.5680835373033233  0.4543473312664048   F   F   F
  0.4924712632432886  0.6367287407321953  0.4646113344718685   F   F   F
  0.4677327221812249  0.5829886973614862  0.4038343643763724   F   F   F
  0.5280944416629296  0.5063826634733033  0.5194466411805863   F   F   F
  0.6212454441397384  0.5105019604624417  0.3755946010283822   F   F   F
  0.6054499763524817  0.5821019035045651  0.4188664505762958   F   F   F
  0.4050790883739026  0.5245211222763402  0.5434909784116542   F   F   F
  0.3508609257167681  0.4704328467123481  0.5087127276103632   T   T   T
  0.4377973949841013  0.4527154683684701  0.2970732079960237   T   T   T
  0.5378356176702586  0.4219844497453601  0.5690137356327734   T   T   T
  0.3572000031672491  0.3875488120499495  0.5393628028188973   T   T   T
  0.4625951421883201  0.5516617238622956  0.4875128022361963   F   F   F
  0.6071810523349646  0.3757588694715535  0.5111153967034548   T   T   T
  0.4914907636884036  0.4388223990745948  0.6580499353196537   T   T   T
  0.5871482808462568  0.4682798388024717  0.3063506849614260   T   T   T
  0.4900497958562298  0.4037080615820798  0.4151644571778519   F   F   F
  0.4352551272163900  0.6742872349790616  0.4126982616395058   T   T   T
  0.4683017534140139  0.5368221440421238  0.6602677034237942   T   T   T
  0.5397532608265934  0.5319899791087650  0.3771480104995177   F   F   F
  0.6685144902766753  0.6001677058751165  0.4839873638299116   T   T   T
  0.6654916885047996  0.5191376768649090  0.5511680941460581   T   T   T
  0.3749359926764249  0.3337586130752145  0.3870467473497799   T   T   T
  0.6796236272439702  0.4369265336333025  0.4872095675431198   T   T   T
  0.5403800118022798  0.3181309596104800  0.3928208306851963   T   T   T
  0.3024938051527863  0.5025321285905680  0.4366581969238400   T   T   T
  0.3134466191398733  0.3949860440316215  0.4486127766708339   T   T   T
  0.5121624744961336  0.6253041417738519  0.6168409543723995   T   T   T
  0.4486878512553925  0.3743279696617190  0.5853489518215691   T   T   T
  0.3905766502208369  0.5803832049742493  0.6130615116692103   T   T   T
  0.4056312447355838  0.3057694097500125  0.5029042671582548   T   T   T
  0.4027455363349016  0.3673518759313883  0.2904386099323075   T   T   T
  0.3850225754240602  0.5314045948263353  0.2937937099580684   T   T   T
  0.6924911575693607  0.4600361761709182  0.3874720388500028   T   T   T
  0.3375448919801052  0.5721211770187132  0.5127216305687928   T   T   T
  0.6001363375113057  0.5731536217109091  0.3086899987115492   T   T   T
  0.6126145144621865  0.6143282127492857  0.5755221672638891   T   T   T
  0.4387880341588450  0.6153887694885195  0.3241847511304657   T   T   T
  0.4681418110736865  0.4463701878990488  0.2387460661736457   T   T   T
  0.4881668625030287  0.4098617789263445  0.2227725506550950   T   T   T
  0.4741491223732501  0.4866127624216494  0.2072892552534620   T   T   T
  0.4939477257470828  0.4748672529628212  0.1817927926466585   T   T   T
 
  0.00000000E+00  0.00000000E+00  0.00000000E+00
  0.00000000E+00  0.00000000E+00  0.00000000E+00
  0.00000000E+00  0.00000000E+00  0.00000000E+00
  0.00000000E+00  0.00000000E+00  0.00000000E+00
  0.00000000E+00  0.00000000E+00  0.00000000E+00
  0.00000000E+00  0.00000000E+00  0.00000000E+00
  0.00000000E+00  0.00000000E+00  0.00000000E+00
  0.00000000E+00  0.00000000E+00  0.00000000E+00
  0.00000000E+00  0.00000000E+00  0.00000000E+00
  0.00000000E+00  0.00000000E+00  0.00000000E+00
  0.00000000E+00  0.00000000E+00  0.00000000E+00
  0.00000000E+00  0.00000000E+00  0.00000000E+00
  0.00000000E+00  0.00000000E+00  0.00000000E+00
  0.00000000E+00  0.00000000E+00  0.00000000E+00
  0.00000000E+00  0.00000000E+00  0.00000000E+00
  0.00000000E+00  0.00000000E+00  0.00000000E+00
  0.00000000E+00  0.00000000E+00  0.00000000E+00
  0.00000000E+00  0.00000000E+00  0.00000000E+00
  0.00000000E+00  0.00000000E+00  0.00000000E+00
  0.00000000E+00  0.00000000E+00  0.00000000E+00
  0.00000000E+00  0.00000000E+00  0.00000000E+00
  0.00000000E+00  0.00000000E+00  0.00000000E+00
  0.00000000E+00  0.00000000E+00  0.00000000E+00
  0.00000000E+00  0.00000000E+00  0.00000000E+00
  0.00000000E+00  0.00000000E+00  0.00000000E+00
  0.00000000E+00  0.00000000E+00  0.00000000E+00
  0.00000000E+00  0.00000000E+00  0.00000000E+00
  0.00000000E+00  0.00000000E+00  0.00000000E+00
  0.00000000E+00  0.00000000E+00  0.00000000E+00
  0.00000000E+00  0.00000000E+00  0.00000000E+00
  0.00000000E+00  0.00000000E+00  0.00000000E+00
  0.00000000E+00  0.00000000E+00  0.00000000E+00
  0.00000000E+00  0.00000000E+00  0.00000000E+00
  0.00000000E+00  0.00000000E+00  0.00000000E+00
  0.00000000E+00  0.00000000E+00  0.00000000E+00
  0.00000000E+00  0.00000000E+00  0.00000000E+00
  0.00000000E+00  0.00000000E+00  0.00000000E+00
  0.00000000E+00  0.00000000E+00  0.00000000E+00
  0.00000000E+00  0.00000000E+00  0.00000000E+00
  0.00000000E+00  0.00000000E+00  0.00000000E+00
  0.00000000E+00  0.00000000E+00  0.00000000E+00
  0.00000000E+00  0.00000000E+00  0.00000000E+00
  0.00000000E+00  0.00000000E+00  0.00000000E+00
  0.00000000E+00  0.00000000E+00  0.00000000E+00
  0.00000000E+00  0.00000000E+00  0.00000000E+00
  0.00000000E+00  0.00000000E+00  0.00000000E+00
  0.00000000E+00  0.00000000E+00  0.00000000E+00
  0.00000000E+00  0.00000000E+00  0.00000000E+00
  0.00000000E+00  0.00000000E+00  0.00000000E+00
  0.00000000E+00  0.00000000E+00  0.00000000E+00
  0.00000000E+00  0.00000000E+00  0.00000000E+00
  0.00000000E+00  0.00000000E+00  0.00000000E+00
  0.00000000E+00  0.00000000E+00  0.00000000E+00
  0.00000000E+00  0.00000000E+00  0.00000000E+00
  0.00000000E+00  0.00000000E+00  0.00000000E+00
  0.00000000E+00  0.00000000E+00  0.00000000E+00
  0.00000000E+00  0.00000000E+00  0.00000000E+00
  0.00000000E+00  0.00000000E+00  0.00000000E+00
  0.00000000E+00  0.00000000E+00  0.00000000E+00
  0.00000000E+00  0.00000000E+00  0.00000000E+00
  0.00000000E+00  0.00000000E+00  0.00000000E+00
  0.00000000E+00  0.00000000E+00  0.00000000E+00
  0.00000000E+00  0.00000000E+00  0.00000000E+00
  0.00000000E+00  0.00000000E+00  0.00000000E+00
  0.00000000E+00  0.00000000E+00  0.00000000E+00
  0.00000000E+00  0.00000000E+00  0.00000000E+00
  0.00000000E+00  0.00000000E+00  0.00000000E+00
  0.00000000E+00  0.00000000E+00  0.00000000E+00
  0.00000000E+00  0.00000000E+00  0.00000000E+00
  0.00000000E+00  0.00000000E+00  0.00000000E+00
  0.00000000E+00  0.00000000E+00  0.00000000E+00
  0.00000000E+00  0.00000000E+00  0.00000000E+00
