La Co Ni Sn Bi C  O  H                  
   1.00000000000000     
    29.1044006348000011    0.0000000000000000    0.0000000000000000
     0.4451680315000000   28.3694074727000007    0.0000000000000000
     0.0682082826000000    0.3036559964000000   28.5240018092999996
   La   Co   Ni   Sn   Bi   C    O    H 
    14    13    13    14    14     1     2     1
Selective dynamics
Direct
  0.5923050592440765  0.4205742037049932  0.4076502958998062   T   T   T
  0.6852973657847470  0.5711776776621825  0.3811190180276406   T   T   T
  0.4960184862579209  0.5269824502683916  0.2817095463346433   T   T   T
  0.5623779575344996  0.5218049784711911  0.6023036639620030   T   T   T
  0.5095696315562471  0.3873484416179282  0.3053408973655923   T   T   T
  0.5753470090286643  0.6555679152293681  0.4836608496059503   T   T   T
  0.5064933871860986  0.3379432322455252  0.5002771739077708   T   T   T
  0.5355747130693018  0.6376886169517745  0.3754404185959774   T   T   T
  0.4369770220505955  0.6442679184758857  0.5350544877652071   T   T   T
  0.4373551010143757  0.5015757590148624  0.3842817269995109   F   F   F
  0.4437846394494898  0.4460183835780285  0.5005161578087822   F   F   F
  0.3840540946169128  0.4675520423263808  0.6085643180649282   T   T   T
  0.3451897688884966  0.4435932383961565  0.3456988668918456   T   T   T
  0.3625922556236391  0.5873709755210296  0.3928038617111143   T   T   T
  0.4217425606853311  0.4061295180575186  0.3699802678458894   F   F   F
  0.5011311695957161  0.4887203336762909  0.4395023580252015   F   F   F
  0.4044148221271726  0.6101724300038001  0.4624736492929173   F   F   F
  0.4722931245665194  0.5596737886932672  0.5729988711091565   F   F   F
  0.6552684236953183  0.5165424048424470  0.4543399438695133   F   F   F
  0.5967309916701211  0.5535378348504167  0.5056109707055541   F   F   F
  0.5314074673932367  0.5941153005651714  0.5336729985293047   F   F   F
  0.5796732686089143  0.4997731718447866  0.4507473928409595   F   F   F
  0.4612411220691192  0.3311958706397069  0.3439547653420516   T   T   T
  0.3905180950192175  0.5252419063175111  0.4552418453041511   F   F   F
  0.4547745498547440  0.3249322272197827  0.4227332793094740   T   T   T
  0.5074804872141527  0.4592780196109629  0.3501259710292359   F   F   F
  0.6012877811302459  0.4669891268301640  0.5212355700313438   F   F   F
  0.5384608035519776  0.4312182275275163  0.4821288228790692   F   F   F
  0.4713083414346286  0.4805797151798927  0.5807598339419258   F   F   F
  0.3771163837573610  0.4514853175274567  0.4282230665427278   F   F   F
  0.4059018739390154  0.3822235888080883  0.4561785915149272   F   F   F
  0.5357818896390683  0.5680835373033233  0.4543473312664048   F   F   F
  0.4924712632432886  0.6367287407321953  0.4646113344718685   F   F   F
  0.4677327221812249  0.5829886973614862  0.4038343643763724   F   F   F
  0.5280944416629296  0.5063826634733033  0.5194466411805863   F   F   F
  0.6212454441397384  0.5105019604624417  0.3755946010283822   F   F   F
  0.6054499763524817  0.5821019035045651  0.4188664505762958   F   F   F
  0.4050790883739026  0.5245211222763402  0.5434909784116542   F   F   F
  0.3448314205731179  0.4726249504037062  0.5098436323825160   T   T   T
  0.4344859506228290  0.4573577921307246  0.3017200010221331   T   T   T
  0.5382003764761066  0.4217921509788527  0.5689062406374860   T   T   T
  0.3585933185172541  0.3858301878142290  0.5368174581273778   T   T   T
  0.4625951421883201  0.5516617238622956  0.4875128022361963   F   F   F
  0.6051516540582339  0.3743540070807700  0.5094459461265107   T   T   T
  0.4921269995635112  0.4381659248161447  0.6579274184465188   T   T   T
  0.5877472083931039  0.4675440725361432  0.3064190445711871   T   T   T
  0.4900497958562298  0.4037080615820798  0.4151644571778519   F   F   F
  0.4358888042725061  0.6747825308846749  0.4125047120136678   T   T   T
  0.4669375852409339  0.5357525715618959  0.6593359703291226   T   T   T
  0.5397532608265934  0.5319899791087650  0.3771480104995177   F   F   F
  0.6686269443999707  0.6003372150521569  0.4838248483017790   T   T   T
  0.6656947546367370  0.5191368713218454  0.5507692539648519   T   T   T
  0.3747157274179484  0.3344306499060888  0.3848727261464243   T   T   T
  0.6779445672654451  0.4360996514859312  0.4870431709144562   T   T   T
  0.5398232149817784  0.3186297908127168  0.3921435591641133   T   T   T
  0.3038969478237710  0.5041686849041980  0.4340523529137682   T   T   T
  0.3132521494416534  0.3955007904298412  0.4477679404496451   T   T   T
  0.5120964384498261  0.6250124995442442  0.6169776554674264   T   T   T
  0.4482297924332712  0.3762125799584362  0.5862550085848619   T   T   T
  0.3905999526422964  0.5814649410957441  0.6119882548874389   T   T   T
  0.4034694224147999  0.3028568218265666  0.4964340918796920   T   T   T
  0.4036428704006959  0.3721402991463703  0.2861077696402967   T   T   T
  0.3843884175308632  0.5336676944892174  0.2918716490277271   T   T   T
  0.6927325814955286  0.4603044823648924  0.3878103751014738   T   T   T
  0.3381088524482673  0.5729446495950553  0.5121967849373084   T   T   T
  0.5993984577915995  0.5724469272485941  0.3078545202892691   T   T   T
  0.6125774086746647  0.6143324493806472  0.5755979603491336   T   T   T
  0.4413470195681267  0.6147702862515663  0.3231630778292360   T   T   T
  0.2914119104196545  0.4670731546196813  0.5480171778274222   T   T   T
  0.2530440191719620  0.4532144694951257  0.5386516809027728   T   T   T
  0.2970213605568023  0.4837445603670423  0.5967039694549707   T   T   T
  0.2670191936865951  0.4796204533899235  0.6119170029674064   T   T   T
 
  0.00000000E+00  0.00000000E+00  0.00000000E+00
  0.00000000E+00  0.00000000E+00  0.00000000E+00
  0.00000000E+00  0.00000000E+00  0.00000000E+00
  0.00000000E+00  0.00000000E+00  0.00000000E+00
  0.00000000E+00  0.00000000E+00  0.00000000E+00
  0.00000000E+00  0.00000000E+00  0.00000000E+00
  0.00000000E+00  0.00000000E+00  0.00000000E+00
  0.00000000E+00  0.00000000E+00  0.00000000E+00
  0.00000000E+00  0.00000000E+00  0.00000000E+00
  0.00000000E+00  0.00000000E+00  0.00000000E+00
  0.00000000E+00  0.00000000E+00  0.00000000E+00
  0.00000000E+00  0.00000000E+00  0.00000000E+00
  0.00000000E+00  0.00000000E+00  0.00000000E+00
  0.00000000E+00  0.00000000E+00  0.00000000E+00
  0.00000000E+00  0.00000000E+00  0.00000000E+00
  0.00000000E+00  0.00000000E+00  0.00000000E+00
  0.00000000E+00  0.00000000E+00  0.00000000E+00
  0.00000000E+00  0.00000000E+00  0.00000000E+00
  0.00000000E+00  0.00000000E+00  0.00000000E+00
  0.00000000E+00  0.00000000E+00  0.00000000E+00
  0.00000000E+00  0.00000000E+00  0.00000000E+00
  0.00000000E+00  0.00000000E+00  0.00000000E+00
  0.00000000E+00  0.00000000E+00  0.00000000E+00
  0.00000000E+00  0.00000000E+00  0.00000000E+00
  0.00000000E+00  0.00000000E+00  0.00000000E+00
  0.00000000E+00  0.00000000E+00  0.00000000E+00
  0.00000000E+00  0.00000000E+00  0.00000000E+00
  0.00000000E+00  0.00000000E+00  0.00000000E+00
  0.00000000E+00  0.00000000E+00  0.00000000E+00
  0.00000000E+00  0.00000000E+00  0.00000000E+00
  0.00000000E+00  0.00000000E+00  0.00000000E+00
  0.00000000E+00  0.00000000E+00  0.00000000E+00
  0.00000000E+00  0.00000000E+00  0.00000000E+00
  0.00000000E+00  0.00000000E+00  0.00000000E+00
  0.00000000E+00  0.00000000E+00  0.00000000E+00
  0.00000000E+00  0.00000000E+00  0.00000000E+00
  0.00000000E+00  0.00000000E+00  0.00000000E+00
  0.00000000E+00  0.00000000E+00  0.00000000E+00
  0.00000000E+00  0.00000000E+00  0.00000000E+00
  0.00000000E+00  0.00000000E+00  0.00000000E+00
  0.00000000E+00  0.00000000E+00  0.00000000E+00
  0.00000000E+00  0.00000000E+00  0.00000000E+00
  0.00000000E+00  0.00000000E+00  0.00000000E+00
  0.00000000E+00  0.00000000E+00  0.00000000E+00
  0.00000000E+00  0.00000000E+00  0.00000000E+00
  0.00000000E+00  0.00000000E+00  0.00000000E+00
  0.00000000E+00  0.00000000E+00  0.00000000E+00
  0.00000000E+00  0.00000000E+00  0.00000000E+00
  0.00000000E+00  0.00000000E+00  0.00000000E+00
  0.00000000E+00  0.00000000E+00  0.00000000E+00
  0.00000000E+00  0.00000000E+00  0.00000000E+00
  0.00000000E+00  0.00000000E+00  0.00000000E+00
  0.00000000E+00  0.00000000E+00  0.00000000E+00
  0.00000000E+00  0.00000000E+00  0.00000000E+00
  0.00000000E+00  0.00000000E+00  0.00000000E+00
  0.00000000E+00  0.00000000E+00  0.00000000E+00
  0.00000000E+00  0.00000000E+00  0.00000000E+00
  0.00000000E+00  0.00000000E+00  0.00000000E+00
  0.00000000E+00  0.00000000E+00  0.00000000E+00
  0.00000000E+00  0.00000000E+00  0.00000000E+00
  0.00000000E+00  0.00000000E+00  0.00000000E+00
  0.00000000E+00  0.00000000E+00  0.00000000E+00
  0.00000000E+00  0.00000000E+00  0.00000000E+00
  0.00000000E+00  0.00000000E+00  0.00000000E+00
  0.00000000E+00  0.00000000E+00  0.00000000E+00
  0.00000000E+00  0.00000000E+00  0.00000000E+00
  0.00000000E+00  0.00000000E+00  0.00000000E+00
  0.00000000E+00  0.00000000E+00  0.00000000E+00
  0.00000000E+00  0.00000000E+00  0.00000000E+00
  0.00000000E+00  0.00000000E+00  0.00000000E+00
  0.00000000E+00  0.00000000E+00  0.00000000E+00
  0.00000000E+00  0.00000000E+00  0.00000000E+00
