La Co Ni Sn Bi C  O  H                  
   1.00000000000000     
    29.1044006348000011    0.0000000000000000    0.0000000000000000
     0.4451680315000000   28.3694074727000007    0.0000000000000000
     0.0682082826000000    0.3036559964000000   28.5240018092999996
   La   Co   Ni   Sn   Bi   C    O    H 
    14    13    13    14    14     1     2     1
Selective dynamics
Direct
  0.5925156589976093  0.4200895351745209  0.4076196063097287   T   T   T
  0.6848200060440073  0.5714782556187208  0.3804059034796377   T   T   T
  0.4954663894475598  0.5276944428685406  0.2823790947268842   T   T   T
  0.5622261659057459  0.5216666823469553  0.6019869853448960   T   T   T
  0.5080324805658820  0.3874506661451892  0.3051775777491467   T   T   T
  0.5751491973891472  0.6554836280726295  0.4837126695384672   T   T   T
  0.5105087161891041  0.3380018169148212  0.4989600450062445   T   T   T
  0.5354613496798508  0.6374467418121541  0.3753306085295223   T   T   T
  0.4358392466520048  0.6427686086189810  0.5363465015615978   T   T   T
  0.4373551010143757  0.5015757590148624  0.3842817269995109   F   F   F
  0.4437846394494898  0.4460183835780285  0.5005161578087822   F   F   F
  0.3866688816313225  0.4664594922329036  0.6105563125929915   T   T   T
  0.3443327010181537  0.4447792468377480  0.3471580954122030   T   T   T
  0.3623025400407811  0.5855875195618739  0.3936719176812239   T   T   T
  0.4217425606853311  0.4061295180575186  0.3699802678458894   F   F   F
  0.5011311695957161  0.4887203336762909  0.4395023580252015   F   F   F
  0.4044148221271726  0.6101724300038001  0.4624736492929173   F   F   F
  0.4722931245665194  0.5596737886932672  0.5729988711091565   F   F   F
  0.6552684236953183  0.5165424048424470  0.4543399438695133   F   F   F
  0.5967309916701211  0.5535378348504167  0.5056109707055541   F   F   F
  0.5314074673932367  0.5941153005651714  0.5336729985293047   F   F   F
  0.5796732686089143  0.4997731718447866  0.4507473928409595   F   F   F
  0.4593981645739894  0.3298826834624884  0.3449397401442203   T   T   T
  0.3905180950192175  0.5252419063175111  0.4552418453041511   F   F   F
  0.4538576515627909  0.3243968867686208  0.4242301710499727   T   T   T
  0.5074804872141527  0.4592780196109629  0.3501259710292359   F   F   F
  0.6012877811302459  0.4669891268301640  0.5212355700313438   F   F   F
  0.5384608035519776  0.4312182275275163  0.4821288228790692   F   F   F
  0.4713083414346286  0.4805797151798927  0.5807598339419258   F   F   F
  0.3771163837573610  0.4514853175274567  0.4282230665427278   F   F   F
  0.4059018739390154  0.3822235888080883  0.4561785915149272   F   F   F
  0.5357818896390683  0.5680835373033233  0.4543473312664048   F   F   F
  0.4924712632432886  0.6367287407321953  0.4646113344718685   F   F   F
  0.4677327221812249  0.5829886973614862  0.4038343643763724   F   F   F
  0.5280944416629296  0.5063826634733033  0.5194466411805863   F   F   F
  0.6212454441397384  0.5105019604624417  0.3755946010283822   F   F   F
  0.6054499763524817  0.5821019035045651  0.4188664505762958   F   F   F
  0.4050790883739026  0.5245211222763402  0.5434909784116542   F   F   F
  0.3494661682108650  0.4720764966377370  0.5087666916375948   T   T   T
  0.4336185306945216  0.4572874064798393  0.3020210135822494   T   T   T
  0.5380597119276886  0.4215573067537759  0.5688932564615735   T   T   T
  0.3599228634810996  0.3896359148752412  0.5363052425312472   T   T   T
  0.4625951421883201  0.5516617238622956  0.4875128022361963   F   F   F
  0.6076573865681150  0.3760727158440267  0.5114567371682865   T   T   T
  0.4912485593685280  0.4383009094893985  0.6578266801211764   T   T   T
  0.5872023800623747  0.4672331316019253  0.3064204952249024   T   T   T
  0.4900497958562298  0.4037080615820798  0.4151644571778519   F   F   F
  0.4356106788607157  0.6746331509196438  0.4128288293296343   T   T   T
  0.4682888998681087  0.5366993146828660  0.6602426091385917   T   T   T
  0.5397532608265934  0.5319899791087650  0.3771480104995177   F   F   F
  0.6686019890630903  0.6004303677981093  0.4832550165534708   T   T   T
  0.6656097504068088  0.5191853511201909  0.5505549506717461   T   T   T
  0.3737356479257503  0.3354186716503997  0.3853176162812222   T   T   T
  0.6793633395414286  0.4368788622621893  0.4870808196947736   T   T   T
  0.5390263947991033  0.3183014039423619  0.3908937993541299   T   T   T
  0.3023362712680171  0.5038068502124959  0.4366113936191102   T   T   T
  0.3115507167452745  0.3965996660044906  0.4485631919477074   T   T   T
  0.5128104929566524  0.6249582052105009  0.6172330277449303   T   T   T
  0.4493145467579743  0.3735461297501411  0.5848464811575079   T   T   T
  0.3902513425445063  0.5796328015591976  0.6135258708882048   T   T   T
  0.4073410318506686  0.3056840318572783  0.5029035814535141   T   T   T
  0.4017254048418222  0.3720015458179927  0.2870068535699256   T   T   T
  0.3839608947280003  0.5335973174384815  0.2921760584303467   T   T   T
  0.6927895343917027  0.4606323642516577  0.3877369271427555   T   T   T
  0.3376333489741644  0.5725171840712860  0.5129054054488410   T   T   T
  0.5990054818813494  0.5720725675152848  0.3072067518183311   T   T   T
  0.6128925448610459  0.6141820685831191  0.5756326028704977   T   T   T
  0.4402293375324726  0.6155701924184905  0.3237682350384043   T   T   T
  0.3118875795810842  0.3665613458258677  0.5943595587183959   T   T   T
  0.2881927391698189  0.3329222002317283  0.6028841585961850   T   T   T
  0.3150676523215735  0.4038771604381543  0.6282422168339683   T   T   T
  0.2952806917232768  0.3950444629641923  0.6548671562768918   T   T   T
 
  0.00000000E+00  0.00000000E+00  0.00000000E+00
  0.00000000E+00  0.00000000E+00  0.00000000E+00
  0.00000000E+00  0.00000000E+00  0.00000000E+00
  0.00000000E+00  0.00000000E+00  0.00000000E+00
  0.00000000E+00  0.00000000E+00  0.00000000E+00
  0.00000000E+00  0.00000000E+00  0.00000000E+00
  0.00000000E+00  0.00000000E+00  0.00000000E+00
  0.00000000E+00  0.00000000E+00  0.00000000E+00
  0.00000000E+00  0.00000000E+00  0.00000000E+00
  0.00000000E+00  0.00000000E+00  0.00000000E+00
  0.00000000E+00  0.00000000E+00  0.00000000E+00
  0.00000000E+00  0.00000000E+00  0.00000000E+00
  0.00000000E+00  0.00000000E+00  0.00000000E+00
  0.00000000E+00  0.00000000E+00  0.00000000E+00
  0.00000000E+00  0.00000000E+00  0.00000000E+00
  0.00000000E+00  0.00000000E+00  0.00000000E+00
  0.00000000E+00  0.00000000E+00  0.00000000E+00
  0.00000000E+00  0.00000000E+00  0.00000000E+00
  0.00000000E+00  0.00000000E+00  0.00000000E+00
  0.00000000E+00  0.00000000E+00  0.00000000E+00
  0.00000000E+00  0.00000000E+00  0.00000000E+00
  0.00000000E+00  0.00000000E+00  0.00000000E+00
  0.00000000E+00  0.00000000E+00  0.00000000E+00
  0.00000000E+00  0.00000000E+00  0.00000000E+00
  0.00000000E+00  0.00000000E+00  0.00000000E+00
  0.00000000E+00  0.00000000E+00  0.00000000E+00
  0.00000000E+00  0.00000000E+00  0.00000000E+00
  0.00000000E+00  0.00000000E+00  0.00000000E+00
  0.00000000E+00  0.00000000E+00  0.00000000E+00
  0.00000000E+00  0.00000000E+00  0.00000000E+00
  0.00000000E+00  0.00000000E+00  0.00000000E+00
  0.00000000E+00  0.00000000E+00  0.00000000E+00
  0.00000000E+00  0.00000000E+00  0.00000000E+00
  0.00000000E+00  0.00000000E+00  0.00000000E+00
  0.00000000E+00  0.00000000E+00  0.00000000E+00
  0.00000000E+00  0.00000000E+00  0.00000000E+00
  0.00000000E+00  0.00000000E+00  0.00000000E+00
  0.00000000E+00  0.00000000E+00  0.00000000E+00
  0.00000000E+00  0.00000000E+00  0.00000000E+00
  0.00000000E+00  0.00000000E+00  0.00000000E+00
  0.00000000E+00  0.00000000E+00  0.00000000E+00
  0.00000000E+00  0.00000000E+00  0.00000000E+00
  0.00000000E+00  0.00000000E+00  0.00000000E+00
  0.00000000E+00  0.00000000E+00  0.00000000E+00
  0.00000000E+00  0.00000000E+00  0.00000000E+00
  0.00000000E+00  0.00000000E+00  0.00000000E+00
  0.00000000E+00  0.00000000E+00  0.00000000E+00
  0.00000000E+00  0.00000000E+00  0.00000000E+00
  0.00000000E+00  0.00000000E+00  0.00000000E+00
  0.00000000E+00  0.00000000E+00  0.00000000E+00
  0.00000000E+00  0.00000000E+00  0.00000000E+00
  0.00000000E+00  0.00000000E+00  0.00000000E+00
  0.00000000E+00  0.00000000E+00  0.00000000E+00
  0.00000000E+00  0.00000000E+00  0.00000000E+00
  0.00000000E+00  0.00000000E+00  0.00000000E+00
  0.00000000E+00  0.00000000E+00  0.00000000E+00
  0.00000000E+00  0.00000000E+00  0.00000000E+00
  0.00000000E+00  0.00000000E+00  0.00000000E+00
  0.00000000E+00  0.00000000E+00  0.00000000E+00
  0.00000000E+00  0.00000000E+00  0.00000000E+00
  0.00000000E+00  0.00000000E+00  0.00000000E+00
  0.00000000E+00  0.00000000E+00  0.00000000E+00
  0.00000000E+00  0.00000000E+00  0.00000000E+00
  0.00000000E+00  0.00000000E+00  0.00000000E+00
  0.00000000E+00  0.00000000E+00  0.00000000E+00
  0.00000000E+00  0.00000000E+00  0.00000000E+00
  0.00000000E+00  0.00000000E+00  0.00000000E+00
  0.00000000E+00  0.00000000E+00  0.00000000E+00
  0.00000000E+00  0.00000000E+00  0.00000000E+00
  0.00000000E+00  0.00000000E+00  0.00000000E+00
  0.00000000E+00  0.00000000E+00  0.00000000E+00
  0.00000000E+00  0.00000000E+00  0.00000000E+00
