La Co Ni Sn Bi C  O  H                  
   1.00000000000000     
    29.1044006348000011    0.0000000000000000    0.0000000000000000
     0.4451680315000000   28.3694074727000007    0.0000000000000000
     0.0682082826000000    0.3036559964000000   28.5240018092999996
   La   Co   Ni   Sn   Bi   C    O    H 
    14    13    13    14    14     1     2     1
Selective dynamics
Direct
  0.5926173417686705  0.4206950681661301  0.4078884151470586   T   T   T
  0.6852691777659965  0.5714496514594755  0.3812215005658672   T   T   T
  0.4958904489453652  0.5283214867516307  0.2822059220973929   T   T   T
  0.5625525740998291  0.5219025049096314  0.6020609754147577   T   T   T
  0.5087231359313340  0.3874419152056855  0.3056192606699030   T   T   T
  0.5750913563610655  0.6555626121990310  0.4837516660385933   T   T   T
  0.5088727092602413  0.3379991376369082  0.4999459890093398   T   T   T
  0.5353609726048199  0.6375672504038816  0.3754907032312929   T   T   T
  0.4356216302929296  0.6429844324156521  0.5358100136574682   T   T   T
  0.4373551010143757  0.5015757590148624  0.3842817269995109   F   F   F
  0.4437846394494898  0.4460183835780285  0.5005161578087822   F   F   F
  0.3870536124845070  0.4662979706740081  0.6089317157138050   T   T   T
  0.3445762090734346  0.4449584136411049  0.3467390515849485   T   T   T
  0.3620258647818612  0.5854894918955137  0.3936465352561531   T   T   T
  0.4217425606853311  0.4061295180575186  0.3699802678458894   F   F   F
  0.5011311695957161  0.4887203336762909  0.4395023580252015   F   F   F
  0.4044148221271726  0.6101724300038001  0.4624736492929173   F   F   F
  0.4722931245665194  0.5596737886932672  0.5729988711091565   F   F   F
  0.6552684236953183  0.5165424048424470  0.4543399438695133   F   F   F
  0.5967309916701211  0.5535378348504167  0.5056109707055541   F   F   F
  0.5314074673932367  0.5941153005651714  0.5336729985293047   F   F   F
  0.5796732686089143  0.4997731718447866  0.4507473928409595   F   F   F
  0.4619878895993652  0.3313116662474568  0.3436593459810321   T   T   T
  0.3905180950192175  0.5252419063175111  0.4552418453041511   F   F   F
  0.4561321865244959  0.3242786162326832  0.4243112205032936   T   T   T
  0.5074804872141527  0.4592780196109629  0.3501259710292359   F   F   F
  0.6012877811302459  0.4669891268301640  0.5212355700313438   F   F   F
  0.5384608035519776  0.4312182275275163  0.4821288228790692   F   F   F
  0.4713083414346286  0.4805797151798927  0.5807598339419258   F   F   F
  0.3771163837573610  0.4514853175274567  0.4282230665427278   F   F   F
  0.4059018739390154  0.3822235888080883  0.4561785915149272   F   F   F
  0.5357818896390683  0.5680835373033233  0.4543473312664048   F   F   F
  0.4924712632432886  0.6367287407321953  0.4646113344718685   F   F   F
  0.4677327221812249  0.5829886973614862  0.4038343643763724   F   F   F
  0.5280944416629296  0.5063826634733033  0.5194466411805863   F   F   F
  0.6212454441397384  0.5105019604624417  0.3755946010283822   F   F   F
  0.6054499763524817  0.5821019035045651  0.4188664505762958   F   F   F
  0.4050790883739026  0.5245211222763402  0.5434909784116542   F   F   F
  0.3505317952155079  0.4700147468360435  0.5085468458988279   T   T   T
  0.4339063705180659  0.4576679071097018  0.3019928285378194   T   T   T
  0.5380668443095230  0.4219085902710772  0.5689904947915124   T   T   T
  0.3573530780310780  0.3864720307281292  0.5389826641559400   T   T   T
  0.4625951421883201  0.5516617238622956  0.4875128022361963   F   F   F
  0.6065220478441861  0.3751146811386364  0.5105403074683073   T   T   T
  0.4909995172638590  0.4378782355298960  0.6578355336054351   T   T   T
  0.5873375646020403  0.4676676329746425  0.3063216608880172   T   T   T
  0.4900497958562298  0.4037080615820798  0.4151644571778519   F   F   F
  0.4354832861203708  0.6747357236648327  0.4129027165650180   T   T   T
  0.4684696640406283  0.5364653193136244  0.6596153128999874   T   T   T
  0.5397532608265934  0.5319899791087650  0.3771480104995177   F   F   F
  0.6684286881019026  0.6005528454635781  0.4837679384105052   T   T   T
  0.6657855415315780  0.5190209422913868  0.5503939010425236   T   T   T
  0.3790487934614081  0.3345717107898345  0.3862158855837298   T   T   T
  0.6786513064497700  0.4363992594402812  0.4868353863943398   T   T   T
  0.5406952905941392  0.3193806035253180  0.3918031796715836   T   T   T
  0.3023818269173069  0.5029224522870487  0.4363802288731574   T   T   T
  0.3137236285889865  0.3948602345256673  0.4485550159655834   T   T   T
  0.5124167358596730  0.6254226247871922  0.6166356504484090   T   T   T
  0.4484741005141755  0.3740116478746112  0.5850413803622847   T   T   T
  0.3903054761286301  0.5796798645873221  0.6134651632124299   T   T   T
  0.4044284529588630  0.3046861107585912  0.4995688758417492   T   T   T
  0.4025572455648334  0.3724481221591112  0.2866485528834886   T   T   T
  0.3843639262954149  0.5336618668708765  0.2916910283407937   T   T   T
  0.6929243256469139  0.4607131444221064  0.3875796174841644   T   T   T
  0.3374108018064880  0.5715613529039074  0.5125031617016902   T   T   T
  0.5996182876261931  0.5725244703262093  0.3079276406941827   T   T   T
  0.6126322460835322  0.6143528949922021  0.5756199418226338   T   T   T
  0.4403002919235972  0.6154295060551440  0.3238373652982310   T   T   T
  0.3306599243187701  0.2813861953215238  0.3584228843183260   T   T   T
  0.3333050965321010  0.2390838783271760  0.3657162490389968   T   T   T
  0.2967408823829712  0.3018270745661413  0.3308845792728651   T   T   T
  0.2777816099928689  0.2757084350242211  0.3197299309341150   T   T   T
 
  0.00000000E+00  0.00000000E+00  0.00000000E+00
  0.00000000E+00  0.00000000E+00  0.00000000E+00
  0.00000000E+00  0.00000000E+00  0.00000000E+00
  0.00000000E+00  0.00000000E+00  0.00000000E+00
  0.00000000E+00  0.00000000E+00  0.00000000E+00
  0.00000000E+00  0.00000000E+00  0.00000000E+00
  0.00000000E+00  0.00000000E+00  0.00000000E+00
  0.00000000E+00  0.00000000E+00  0.00000000E+00
  0.00000000E+00  0.00000000E+00  0.00000000E+00
  0.00000000E+00  0.00000000E+00  0.00000000E+00
  0.00000000E+00  0.00000000E+00  0.00000000E+00
  0.00000000E+00  0.00000000E+00  0.00000000E+00
  0.00000000E+00  0.00000000E+00  0.00000000E+00
  0.00000000E+00  0.00000000E+00  0.00000000E+00
  0.00000000E+00  0.00000000E+00  0.00000000E+00
  0.00000000E+00  0.00000000E+00  0.00000000E+00
  0.00000000E+00  0.00000000E+00  0.00000000E+00
  0.00000000E+00  0.00000000E+00  0.00000000E+00
  0.00000000E+00  0.00000000E+00  0.00000000E+00
  0.00000000E+00  0.00000000E+00  0.00000000E+00
  0.00000000E+00  0.00000000E+00  0.00000000E+00
  0.00000000E+00  0.00000000E+00  0.00000000E+00
  0.00000000E+00  0.00000000E+00  0.00000000E+00
  0.00000000E+00  0.00000000E+00  0.00000000E+00
  0.00000000E+00  0.00000000E+00  0.00000000E+00
  0.00000000E+00  0.00000000E+00  0.00000000E+00
  0.00000000E+00  0.00000000E+00  0.00000000E+00
  0.00000000E+00  0.00000000E+00  0.00000000E+00
  0.00000000E+00  0.00000000E+00  0.00000000E+00
  0.00000000E+00  0.00000000E+00  0.00000000E+00
  0.00000000E+00  0.00000000E+00  0.00000000E+00
  0.00000000E+00  0.00000000E+00  0.00000000E+00
  0.00000000E+00  0.00000000E+00  0.00000000E+00
  0.00000000E+00  0.00000000E+00  0.00000000E+00
  0.00000000E+00  0.00000000E+00  0.00000000E+00
  0.00000000E+00  0.00000000E+00  0.00000000E+00
  0.00000000E+00  0.00000000E+00  0.00000000E+00
  0.00000000E+00  0.00000000E+00  0.00000000E+00
  0.00000000E+00  0.00000000E+00  0.00000000E+00
  0.00000000E+00  0.00000000E+00  0.00000000E+00
  0.00000000E+00  0.00000000E+00  0.00000000E+00
  0.00000000E+00  0.00000000E+00  0.00000000E+00
  0.00000000E+00  0.00000000E+00  0.00000000E+00
  0.00000000E+00  0.00000000E+00  0.00000000E+00
  0.00000000E+00  0.00000000E+00  0.00000000E+00
  0.00000000E+00  0.00000000E+00  0.00000000E+00
  0.00000000E+00  0.00000000E+00  0.00000000E+00
  0.00000000E+00  0.00000000E+00  0.00000000E+00
  0.00000000E+00  0.00000000E+00  0.00000000E+00
  0.00000000E+00  0.00000000E+00  0.00000000E+00
  0.00000000E+00  0.00000000E+00  0.00000000E+00
  0.00000000E+00  0.00000000E+00  0.00000000E+00
  0.00000000E+00  0.00000000E+00  0.00000000E+00
  0.00000000E+00  0.00000000E+00  0.00000000E+00
  0.00000000E+00  0.00000000E+00  0.00000000E+00
  0.00000000E+00  0.00000000E+00  0.00000000E+00
  0.00000000E+00  0.00000000E+00  0.00000000E+00
  0.00000000E+00  0.00000000E+00  0.00000000E+00
  0.00000000E+00  0.00000000E+00  0.00000000E+00
  0.00000000E+00  0.00000000E+00  0.00000000E+00
  0.00000000E+00  0.00000000E+00  0.00000000E+00
  0.00000000E+00  0.00000000E+00  0.00000000E+00
  0.00000000E+00  0.00000000E+00  0.00000000E+00
  0.00000000E+00  0.00000000E+00  0.00000000E+00
  0.00000000E+00  0.00000000E+00  0.00000000E+00
  0.00000000E+00  0.00000000E+00  0.00000000E+00
  0.00000000E+00  0.00000000E+00  0.00000000E+00
  0.00000000E+00  0.00000000E+00  0.00000000E+00
  0.00000000E+00  0.00000000E+00  0.00000000E+00
  0.00000000E+00  0.00000000E+00  0.00000000E+00
  0.00000000E+00  0.00000000E+00  0.00000000E+00
  0.00000000E+00  0.00000000E+00  0.00000000E+00
