La Co Ni Sn Bi C  O  H                  
   1.00000000000000     
    29.1044006348000011    0.0000000000000000    0.0000000000000000
     0.4451680315000000   28.3694074727000007    0.0000000000000000
     0.0682082826000000    0.3036559964000000   28.5240018092999996
   La   Co   Ni   Sn   Bi   C    O    H 
    14    13    13    14    14     1     2     1
Selective dynamics
Direct
  0.5924440999051683  0.4205471703556178  0.4076275086330557   T   T   T
  0.6849304736314293  0.5717633608119200  0.3810775596885611   T   T   T
  0.4952338222347246  0.5282820893674736  0.2825389039255858   T   T   T
  0.5621410431644078  0.5207601234143553  0.6018462379718407   T   T   T
  0.5083124258725294  0.3875466631603839  0.3050628337961693   T   T   T
  0.5752749391614710  0.6552717818222458  0.4833668775786052   T   T   T
  0.5095557804474101  0.3368983982586311  0.4982236808923171   T   T   T
  0.5350548075103725  0.6375745197867747  0.3751279141943394   T   T   T
  0.4360938653609446  0.6429243951552888  0.5358398855542059   T   T   T
  0.4373551010143757  0.5015757590148624  0.3842817269995109   F   F   F
  0.4437846394494898  0.4460183835780285  0.5005161578087822   F   F   F
  0.3879088000157931  0.4656525128356926  0.6083676228073278   T   T   T
  0.3444910348993373  0.4448511513983038  0.3467094501521719   T   T   T
  0.3619101121612485  0.5854702918180422  0.3938882048771914   T   T   T
  0.4217425606853311  0.4061295180575186  0.3699802678458894   F   F   F
  0.5011311695957161  0.4887203336762909  0.4395023580252015   F   F   F
  0.4044148221271726  0.6101724300038001  0.4624736492929173   F   F   F
  0.4722931245665194  0.5596737886932672  0.5729988711091565   F   F   F
  0.6552684236953183  0.5165424048424470  0.4543399438695133   F   F   F
  0.5967309916701211  0.5535378348504167  0.5056109707055541   F   F   F
  0.5314074673932367  0.5941153005651714  0.5336729985293047   F   F   F
  0.5796732686089143  0.4997731718447866  0.4507473928409595   F   F   F
  0.4604852556977982  0.3310211382262347  0.3439802797141409   T   T   T
  0.3905180950192175  0.5252419063175111  0.4552418453041511   F   F   F
  0.4544419161012753  0.3246807392344999  0.4236095823527116   T   T   T
  0.5074804872141527  0.4592780196109629  0.3501259710292359   F   F   F
  0.6012877811302459  0.4669891268301640  0.5212355700313438   F   F   F
  0.5384608035519776  0.4312182275275163  0.4821288228790692   F   F   F
  0.4713083414346286  0.4805797151798927  0.5807598339419258   F   F   F
  0.3771163837573610  0.4514853175274567  0.4282230665427278   F   F   F
  0.4059018739390154  0.3822235888080883  0.4561785915149272   F   F   F
  0.5357818896390683  0.5680835373033233  0.4543473312664048   F   F   F
  0.4924712632432886  0.6367287407321953  0.4646113344718685   F   F   F
  0.4677327221812249  0.5829886973614862  0.4038343643763724   F   F   F
  0.5280944416629296  0.5063826634733033  0.5194466411805863   F   F   F
  0.6212454441397384  0.5105019604624417  0.3755946010283822   F   F   F
  0.6054499763524817  0.5821019035045651  0.4188664505762958   F   F   F
  0.4050790883739026  0.5245211222763402  0.5434909784116542   F   F   F
  0.3511091710290995  0.4700323070357897  0.5085927514264907   T   T   T
  0.4336283566238377  0.4576099006727207  0.3021786747550175   T   T   T
  0.5385350847725249  0.4212250943370947  0.5679994845674247   T   T   T
  0.3559622585231922  0.3861985223493181  0.5382765133703216   T   T   T
  0.4625951421883201  0.5516617238622956  0.4875128022361963   F   F   F
  0.6068692626631489  0.3751881059040726  0.5100209414487133   T   T   T
  0.4908285328116209  0.4349932973580140  0.6557792912098867   T   T   T
  0.5870981688248446  0.4678060503014622  0.3062194310917128   T   T   T
  0.4900497958562298  0.4037080615820798  0.4151644571778519   F   F   F
  0.4354781194893381  0.6747303358007620  0.4128949757768121   T   T   T
  0.4687300580837893  0.5342574183593375  0.6610085319000397   T   T   T
  0.5397532608265934  0.5319899791087650  0.3771480104995177   F   F   F
  0.6686675620019398  0.6001005188756063  0.4839650489420507   T   T   T
  0.6653792914692959  0.5187699952253737  0.5509154334077776   T   T   T
  0.3748063472854485  0.3347495564612088  0.3845173333071408   T   T   T
  0.6789160158086767  0.4365845235452026  0.4865505835613947   T   T   T
  0.5396904977444621  0.3188541266846251  0.3906480125877645   T   T   T
  0.3023545322006076  0.5031948100367751  0.4368383901574482   T   T   T
  0.3130225523571684  0.3956299471581131  0.4479101560796382   T   T   T
  0.5120757195671172  0.6232832982306957  0.6178286562943449   T   T   T
  0.4475758909146160  0.3707200058797930  0.5840781731938812   T   T   T
  0.3917720021435269  0.5792819487061274  0.6139094273812312   T   T   T
  0.4052048086404237  0.3051014668254924  0.5003603682615120   T   T   T
  0.4019579600441079  0.3721274128764273  0.2867695858558749   T   T   T
  0.3837255124058021  0.5341758337457829  0.2920913104973781   T   T   T
  0.6931228925053684  0.4610064080158608  0.3874188303558470   T   T   T
  0.3377224631896757  0.5721126284757746  0.5130398205999391   T   T   T
  0.5993051898579874  0.5725173217227381  0.3077940285538118   T   T   T
  0.6122753369774043  0.6138075786674326  0.5756710247346417   T   T   T
  0.4397967196988848  0.6155609777887394  0.3238010960710106   T   T   T
  0.4129739142473670  0.3122378096274658  0.6330748200134031   T   T   T
  0.3800972776301770  0.2876808294200420  0.6247128566085977   T   T   T
  0.4376205486566464  0.3088114404372651  0.6741080912901153   T   T   T
  0.4233459672134586  0.2837277055173903  0.6931737720111870   T   T   T
 
  0.00000000E+00  0.00000000E+00  0.00000000E+00
  0.00000000E+00  0.00000000E+00  0.00000000E+00
  0.00000000E+00  0.00000000E+00  0.00000000E+00
  0.00000000E+00  0.00000000E+00  0.00000000E+00
  0.00000000E+00  0.00000000E+00  0.00000000E+00
  0.00000000E+00  0.00000000E+00  0.00000000E+00
  0.00000000E+00  0.00000000E+00  0.00000000E+00
  0.00000000E+00  0.00000000E+00  0.00000000E+00
  0.00000000E+00  0.00000000E+00  0.00000000E+00
  0.00000000E+00  0.00000000E+00  0.00000000E+00
  0.00000000E+00  0.00000000E+00  0.00000000E+00
  0.00000000E+00  0.00000000E+00  0.00000000E+00
  0.00000000E+00  0.00000000E+00  0.00000000E+00
  0.00000000E+00  0.00000000E+00  0.00000000E+00
  0.00000000E+00  0.00000000E+00  0.00000000E+00
  0.00000000E+00  0.00000000E+00  0.00000000E+00
  0.00000000E+00  0.00000000E+00  0.00000000E+00
  0.00000000E+00  0.00000000E+00  0.00000000E+00
  0.00000000E+00  0.00000000E+00  0.00000000E+00
  0.00000000E+00  0.00000000E+00  0.00000000E+00
  0.00000000E+00  0.00000000E+00  0.00000000E+00
  0.00000000E+00  0.00000000E+00  0.00000000E+00
  0.00000000E+00  0.00000000E+00  0.00000000E+00
  0.00000000E+00  0.00000000E+00  0.00000000E+00
  0.00000000E+00  0.00000000E+00  0.00000000E+00
  0.00000000E+00  0.00000000E+00  0.00000000E+00
  0.00000000E+00  0.00000000E+00  0.00000000E+00
  0.00000000E+00  0.00000000E+00  0.00000000E+00
  0.00000000E+00  0.00000000E+00  0.00000000E+00
  0.00000000E+00  0.00000000E+00  0.00000000E+00
  0.00000000E+00  0.00000000E+00  0.00000000E+00
  0.00000000E+00  0.00000000E+00  0.00000000E+00
  0.00000000E+00  0.00000000E+00  0.00000000E+00
  0.00000000E+00  0.00000000E+00  0.00000000E+00
  0.00000000E+00  0.00000000E+00  0.00000000E+00
  0.00000000E+00  0.00000000E+00  0.00000000E+00
  0.00000000E+00  0.00000000E+00  0.00000000E+00
  0.00000000E+00  0.00000000E+00  0.00000000E+00
  0.00000000E+00  0.00000000E+00  0.00000000E+00
  0.00000000E+00  0.00000000E+00  0.00000000E+00
  0.00000000E+00  0.00000000E+00  0.00000000E+00
  0.00000000E+00  0.00000000E+00  0.00000000E+00
  0.00000000E+00  0.00000000E+00  0.00000000E+00
  0.00000000E+00  0.00000000E+00  0.00000000E+00
  0.00000000E+00  0.00000000E+00  0.00000000E+00
  0.00000000E+00  0.00000000E+00  0.00000000E+00
  0.00000000E+00  0.00000000E+00  0.00000000E+00
  0.00000000E+00  0.00000000E+00  0.00000000E+00
  0.00000000E+00  0.00000000E+00  0.00000000E+00
  0.00000000E+00  0.00000000E+00  0.00000000E+00
  0.00000000E+00  0.00000000E+00  0.00000000E+00
  0.00000000E+00  0.00000000E+00  0.00000000E+00
  0.00000000E+00  0.00000000E+00  0.00000000E+00
  0.00000000E+00  0.00000000E+00  0.00000000E+00
  0.00000000E+00  0.00000000E+00  0.00000000E+00
  0.00000000E+00  0.00000000E+00  0.00000000E+00
  0.00000000E+00  0.00000000E+00  0.00000000E+00
  0.00000000E+00  0.00000000E+00  0.00000000E+00
  0.00000000E+00  0.00000000E+00  0.00000000E+00
  0.00000000E+00  0.00000000E+00  0.00000000E+00
  0.00000000E+00  0.00000000E+00  0.00000000E+00
  0.00000000E+00  0.00000000E+00  0.00000000E+00
  0.00000000E+00  0.00000000E+00  0.00000000E+00
  0.00000000E+00  0.00000000E+00  0.00000000E+00
  0.00000000E+00  0.00000000E+00  0.00000000E+00
  0.00000000E+00  0.00000000E+00  0.00000000E+00
  0.00000000E+00  0.00000000E+00  0.00000000E+00
  0.00000000E+00  0.00000000E+00  0.00000000E+00
  0.00000000E+00  0.00000000E+00  0.00000000E+00
  0.00000000E+00  0.00000000E+00  0.00000000E+00
  0.00000000E+00  0.00000000E+00  0.00000000E+00
  0.00000000E+00  0.00000000E+00  0.00000000E+00
