La Co Ni Sn Bi C  O  H                  
   1.00000000000000     
    29.1044006348000011    0.0000000000000000    0.0000000000000000
     0.4451680315000000   28.3694074727000007    0.0000000000000000
     0.0682082826000000    0.3036559964000000   28.5240018092999996
   La   Co   Ni   Sn   Bi   C    O    H 
    14    13    13    14    14     1     2     1
Selective dynamics
Direct
  0.5924054168340920  0.4205481964838708  0.4079316710279717   T   T   T
  0.6851163594231982  0.5715477794285677  0.3812530652546044   T   T   T
  0.4958447622076143  0.5271745993300481  0.2820044373775675   T   T   T
  0.5597411195802751  0.5223967604856764  0.6025851886535237   T   T   T
  0.5090566459209290  0.3871131301618431  0.3053831464860743   T   T   T
  0.5749141990114528  0.6553646330465330  0.4840719554533033   T   T   T
  0.5091093931873341  0.3377841369735158  0.4995132433239355   T   T   T
  0.5354960333868481  0.6375639157874884  0.3752093120645240   T   T   T
  0.4351858614695437  0.6435921504652654  0.5339060369647347   T   T   T
  0.4373551010143757  0.5015757590148624  0.3842817269995109   F   F   F
  0.4437846394494898  0.4460183835780285  0.5005161578087822   F   F   F
  0.3858584429907314  0.4661854371556555  0.6085677171638481   T   T   T
  0.3448723169949312  0.4440934034687890  0.3462564528045374   T   T   T
  0.3622551298418224  0.5853999815800230  0.3928440479595454   T   T   T
  0.4217425606853311  0.4061295180575186  0.3699802678458894   F   F   F
  0.5011311695957161  0.4887203336762909  0.4395023580252015   F   F   F
  0.4044148221271726  0.6101724300038001  0.4624736492929173   F   F   F
  0.4722931245665194  0.5596737886932672  0.5729988711091565   F   F   F
  0.6552684236953183  0.5165424048424470  0.4543399438695133   F   F   F
  0.5967309916701211  0.5535378348504167  0.5056109707055541   F   F   F
  0.5314074673932367  0.5941153005651714  0.5336729985293047   F   F   F
  0.5796732686089143  0.4997731718447866  0.4507473928409595   F   F   F
  0.4612861509954101  0.3310948633170573  0.3451211490953681   T   T   T
  0.3905180950192175  0.5252419063175111  0.4552418453041511   F   F   F
  0.4548362691348357  0.3246264610334437  0.4246706732855121   T   T   T
  0.5074804872141527  0.4592780196109629  0.3501259710292359   F   F   F
  0.6012877811302459  0.4669891268301640  0.5212355700313438   F   F   F
  0.5384608035519776  0.4312182275275163  0.4821288228790692   F   F   F
  0.4713083414346286  0.4805797151798927  0.5807598339419258   F   F   F
  0.3771163837573610  0.4514853175274567  0.4282230665427278   F   F   F
  0.4059018739390154  0.3822235888080883  0.4561785915149272   F   F   F
  0.5357818896390683  0.5680835373033233  0.4543473312664048   F   F   F
  0.4924712632432886  0.6367287407321953  0.4646113344718685   F   F   F
  0.4677327221812249  0.5829886973614862  0.4038343643763724   F   F   F
  0.5280944416629296  0.5063826634733033  0.5194466411805863   F   F   F
  0.6212454441397384  0.5105019604624417  0.3755946010283822   F   F   F
  0.6054499763524817  0.5821019035045651  0.4188664505762958   F   F   F
  0.4050790883739026  0.5245211222763402  0.5434909784116542   F   F   F
  0.3506150495110987  0.4705368528833633  0.5081785004149810   T   T   T
  0.4341088193294017  0.4569904367439546  0.3019620377609079   T   T   T
  0.5376941245440310  0.4217621456302741  0.5688687714358718   T   T   T
  0.3571857388420229  0.3869300117265476  0.5383128824281262   T   T   T
  0.4625951421883201  0.5516617238622956  0.4875128022361963   F   F   F
  0.6065818143849058  0.3752008809599073  0.5108002708325350   T   T   T
  0.4900349601562285  0.4372126185601100  0.6578101521858259   T   T   T
  0.5874858375560890  0.4674323150491048  0.3064774520299943   T   T   T
  0.4900497958562298  0.4037080615820798  0.4151644571778519   F   F   F
  0.4356334570769960  0.6745158176462143  0.4124191794908193   T   T   T
  0.4653316704566268  0.5354485843077926  0.6599837790166071   T   T   T
  0.5397532608265934  0.5319899791087650  0.3771480104995177   F   F   F
  0.6682952102275480  0.6003668805258970  0.4841853617946714   T   T   T
  0.6647158459336513  0.5188802377642967  0.5514389780850902   T   T   T
  0.3752884544765939  0.3342998649806829  0.3848287217692480   T   T   T
  0.6787064697244062  0.4367470110192487  0.4869598211446701   T   T   T
  0.5401237881488320  0.3188042310428521  0.3918759324352988   T   T   T
  0.3025984196411032  0.5028958528679232  0.4356224974643508   T   T   T
  0.3133169159796613  0.3952608135691340  0.4479587007800538   T   T   T
  0.5103660171097093  0.6260425820314833  0.6166614364506330   T   T   T
  0.4484011004153711  0.3739201689794477  0.5846965303599392   T   T   T
  0.3901996931001533  0.5825552105424430  0.6127729649384588   T   T   T
  0.4052216291698913  0.3051381868401951  0.5008284845559579   T   T   T
  0.4028091785767750  0.3712028539877194  0.2870560217798958   T   T   T
  0.3842104777506277  0.5333358859537548  0.2915053855761874   T   T   T
  0.6927604828665909  0.4605952922181472  0.3875432862242508   T   T   T
  0.3374789074671344  0.5718341565170254  0.5120184693362174   T   T   T
  0.5994870931038193  0.5723109336039908  0.3076794998307389   T   T   T
  0.6119566252381939  0.6137620767775380  0.5762372437963673   T   T   T
  0.4406902910994648  0.6146283385095964  0.3233478059811007   T   T   T
  0.3114349723430348  0.5514501048241225  0.6267554382474695   T   T   T
  0.2767072511745206  0.5755494775675468  0.6250701189038494   T   T   T
  0.3073588036946075  0.5019944373336079  0.6378183402245199   T   T   T
  0.2743171706708379  0.4949277921667279  0.6393947583995063   T   T   T
 
  0.00000000E+00  0.00000000E+00  0.00000000E+00
  0.00000000E+00  0.00000000E+00  0.00000000E+00
  0.00000000E+00  0.00000000E+00  0.00000000E+00
  0.00000000E+00  0.00000000E+00  0.00000000E+00
  0.00000000E+00  0.00000000E+00  0.00000000E+00
  0.00000000E+00  0.00000000E+00  0.00000000E+00
  0.00000000E+00  0.00000000E+00  0.00000000E+00
  0.00000000E+00  0.00000000E+00  0.00000000E+00
  0.00000000E+00  0.00000000E+00  0.00000000E+00
  0.00000000E+00  0.00000000E+00  0.00000000E+00
  0.00000000E+00  0.00000000E+00  0.00000000E+00
  0.00000000E+00  0.00000000E+00  0.00000000E+00
  0.00000000E+00  0.00000000E+00  0.00000000E+00
  0.00000000E+00  0.00000000E+00  0.00000000E+00
  0.00000000E+00  0.00000000E+00  0.00000000E+00
  0.00000000E+00  0.00000000E+00  0.00000000E+00
  0.00000000E+00  0.00000000E+00  0.00000000E+00
  0.00000000E+00  0.00000000E+00  0.00000000E+00
  0.00000000E+00  0.00000000E+00  0.00000000E+00
  0.00000000E+00  0.00000000E+00  0.00000000E+00
  0.00000000E+00  0.00000000E+00  0.00000000E+00
  0.00000000E+00  0.00000000E+00  0.00000000E+00
  0.00000000E+00  0.00000000E+00  0.00000000E+00
  0.00000000E+00  0.00000000E+00  0.00000000E+00
  0.00000000E+00  0.00000000E+00  0.00000000E+00
  0.00000000E+00  0.00000000E+00  0.00000000E+00
  0.00000000E+00  0.00000000E+00  0.00000000E+00
  0.00000000E+00  0.00000000E+00  0.00000000E+00
  0.00000000E+00  0.00000000E+00  0.00000000E+00
  0.00000000E+00  0.00000000E+00  0.00000000E+00
  0.00000000E+00  0.00000000E+00  0.00000000E+00
  0.00000000E+00  0.00000000E+00  0.00000000E+00
  0.00000000E+00  0.00000000E+00  0.00000000E+00
  0.00000000E+00  0.00000000E+00  0.00000000E+00
  0.00000000E+00  0.00000000E+00  0.00000000E+00
  0.00000000E+00  0.00000000E+00  0.00000000E+00
  0.00000000E+00  0.00000000E+00  0.00000000E+00
  0.00000000E+00  0.00000000E+00  0.00000000E+00
  0.00000000E+00  0.00000000E+00  0.00000000E+00
  0.00000000E+00  0.00000000E+00  0.00000000E+00
  0.00000000E+00  0.00000000E+00  0.00000000E+00
  0.00000000E+00  0.00000000E+00  0.00000000E+00
  0.00000000E+00  0.00000000E+00  0.00000000E+00
  0.00000000E+00  0.00000000E+00  0.00000000E+00
  0.00000000E+00  0.00000000E+00  0.00000000E+00
  0.00000000E+00  0.00000000E+00  0.00000000E+00
  0.00000000E+00  0.00000000E+00  0.00000000E+00
  0.00000000E+00  0.00000000E+00  0.00000000E+00
  0.00000000E+00  0.00000000E+00  0.00000000E+00
  0.00000000E+00  0.00000000E+00  0.00000000E+00
  0.00000000E+00  0.00000000E+00  0.00000000E+00
  0.00000000E+00  0.00000000E+00  0.00000000E+00
  0.00000000E+00  0.00000000E+00  0.00000000E+00
  0.00000000E+00  0.00000000E+00  0.00000000E+00
  0.00000000E+00  0.00000000E+00  0.00000000E+00
  0.00000000E+00  0.00000000E+00  0.00000000E+00
  0.00000000E+00  0.00000000E+00  0.00000000E+00
  0.00000000E+00  0.00000000E+00  0.00000000E+00
  0.00000000E+00  0.00000000E+00  0.00000000E+00
  0.00000000E+00  0.00000000E+00  0.00000000E+00
  0.00000000E+00  0.00000000E+00  0.00000000E+00
  0.00000000E+00  0.00000000E+00  0.00000000E+00
  0.00000000E+00  0.00000000E+00  0.00000000E+00
  0.00000000E+00  0.00000000E+00  0.00000000E+00
  0.00000000E+00  0.00000000E+00  0.00000000E+00
  0.00000000E+00  0.00000000E+00  0.00000000E+00
  0.00000000E+00  0.00000000E+00  0.00000000E+00
  0.00000000E+00  0.00000000E+00  0.00000000E+00
  0.00000000E+00  0.00000000E+00  0.00000000E+00
  0.00000000E+00  0.00000000E+00  0.00000000E+00
  0.00000000E+00  0.00000000E+00  0.00000000E+00
  0.00000000E+00  0.00000000E+00  0.00000000E+00
