La Co Ni Sn Bi C  O  H                  
   1.00000000000000     
    29.1044006348000011    0.0000000000000000    0.0000000000000000
     0.4451680315000000   28.3694074727000007    0.0000000000000000
     0.0682082826000000    0.3036559964000000   28.5240018092999996
   La   Co   Ni   Sn   Bi   C    O    H 
    14    13    13    14    14     1     2     1
Selective dynamics
Direct
  0.5925257464128657  0.4198439479038378  0.4085450161707561   T   T   T
  0.6854843905384604  0.5712371389712214  0.3819067688022898   T   T   T
  0.4955472104233516  0.5280479626131355  0.2824864937989055   T   T   T
  0.5623472655088800  0.5209053949774634  0.6022645040152499   T   T   T
  0.5088753362914560  0.3874136569922975  0.3052642399864087   T   T   T
  0.5754040144898062  0.6553220645414418  0.4841023566305732   T   T   T
  0.5092246057863773  0.3386077652797116  0.4988638801377303   T   T   T
  0.5349822301069437  0.6378934894127083  0.3755818270507342   T   T   T
  0.4363889619899297  0.6434463002256641  0.5357089960248563   T   T   T
  0.4373551010143757  0.5015757590148624  0.3842817269995109   F   F   F
  0.4437846394494898  0.4460183835780285  0.5005161578087822   F   F   F
  0.3871311539531953  0.4670093040975771  0.6092898012663643   T   T   T
  0.3446760023932271  0.4441230599140780  0.3468576584781476   T   T   T
  0.3620366868515465  0.5856367855248115  0.3937484656224149   T   T   T
  0.4217425606853311  0.4061295180575186  0.3699802678458894   F   F   F
  0.5011311695957161  0.4887203336762909  0.4395023580252015   F   F   F
  0.4044148221271726  0.6101724300038001  0.4624736492929173   F   F   F
  0.4722931245665194  0.5596737886932672  0.5729988711091565   F   F   F
  0.6552684236953183  0.5165424048424470  0.4543399438695133   F   F   F
  0.5967309916701211  0.5535378348504167  0.5056109707055541   F   F   F
  0.5314074673932367  0.5941153005651714  0.5336729985293047   F   F   F
  0.5796732686089143  0.4997731718447866  0.4507473928409595   F   F   F
  0.4602585289937930  0.3303522096088169  0.3453039384253913   T   T   T
  0.3905180950192175  0.5252419063175111  0.4552418453041511   F   F   F
  0.4548643375045930  0.3246626792807640  0.4248322384931053   T   T   T
  0.5074804872141527  0.4592780196109629  0.3501259710292359   F   F   F
  0.6012877811302459  0.4669891268301640  0.5212355700313438   F   F   F
  0.5384608035519776  0.4312182275275163  0.4821288228790692   F   F   F
  0.4713083414346286  0.4805797151798927  0.5807598339419258   F   F   F
  0.3771163837573610  0.4514853175274567  0.4282230665427278   F   F   F
  0.4059018739390154  0.3822235888080883  0.4561785915149272   F   F   F
  0.5357818896390683  0.5680835373033233  0.4543473312664048   F   F   F
  0.4924712632432886  0.6367287407321953  0.4646113344718685   F   F   F
  0.4677327221812249  0.5829886973614862  0.4038343643763724   F   F   F
  0.5280944416629296  0.5063826634733033  0.5194466411805863   F   F   F
  0.6212454441397384  0.5105019604624417  0.3755946010283822   F   F   F
  0.6054499763524817  0.5821019035045651  0.4188664505762958   F   F   F
  0.4050790883739026  0.5245211222763402  0.5434909784116542   F   F   F
  0.3506076263160702  0.4701144179220084  0.5087709188057725   T   T   T
  0.4342493499494940  0.4572781773961514  0.3019953247112620   T   T   T
  0.5393762710861641  0.4212013820270130  0.5687995121748172   T   T   T
  0.3576961749672895  0.3868041557457920  0.5398040146315117   T   T   T
  0.4625951421883201  0.5516617238622956  0.4875128022361963   F   F   F
  0.6097939174250727  0.3733035223241053  0.5077500683060585   T   T   T
  0.4920619998985773  0.4382382904575128  0.6573427471025879   T   T   T
  0.5874259705742230  0.4677837575988628  0.3065600807922020   T   T   T
  0.4900497958562298  0.4037080615820798  0.4151644571778519   F   F   F
  0.4354665523893754  0.6748137884455677  0.4130454525583909   T   T   T
  0.4680496053400922  0.5365139590792050  0.6600223228172705   T   T   T
  0.5397532608265934  0.5319899791087650  0.3771480104995177   F   F   F
  0.6687570407462591  0.5999047883441052  0.4847855141425120   T   T   T
  0.6656557769906658  0.5185625787750853  0.5513699426262997   T   T   T
  0.3748201577875070  0.3346428657221418  0.3850145557697456   T   T   T
  0.6800234363864133  0.4373512492781767  0.4870102294358763   T   T   T
  0.5394363640095972  0.3183654199033052  0.3911071571574823   T   T   T
  0.3025017834743369  0.5031248230841939  0.4364805129949216   T   T   T
  0.3134946711771870  0.3958122085778133  0.4496469930049887   T   T   T
  0.5126415175642824  0.6247171813882084  0.6172101863049281   T   T   T
  0.4492776248215873  0.3746970663788833  0.5850192385388844   T   T   T
  0.3904899800034391  0.5805332391305366  0.6129630077458202   T   T   T
  0.4048862913530714  0.3051941293845903  0.5006795580372125   T   T   T
  0.4027108096443062  0.3715784115872199  0.2869827729704464   T   T   T
  0.3838745162487767  0.5335553721069830  0.2923978499436965   T   T   T
  0.6924674790626923  0.4600948715250884  0.3873725144875910   T   T   T
  0.3376825653348431  0.5722401513904636  0.5127707993946731   T   T   T
  0.5998520701689001  0.5730578432844760  0.3086341593425849   T   T   T
  0.6126950512814756  0.6134834562570031  0.5762175159075489   T   T   T
  0.4400091548979085  0.6154762232979162  0.3238070934367556   T   T   T
  0.6556208976398475  0.3526744484851154  0.5687013223124108   T   T   T
  0.6587597536578906  0.3705054094729804  0.6072710315920969   T   T   T
  0.6820586708514045  0.3138304090416855  0.5559016211891813   T   T   T
  0.7025595929653025  0.3062993083980570  0.5825200802199630   T   T   T
 
  0.00000000E+00  0.00000000E+00  0.00000000E+00
  0.00000000E+00  0.00000000E+00  0.00000000E+00
  0.00000000E+00  0.00000000E+00  0.00000000E+00
  0.00000000E+00  0.00000000E+00  0.00000000E+00
  0.00000000E+00  0.00000000E+00  0.00000000E+00
  0.00000000E+00  0.00000000E+00  0.00000000E+00
  0.00000000E+00  0.00000000E+00  0.00000000E+00
  0.00000000E+00  0.00000000E+00  0.00000000E+00
  0.00000000E+00  0.00000000E+00  0.00000000E+00
  0.00000000E+00  0.00000000E+00  0.00000000E+00
  0.00000000E+00  0.00000000E+00  0.00000000E+00
  0.00000000E+00  0.00000000E+00  0.00000000E+00
  0.00000000E+00  0.00000000E+00  0.00000000E+00
  0.00000000E+00  0.00000000E+00  0.00000000E+00
  0.00000000E+00  0.00000000E+00  0.00000000E+00
  0.00000000E+00  0.00000000E+00  0.00000000E+00
  0.00000000E+00  0.00000000E+00  0.00000000E+00
  0.00000000E+00  0.00000000E+00  0.00000000E+00
  0.00000000E+00  0.00000000E+00  0.00000000E+00
  0.00000000E+00  0.00000000E+00  0.00000000E+00
  0.00000000E+00  0.00000000E+00  0.00000000E+00
  0.00000000E+00  0.00000000E+00  0.00000000E+00
  0.00000000E+00  0.00000000E+00  0.00000000E+00
  0.00000000E+00  0.00000000E+00  0.00000000E+00
  0.00000000E+00  0.00000000E+00  0.00000000E+00
  0.00000000E+00  0.00000000E+00  0.00000000E+00
  0.00000000E+00  0.00000000E+00  0.00000000E+00
  0.00000000E+00  0.00000000E+00  0.00000000E+00
  0.00000000E+00  0.00000000E+00  0.00000000E+00
  0.00000000E+00  0.00000000E+00  0.00000000E+00
  0.00000000E+00  0.00000000E+00  0.00000000E+00
  0.00000000E+00  0.00000000E+00  0.00000000E+00
  0.00000000E+00  0.00000000E+00  0.00000000E+00
  0.00000000E+00  0.00000000E+00  0.00000000E+00
  0.00000000E+00  0.00000000E+00  0.00000000E+00
  0.00000000E+00  0.00000000E+00  0.00000000E+00
  0.00000000E+00  0.00000000E+00  0.00000000E+00
  0.00000000E+00  0.00000000E+00  0.00000000E+00
  0.00000000E+00  0.00000000E+00  0.00000000E+00
  0.00000000E+00  0.00000000E+00  0.00000000E+00
  0.00000000E+00  0.00000000E+00  0.00000000E+00
  0.00000000E+00  0.00000000E+00  0.00000000E+00
  0.00000000E+00  0.00000000E+00  0.00000000E+00
  0.00000000E+00  0.00000000E+00  0.00000000E+00
  0.00000000E+00  0.00000000E+00  0.00000000E+00
  0.00000000E+00  0.00000000E+00  0.00000000E+00
  0.00000000E+00  0.00000000E+00  0.00000000E+00
  0.00000000E+00  0.00000000E+00  0.00000000E+00
  0.00000000E+00  0.00000000E+00  0.00000000E+00
  0.00000000E+00  0.00000000E+00  0.00000000E+00
  0.00000000E+00  0.00000000E+00  0.00000000E+00
  0.00000000E+00  0.00000000E+00  0.00000000E+00
  0.00000000E+00  0.00000000E+00  0.00000000E+00
  0.00000000E+00  0.00000000E+00  0.00000000E+00
  0.00000000E+00  0.00000000E+00  0.00000000E+00
  0.00000000E+00  0.00000000E+00  0.00000000E+00
  0.00000000E+00  0.00000000E+00  0.00000000E+00
  0.00000000E+00  0.00000000E+00  0.00000000E+00
  0.00000000E+00  0.00000000E+00  0.00000000E+00
  0.00000000E+00  0.00000000E+00  0.00000000E+00
  0.00000000E+00  0.00000000E+00  0.00000000E+00
  0.00000000E+00  0.00000000E+00  0.00000000E+00
  0.00000000E+00  0.00000000E+00  0.00000000E+00
  0.00000000E+00  0.00000000E+00  0.00000000E+00
  0.00000000E+00  0.00000000E+00  0.00000000E+00
  0.00000000E+00  0.00000000E+00  0.00000000E+00
  0.00000000E+00  0.00000000E+00  0.00000000E+00
  0.00000000E+00  0.00000000E+00  0.00000000E+00
  0.00000000E+00  0.00000000E+00  0.00000000E+00
  0.00000000E+00  0.00000000E+00  0.00000000E+00
  0.00000000E+00  0.00000000E+00  0.00000000E+00
  0.00000000E+00  0.00000000E+00  0.00000000E+00
