La Co Ni Sn Bi C  O  H                  
   1.00000000000000     
    29.1044006348000011    0.0000000000000000    0.0000000000000000
     0.4451680315000000   28.3694074727000007    0.0000000000000000
     0.0682082826000000    0.3036559964000000   28.5240018092999996
   La   Co   Ni   Sn   Bi   C    O    H 
    14    13    13    14    14     1     2     1
Selective dynamics
Direct
  0.5924058207017561  0.4205145777184413  0.4078557634076974   T   T   T
  0.6852351820676718  0.5714026135976457  0.3815117674467473   T   T   T
  0.4955457696194630  0.5267296860751214  0.2821564704082410   T   T   T
  0.5611019442051687  0.5214077016489485  0.6029720587723985   T   T   T
  0.5088550721695171  0.3864202672577413  0.3057100205426491   T   T   T
  0.5756945023821475  0.6552845220668968  0.4837699291862973   T   T   T
  0.5083560648135991  0.3388389468976318  0.5002767017057693   T   T   T
  0.5353317096328712  0.6376392931502989  0.3752557652562004   T   T   T
  0.4361145031011985  0.6440129240085809  0.5347448024944178   T   T   T
  0.4373551010143757  0.5015757590148624  0.3842817269995109   F   F   F
  0.4437846394494898  0.4460183835780285  0.5005161578087822   F   F   F
  0.3851440909374998  0.4690064754167275  0.6108107412731845   T   T   T
  0.3447359601582351  0.4436323600115606  0.3467655343064205   T   T   T
  0.3621271994423690  0.5855614845268265  0.3932065937056477   T   T   T
  0.4217425606853311  0.4061295180575186  0.3699802678458894   F   F   F
  0.5011311695957161  0.4887203336762909  0.4395023580252015   F   F   F
  0.4044148221271726  0.6101724300038001  0.4624736492929173   F   F   F
  0.4722931245665194  0.5596737886932672  0.5729988711091565   F   F   F
  0.6552684236953183  0.5165424048424470  0.4543399438695133   F   F   F
  0.5967309916701211  0.5535378348504167  0.5056109707055541   F   F   F
  0.5314074673932367  0.5941153005651714  0.5336729985293047   F   F   F
  0.5796732686089143  0.4997731718447866  0.4507473928409595   F   F   F
  0.4613128603495470  0.3313195419266116  0.3450150930468990   T   T   T
  0.3905180950192175  0.5252419063175111  0.4552418453041511   F   F   F
  0.4540364322466537  0.3243648928773346  0.4245116747351173   T   T   T
  0.5074804872141527  0.4592780196109629  0.3501259710292359   F   F   F
  0.6012877811302459  0.4669891268301640  0.5212355700313438   F   F   F
  0.5384608035519776  0.4312182275275163  0.4821288228790692   F   F   F
  0.4713083414346286  0.4805797151798927  0.5807598339419258   F   F   F
  0.3771163837573610  0.4514853175274567  0.4282230665427278   F   F   F
  0.4059018739390154  0.3822235888080883  0.4561785915149272   F   F   F
  0.5357818896390683  0.5680835373033233  0.4543473312664048   F   F   F
  0.4924712632432886  0.6367287407321953  0.4646113344718685   F   F   F
  0.4677327221812249  0.5829886973614862  0.4038343643763724   F   F   F
  0.5280944416629296  0.5063826634733033  0.5194466411805863   F   F   F
  0.6212454441397384  0.5105019604624417  0.3755946010283822   F   F   F
  0.6054499763524817  0.5821019035045651  0.4188664505762958   F   F   F
  0.4050790883739026  0.5245211222763402  0.5434909784116542   F   F   F
  0.3502165699492341  0.4706487781504712  0.5081441253136022   T   T   T
  0.4342446482623411  0.4564565037633607  0.3017907354012250   T   T   T
  0.5392160696209961  0.4220188507699606  0.5674652418197390   T   T   T
  0.3584661885769890  0.3883887259628465  0.5405942655420931   T   T   T
  0.4625951421883201  0.5516617238622956  0.4875128022361963   F   F   F
  0.6066565737073707  0.3743279175074568  0.5092863701115166   T   T   T
  0.4954301032483976  0.4431175553712733  0.6599211097978315   T   T   T
  0.5873462106981706  0.4672410278421817  0.3063817659586470   T   T   T
  0.4900497958562298  0.4037080615820798  0.4151644571778519   F   F   F
  0.4355179377475494  0.6744189385475260  0.4124139906232929   T   T   T
  0.4664587207311570  0.5407473409113690  0.6596967975859598   T   T   T
  0.5397532608265934  0.5319899791087650  0.3771480104995177   F   F   F
  0.6687951540388205  0.6001700094219531  0.4842688969927600   T   T   T
  0.6654204923314404  0.5187882102324710  0.5512146588704390   T   T   T
  0.3746613938734101  0.3348159443519015  0.3849295536944637   T   T   T
  0.6786564579347396  0.4366872213330857  0.4873688999527335   T   T   T
  0.5395415413780251  0.3184793713680801  0.3929551985677619   T   T   T
  0.3024941952603303  0.5030148359950856  0.4356094506136328   T   T   T
  0.3135357279288039  0.3958364911023745  0.4500751164411053   T   T   T
  0.5120641447689551  0.6264087969549189  0.6162697393533690   T   T   T
  0.4503543296683823  0.3776116906950142  0.5877934032390439   T   T   T
  0.3888055076895560  0.5823607310900174  0.6112640423195125   T   T   T
  0.4057064119379061  0.3069809173643227  0.5033806934479069   T   T   T
  0.4025610134521073  0.3709438475985034  0.2870140679452827   T   T   T
  0.3841879644344323  0.5329375413961578  0.2922072124743261   T   T   T
  0.6927816332326482  0.4604237209417075  0.3878723857718495   T   T   T
  0.3373590222144255  0.5719925170173746  0.5123410346436259   T   T   T
  0.5996369391652955  0.5722858304791060  0.3079482264986030   T   T   T
  0.6123318375863943  0.6134794178757801  0.5762526664844546   T   T   T
  0.4405338482553074  0.6146975378169900  0.3233973165947686   T   T   T
  0.4283666356517087  0.4241138191340760  0.7011624992516711   T   T   T
  0.3868162834140533  0.4338576935528690  0.6932585149308840   T   T   T
  0.4387844364960184  0.3948989287484796  0.7376319124659182   T   T   T
  0.4096703236201295  0.3850808774389146  0.7523647061646337   T   T   T
 
  0.00000000E+00  0.00000000E+00  0.00000000E+00
  0.00000000E+00  0.00000000E+00  0.00000000E+00
  0.00000000E+00  0.00000000E+00  0.00000000E+00
  0.00000000E+00  0.00000000E+00  0.00000000E+00
  0.00000000E+00  0.00000000E+00  0.00000000E+00
  0.00000000E+00  0.00000000E+00  0.00000000E+00
  0.00000000E+00  0.00000000E+00  0.00000000E+00
  0.00000000E+00  0.00000000E+00  0.00000000E+00
  0.00000000E+00  0.00000000E+00  0.00000000E+00
  0.00000000E+00  0.00000000E+00  0.00000000E+00
  0.00000000E+00  0.00000000E+00  0.00000000E+00
  0.00000000E+00  0.00000000E+00  0.00000000E+00
  0.00000000E+00  0.00000000E+00  0.00000000E+00
  0.00000000E+00  0.00000000E+00  0.00000000E+00
  0.00000000E+00  0.00000000E+00  0.00000000E+00
  0.00000000E+00  0.00000000E+00  0.00000000E+00
  0.00000000E+00  0.00000000E+00  0.00000000E+00
  0.00000000E+00  0.00000000E+00  0.00000000E+00
  0.00000000E+00  0.00000000E+00  0.00000000E+00
  0.00000000E+00  0.00000000E+00  0.00000000E+00
  0.00000000E+00  0.00000000E+00  0.00000000E+00
  0.00000000E+00  0.00000000E+00  0.00000000E+00
  0.00000000E+00  0.00000000E+00  0.00000000E+00
  0.00000000E+00  0.00000000E+00  0.00000000E+00
  0.00000000E+00  0.00000000E+00  0.00000000E+00
  0.00000000E+00  0.00000000E+00  0.00000000E+00
  0.00000000E+00  0.00000000E+00  0.00000000E+00
  0.00000000E+00  0.00000000E+00  0.00000000E+00
  0.00000000E+00  0.00000000E+00  0.00000000E+00
  0.00000000E+00  0.00000000E+00  0.00000000E+00
  0.00000000E+00  0.00000000E+00  0.00000000E+00
  0.00000000E+00  0.00000000E+00  0.00000000E+00
  0.00000000E+00  0.00000000E+00  0.00000000E+00
  0.00000000E+00  0.00000000E+00  0.00000000E+00
  0.00000000E+00  0.00000000E+00  0.00000000E+00
  0.00000000E+00  0.00000000E+00  0.00000000E+00
  0.00000000E+00  0.00000000E+00  0.00000000E+00
  0.00000000E+00  0.00000000E+00  0.00000000E+00
  0.00000000E+00  0.00000000E+00  0.00000000E+00
  0.00000000E+00  0.00000000E+00  0.00000000E+00
  0.00000000E+00  0.00000000E+00  0.00000000E+00
  0.00000000E+00  0.00000000E+00  0.00000000E+00
  0.00000000E+00  0.00000000E+00  0.00000000E+00
  0.00000000E+00  0.00000000E+00  0.00000000E+00
  0.00000000E+00  0.00000000E+00  0.00000000E+00
  0.00000000E+00  0.00000000E+00  0.00000000E+00
  0.00000000E+00  0.00000000E+00  0.00000000E+00
  0.00000000E+00  0.00000000E+00  0.00000000E+00
  0.00000000E+00  0.00000000E+00  0.00000000E+00
  0.00000000E+00  0.00000000E+00  0.00000000E+00
  0.00000000E+00  0.00000000E+00  0.00000000E+00
  0.00000000E+00  0.00000000E+00  0.00000000E+00
  0.00000000E+00  0.00000000E+00  0.00000000E+00
  0.00000000E+00  0.00000000E+00  0.00000000E+00
  0.00000000E+00  0.00000000E+00  0.00000000E+00
  0.00000000E+00  0.00000000E+00  0.00000000E+00
  0.00000000E+00  0.00000000E+00  0.00000000E+00
  0.00000000E+00  0.00000000E+00  0.00000000E+00
  0.00000000E+00  0.00000000E+00  0.00000000E+00
  0.00000000E+00  0.00000000E+00  0.00000000E+00
  0.00000000E+00  0.00000000E+00  0.00000000E+00
  0.00000000E+00  0.00000000E+00  0.00000000E+00
  0.00000000E+00  0.00000000E+00  0.00000000E+00
  0.00000000E+00  0.00000000E+00  0.00000000E+00
  0.00000000E+00  0.00000000E+00  0.00000000E+00
  0.00000000E+00  0.00000000E+00  0.00000000E+00
  0.00000000E+00  0.00000000E+00  0.00000000E+00
  0.00000000E+00  0.00000000E+00  0.00000000E+00
  0.00000000E+00  0.00000000E+00  0.00000000E+00
  0.00000000E+00  0.00000000E+00  0.00000000E+00
  0.00000000E+00  0.00000000E+00  0.00000000E+00
  0.00000000E+00  0.00000000E+00  0.00000000E+00
