La Co Ni Sn Bi C  O  H                  
   1.00000000000000     
    29.1044006348000011    0.0000000000000000    0.0000000000000000
     0.4451680315000000   28.3694074727000007    0.0000000000000000
     0.0682082826000000    0.3036559964000000   28.5240018092999996
   La   Co   Ni   Sn   Bi   C    O    H 
    14    13    13    14    14     1     2     1
Selective dynamics
Direct
  0.5925200165996395  0.4184696346721354  0.4048796538942121   T   T   T
  0.6854252042382739  0.5710321417850517  0.3811576821523552   T   T   T
  0.4954552489434325  0.5292397906818300  0.2823978148729253   T   T   T
  0.5624125591990325  0.5222292261240797  0.6022987423728898   T   T   T
  0.5161124776708476  0.3855020702527968  0.3075942694068526   T   T   T
  0.5753154715035486  0.6553019159312838  0.4833489426287117   T   T   T
  0.5076751624005371  0.3386832708399179  0.5016463830558575   T   T   T
  0.5337035410110231  0.6388393927720638  0.3760215252091649   T   T   T
  0.4363342007677334  0.6437649638127121  0.5352850468038599   T   T   T
  0.4373551010143757  0.5015757590148624  0.3842817269995109   F   F   F
  0.4437846394494898  0.4460183835780285  0.5005161578087822   F   F   F
  0.3870656578831078  0.4684098596476913  0.6102544531662801   T   T   T
  0.3461054176344837  0.4421466301266380  0.3460244724781840   T   T   T
  0.3616688436376582  0.5853733501940931  0.3938074661949850   T   T   T
  0.4217425606853311  0.4061295180575186  0.3699802678458894   F   F   F
  0.5011311695957161  0.4887203336762909  0.4395023580252015   F   F   F
  0.4044148221271726  0.6101724300038001  0.4624736492929173   F   F   F
  0.4722931245665194  0.5596737886932672  0.5729988711091565   F   F   F
  0.6552684236953183  0.5165424048424470  0.4543399438695133   F   F   F
  0.5967309916701211  0.5535378348504167  0.5056109707055541   F   F   F
  0.5314074673932367  0.5941153005651714  0.5336729985293047   F   F   F
  0.5796732686089143  0.4997731718447866  0.4507473928409595   F   F   F
  0.4622917589538157  0.3300783630964838  0.3479797295522062   T   T   T
  0.3905180950192175  0.5252419063175111  0.4552418453041511   F   F   F
  0.4544832292245846  0.3237251165138169  0.4276211067873403   T   T   T
  0.5074804872141527  0.4592780196109629  0.3501259710292359   F   F   F
  0.6012877811302459  0.4669891268301640  0.5212355700313438   F   F   F
  0.5384608035519776  0.4312182275275163  0.4821288228790692   F   F   F
  0.4713083414346286  0.4805797151798927  0.5807598339419258   F   F   F
  0.3771163837573610  0.4514853175274567  0.4282230665427278   F   F   F
  0.4059018739390154  0.3822235888080883  0.4561785915149272   F   F   F
  0.5357818896390683  0.5680835373033233  0.4543473312664048   F   F   F
  0.4924712632432886  0.6367287407321953  0.4646113344718685   F   F   F
  0.4677327221812249  0.5829886973614862  0.4038343643763724   F   F   F
  0.5280944416629296  0.5063826634733033  0.5194466411805863   F   F   F
  0.6212454441397384  0.5105019604624417  0.3755946010283822   F   F   F
  0.6054499763524817  0.5821019035045651  0.4188664505762958   F   F   F
  0.4050790883739026  0.5245211222763402  0.5434909784116542   F   F   F
  0.3502309566339208  0.4708104229925888  0.5085079198231065   T   T   T
  0.4361532980741531  0.4575460185998409  0.3013864177947727   T   T   T
  0.5385735606648014  0.4223264487439569  0.5692393588403245   T   T   T
  0.3572193378295019  0.3886576083754425  0.5407242534856130   T   T   T
  0.4625951421883201  0.5516617238622956  0.4875128022361963   F   F   F
  0.6060114977839672  0.3750640989226398  0.5090982933390135   T   T   T
  0.4922775755549852  0.4403024736446923  0.6584463537423031   T   T   T
  0.5883547266762642  0.4722348995247347  0.3047210124547414   T   T   T
  0.4900497958562298  0.4037080615820798  0.4151644571778519   F   F   F
  0.4347440966899148  0.6749860888588940  0.4132849935570586   T   T   T
  0.4680546106894287  0.5381340319505528  0.6601259313016612   T   T   T
  0.5397532608265934  0.5319899791087650  0.3771480104995177   F   F   F
  0.6685120914646867  0.6001195944805774  0.4838123771153823   T   T   T
  0.6656763982611275  0.5189971348678953  0.5509344351488648   T   T   T
  0.3760072072210703  0.3340263707725919  0.3852254620277221   T   T   T
  0.6783934386118393  0.4364574510134415  0.4860382044295264   T   T   T
  0.5384345993503526  0.3153172589147633  0.3964708710354865   T   T   T
  0.3025967278947742  0.5024405459358287  0.4354757387233827   T   T   T
  0.3138748452858877  0.3955253115167776  0.4498516791266433   T   T   T
  0.5123216198344334  0.6257175140386332  0.6166329988438687   T   T   T
  0.4485383419179887  0.3763238414688518  0.5868903763888242   T   T   T
  0.3902368772853470  0.5814956663694542  0.6124700384726655   T   T   T
  0.4037915442698750  0.3065613901649961  0.5031401017060807   T   T   T
  0.4084920308893706  0.3712367208712932  0.2867439919291577   T   T   T
  0.3841778173402026  0.5327531923658351  0.2922985023473559   T   T   T
  0.6924094671991902  0.4598811710480994  0.3871907203860548   T   T   T
  0.3374075654565515  0.5718696137440049  0.5125712889317273   T   T   T
  0.5987423784575591  0.5769684537922044  0.3099277356316179   T   T   T
  0.6127095258407649  0.6145435285369206  0.5754893980222674   T   T   T
  0.4391573494857825  0.6158414048958849  0.3241002428237096   T   T   T
  0.6290327453944446  0.3583490491149965  0.3494542230176813   T   T   T
  0.6021091799310491  0.3691336806331628  0.3152329245315000   T   T   T
  0.6618249616815371  0.3253935650632089  0.3406191830944700   T   T   T
  0.6583788669283399  0.3147076216526309  0.3079133102115986   T   T   T
 
  0.00000000E+00  0.00000000E+00  0.00000000E+00
  0.00000000E+00  0.00000000E+00  0.00000000E+00
  0.00000000E+00  0.00000000E+00  0.00000000E+00
  0.00000000E+00  0.00000000E+00  0.00000000E+00
  0.00000000E+00  0.00000000E+00  0.00000000E+00
  0.00000000E+00  0.00000000E+00  0.00000000E+00
  0.00000000E+00  0.00000000E+00  0.00000000E+00
  0.00000000E+00  0.00000000E+00  0.00000000E+00
  0.00000000E+00  0.00000000E+00  0.00000000E+00
  0.00000000E+00  0.00000000E+00  0.00000000E+00
  0.00000000E+00  0.00000000E+00  0.00000000E+00
  0.00000000E+00  0.00000000E+00  0.00000000E+00
  0.00000000E+00  0.00000000E+00  0.00000000E+00
  0.00000000E+00  0.00000000E+00  0.00000000E+00
  0.00000000E+00  0.00000000E+00  0.00000000E+00
  0.00000000E+00  0.00000000E+00  0.00000000E+00
  0.00000000E+00  0.00000000E+00  0.00000000E+00
  0.00000000E+00  0.00000000E+00  0.00000000E+00
  0.00000000E+00  0.00000000E+00  0.00000000E+00
  0.00000000E+00  0.00000000E+00  0.00000000E+00
  0.00000000E+00  0.00000000E+00  0.00000000E+00
  0.00000000E+00  0.00000000E+00  0.00000000E+00
  0.00000000E+00  0.00000000E+00  0.00000000E+00
  0.00000000E+00  0.00000000E+00  0.00000000E+00
  0.00000000E+00  0.00000000E+00  0.00000000E+00
  0.00000000E+00  0.00000000E+00  0.00000000E+00
  0.00000000E+00  0.00000000E+00  0.00000000E+00
  0.00000000E+00  0.00000000E+00  0.00000000E+00
  0.00000000E+00  0.00000000E+00  0.00000000E+00
  0.00000000E+00  0.00000000E+00  0.00000000E+00
  0.00000000E+00  0.00000000E+00  0.00000000E+00
  0.00000000E+00  0.00000000E+00  0.00000000E+00
  0.00000000E+00  0.00000000E+00  0.00000000E+00
  0.00000000E+00  0.00000000E+00  0.00000000E+00
  0.00000000E+00  0.00000000E+00  0.00000000E+00
  0.00000000E+00  0.00000000E+00  0.00000000E+00
  0.00000000E+00  0.00000000E+00  0.00000000E+00
  0.00000000E+00  0.00000000E+00  0.00000000E+00
  0.00000000E+00  0.00000000E+00  0.00000000E+00
  0.00000000E+00  0.00000000E+00  0.00000000E+00
  0.00000000E+00  0.00000000E+00  0.00000000E+00
  0.00000000E+00  0.00000000E+00  0.00000000E+00
  0.00000000E+00  0.00000000E+00  0.00000000E+00
  0.00000000E+00  0.00000000E+00  0.00000000E+00
  0.00000000E+00  0.00000000E+00  0.00000000E+00
  0.00000000E+00  0.00000000E+00  0.00000000E+00
  0.00000000E+00  0.00000000E+00  0.00000000E+00
  0.00000000E+00  0.00000000E+00  0.00000000E+00
  0.00000000E+00  0.00000000E+00  0.00000000E+00
  0.00000000E+00  0.00000000E+00  0.00000000E+00
  0.00000000E+00  0.00000000E+00  0.00000000E+00
  0.00000000E+00  0.00000000E+00  0.00000000E+00
  0.00000000E+00  0.00000000E+00  0.00000000E+00
  0.00000000E+00  0.00000000E+00  0.00000000E+00
  0.00000000E+00  0.00000000E+00  0.00000000E+00
  0.00000000E+00  0.00000000E+00  0.00000000E+00
  0.00000000E+00  0.00000000E+00  0.00000000E+00
  0.00000000E+00  0.00000000E+00  0.00000000E+00
  0.00000000E+00  0.00000000E+00  0.00000000E+00
  0.00000000E+00  0.00000000E+00  0.00000000E+00
  0.00000000E+00  0.00000000E+00  0.00000000E+00
  0.00000000E+00  0.00000000E+00  0.00000000E+00
  0.00000000E+00  0.00000000E+00  0.00000000E+00
  0.00000000E+00  0.00000000E+00  0.00000000E+00
  0.00000000E+00  0.00000000E+00  0.00000000E+00
  0.00000000E+00  0.00000000E+00  0.00000000E+00
  0.00000000E+00  0.00000000E+00  0.00000000E+00
  0.00000000E+00  0.00000000E+00  0.00000000E+00
  0.00000000E+00  0.00000000E+00  0.00000000E+00
  0.00000000E+00  0.00000000E+00  0.00000000E+00
  0.00000000E+00  0.00000000E+00  0.00000000E+00
  0.00000000E+00  0.00000000E+00  0.00000000E+00
