La Co Ni Sn Bi C  O  H                  
   1.00000000000000     
    29.1044006348000011    0.0000000000000000    0.0000000000000000
     0.4451680315000000   28.3694074727000007    0.0000000000000000
     0.0682082826000000    0.3036559964000000   28.5240018092999996
   La   Co   Ni   Sn   Bi   C    O    H 
    14    13    13    14    14     1     2     1
Selective dynamics
Direct
  0.5920635473830804  0.4205184223612963  0.4081433114708032   T   T   T
  0.6890096230915647  0.5708400063444438  0.3778310475628626   T   T   T
  0.4955954563214753  0.5278699916401691  0.2821535174894140   T   T   T
  0.5633304937105437  0.5215283139809922  0.6014897949318792   T   T   T
  0.5090274846898003  0.3874760599629567  0.3054068877220469   T   T   T
  0.5754991289726570  0.6556389470171415  0.4838768248428280   T   T   T
  0.5090950797227199  0.3379565716504733  0.4992679303285730   T   T   T
  0.5354323530116372  0.6377402228243518  0.3756296067852745   T   T   T
  0.4358822998701360  0.6429745432738329  0.5358979190764229   T   T   T
  0.4373551010143757  0.5015757590148624  0.3842817269995109   F   F   F
  0.4437846394494898  0.4460183835780285  0.5005161578087822   F   F   F
  0.3875995485117363  0.4665152978508095  0.6094691768765921   T   T   T
  0.3447444753862883  0.4447651603400624  0.3467169975346741   T   T   T
  0.3621187023727762  0.5855922025833522  0.3937220743059545   T   T   T
  0.4217425606853311  0.4061295180575186  0.3699802678458894   F   F   F
  0.5011311695957161  0.4887203336762909  0.4395023580252015   F   F   F
  0.4044148221271726  0.6101724300038001  0.4624736492929173   F   F   F
  0.4722931245665194  0.5596737886932672  0.5729988711091565   F   F   F
  0.6552684236953183  0.5165424048424470  0.4543399438695133   F   F   F
  0.5967309916701211  0.5535378348504167  0.5056109707055541   F   F   F
  0.5314074673932367  0.5941153005651714  0.5336729985293047   F   F   F
  0.5796732686089143  0.4997731718447866  0.4507473928409595   F   F   F
  0.4608346359100010  0.3309369780442853  0.3440776335442295   T   T   T
  0.3905180950192175  0.5252419063175111  0.4552418453041511   F   F   F
  0.4542766132825847  0.3245999917966651  0.4236280592461672   T   T   T
  0.5074804872141527  0.4592780196109629  0.3501259710292359   F   F   F
  0.6012877811302459  0.4669891268301640  0.5212355700313438   F   F   F
  0.5384608035519776  0.4312182275275163  0.4821288228790692   F   F   F
  0.4713083414346286  0.4805797151798927  0.5807598339419258   F   F   F
  0.3771163837573610  0.4514853175274567  0.4282230665427278   F   F   F
  0.4059018739390154  0.3822235888080883  0.4561785915149272   F   F   F
  0.5357818896390683  0.5680835373033233  0.4543473312664048   F   F   F
  0.4924712632432886  0.6367287407321953  0.4646113344718685   F   F   F
  0.4677327221812249  0.5829886973614862  0.4038343643763724   F   F   F
  0.5280944416629296  0.5063826634733033  0.5194466411805863   F   F   F
  0.6212454441397384  0.5105019604624417  0.3755946010283822   F   F   F
  0.6054499763524817  0.5821019035045651  0.4188664505762958   F   F   F
  0.4050790883739026  0.5245211222763402  0.5434909784116542   F   F   F
  0.3506688830623542  0.4702532550628847  0.5087338695723939   T   T   T
  0.4341480653292226  0.4576017916600463  0.3022342205732917   T   T   T
  0.5377793159683578  0.4216721058554687  0.5689060013795679   T   T   T
  0.3576176342019242  0.3869462023281161  0.5392270749099584   T   T   T
  0.4625951421883201  0.5516617238622956  0.4875128022361963   F   F   F
  0.6067644828050457  0.3754758604747874  0.5112756770793918   T   T   T
  0.4917527159740805  0.4388561203318981  0.6578161547306878   T   T   T
  0.5877597692607988  0.4678657612489199  0.3063361578889756   T   T   T
  0.4900497958562298  0.4037080615820798  0.4151644571778519   F   F   F
  0.4354037568866495  0.6747346298903006  0.4128800985668205   T   T   T
  0.4690720061071283  0.5371424722640161  0.6600313466544688   T   T   T
  0.5397532608265934  0.5319899791087650  0.3771480104995177   F   F   F
  0.6681525119993812  0.6012834036513005  0.4814824772665460   T   T   T
  0.6668537824576140  0.5196955342087227  0.5493184357088740   T   T   T
  0.3748629132366070  0.3348222259422407  0.3844193250777783   T   T   T
  0.6791968523578791  0.4363433350436866  0.4867481299065580   T   T   T
  0.5395009373709546  0.3185206226403250  0.3914574209288319   T   T   T
  0.3024731986123727  0.5032041972851976  0.4366415448340735   T   T   T
  0.3135070652063823  0.3956485499940676  0.4488855193548636   T   T   T
  0.5132808464546390  0.6251700259236465  0.6167489641208840   T   T   T
  0.4489004614985315  0.3740465669790133  0.5853223127961058   T   T   T
  0.3903525671955965  0.5797233576163499  0.6134142606767857   T   T   T
  0.4058176812227416  0.3055659514193832  0.5011708771130341   T   T   T
  0.4026023496104640  0.3721573718421030  0.2868016040555072   T   T   T
  0.3841419393678699  0.5340478906716829  0.2918735823741885   T   T   T
  0.6920320300873013  0.4596126043513591  0.3873709581105763   T   T   T
  0.3376144915928623  0.5721931744952881  0.5127578437743318   T   T   T
  0.5988392592145235  0.5727855074669939  0.3078908962834514   T   T   T
  0.6125830470278253  0.6143276851906752  0.5755979133292020   T   T   T
  0.4403664754257813  0.6152985471764953  0.3237896337766301   T   T   T
  0.7527879649573752  0.6019027302314747  0.4303181004231381   T   T   T
  0.7720647783380651  0.5864960935239678  0.3936062512236844   T   T   T
  0.7796113743100930  0.6171076939762331  0.4654640815202000   T   T   T
  0.8120965263149472  0.6128028915828867  0.4559113826179862   T   T   T
 
  0.00000000E+00  0.00000000E+00  0.00000000E+00
  0.00000000E+00  0.00000000E+00  0.00000000E+00
  0.00000000E+00  0.00000000E+00  0.00000000E+00
  0.00000000E+00  0.00000000E+00  0.00000000E+00
  0.00000000E+00  0.00000000E+00  0.00000000E+00
  0.00000000E+00  0.00000000E+00  0.00000000E+00
  0.00000000E+00  0.00000000E+00  0.00000000E+00
  0.00000000E+00  0.00000000E+00  0.00000000E+00
  0.00000000E+00  0.00000000E+00  0.00000000E+00
  0.00000000E+00  0.00000000E+00  0.00000000E+00
  0.00000000E+00  0.00000000E+00  0.00000000E+00
  0.00000000E+00  0.00000000E+00  0.00000000E+00
  0.00000000E+00  0.00000000E+00  0.00000000E+00
  0.00000000E+00  0.00000000E+00  0.00000000E+00
  0.00000000E+00  0.00000000E+00  0.00000000E+00
  0.00000000E+00  0.00000000E+00  0.00000000E+00
  0.00000000E+00  0.00000000E+00  0.00000000E+00
  0.00000000E+00  0.00000000E+00  0.00000000E+00
  0.00000000E+00  0.00000000E+00  0.00000000E+00
  0.00000000E+00  0.00000000E+00  0.00000000E+00
  0.00000000E+00  0.00000000E+00  0.00000000E+00
  0.00000000E+00  0.00000000E+00  0.00000000E+00
  0.00000000E+00  0.00000000E+00  0.00000000E+00
  0.00000000E+00  0.00000000E+00  0.00000000E+00
  0.00000000E+00  0.00000000E+00  0.00000000E+00
  0.00000000E+00  0.00000000E+00  0.00000000E+00
  0.00000000E+00  0.00000000E+00  0.00000000E+00
  0.00000000E+00  0.00000000E+00  0.00000000E+00
  0.00000000E+00  0.00000000E+00  0.00000000E+00
  0.00000000E+00  0.00000000E+00  0.00000000E+00
  0.00000000E+00  0.00000000E+00  0.00000000E+00
  0.00000000E+00  0.00000000E+00  0.00000000E+00
  0.00000000E+00  0.00000000E+00  0.00000000E+00
  0.00000000E+00  0.00000000E+00  0.00000000E+00
  0.00000000E+00  0.00000000E+00  0.00000000E+00
  0.00000000E+00  0.00000000E+00  0.00000000E+00
  0.00000000E+00  0.00000000E+00  0.00000000E+00
  0.00000000E+00  0.00000000E+00  0.00000000E+00
  0.00000000E+00  0.00000000E+00  0.00000000E+00
  0.00000000E+00  0.00000000E+00  0.00000000E+00
  0.00000000E+00  0.00000000E+00  0.00000000E+00
  0.00000000E+00  0.00000000E+00  0.00000000E+00
  0.00000000E+00  0.00000000E+00  0.00000000E+00
  0.00000000E+00  0.00000000E+00  0.00000000E+00
  0.00000000E+00  0.00000000E+00  0.00000000E+00
  0.00000000E+00  0.00000000E+00  0.00000000E+00
  0.00000000E+00  0.00000000E+00  0.00000000E+00
  0.00000000E+00  0.00000000E+00  0.00000000E+00
  0.00000000E+00  0.00000000E+00  0.00000000E+00
  0.00000000E+00  0.00000000E+00  0.00000000E+00
  0.00000000E+00  0.00000000E+00  0.00000000E+00
  0.00000000E+00  0.00000000E+00  0.00000000E+00
  0.00000000E+00  0.00000000E+00  0.00000000E+00
  0.00000000E+00  0.00000000E+00  0.00000000E+00
  0.00000000E+00  0.00000000E+00  0.00000000E+00
  0.00000000E+00  0.00000000E+00  0.00000000E+00
  0.00000000E+00  0.00000000E+00  0.00000000E+00
  0.00000000E+00  0.00000000E+00  0.00000000E+00
  0.00000000E+00  0.00000000E+00  0.00000000E+00
  0.00000000E+00  0.00000000E+00  0.00000000E+00
  0.00000000E+00  0.00000000E+00  0.00000000E+00
  0.00000000E+00  0.00000000E+00  0.00000000E+00
  0.00000000E+00  0.00000000E+00  0.00000000E+00
  0.00000000E+00  0.00000000E+00  0.00000000E+00
  0.00000000E+00  0.00000000E+00  0.00000000E+00
  0.00000000E+00  0.00000000E+00  0.00000000E+00
  0.00000000E+00  0.00000000E+00  0.00000000E+00
  0.00000000E+00  0.00000000E+00  0.00000000E+00
  0.00000000E+00  0.00000000E+00  0.00000000E+00
  0.00000000E+00  0.00000000E+00  0.00000000E+00
  0.00000000E+00  0.00000000E+00  0.00000000E+00
  0.00000000E+00  0.00000000E+00  0.00000000E+00
