La Co Ni Sn Bi C  O  H                  
   1.00000000000000     
    29.1044006348000011    0.0000000000000000    0.0000000000000000
     0.4451680315000000   28.3694074727000007    0.0000000000000000
     0.0682082826000000    0.3036559964000000   28.5240018092999996
   La   Co   Ni   Sn   Bi   C    O    H 
    14    13    13    14    14     1     2     1
Selective dynamics
Direct
  0.5923592239822576  0.4208385007309801  0.4078012076390098   T   T   T
  0.6848327788412357  0.5714522780363405  0.3801798958175241   T   T   T
  0.4952798759098002  0.5266969103227304  0.2822001803745074   T   T   T
  0.5627469479756105  0.5237462862153851  0.6038675761072450   T   T   T
  0.5090868199018980  0.3867028804373097  0.3055594306704274   T   T   T
  0.5746123214216093  0.6553421283190616  0.4819113294942862   T   T   T
  0.5080183374864223  0.3385680488083354  0.5001454595464835   T   T   T
  0.5348399996761277  0.6375391802948150  0.3743061530322166   T   T   T
  0.4333956869304312  0.6436111646733542  0.5328752016302448   T   T   T
  0.4373551010143757  0.5015757590148624  0.3842817269995109   F   F   F
  0.4437846394494898  0.4460183835780285  0.5005161578087822   F   F   F
  0.3857824276202705  0.4674742825277199  0.6089401045806688   T   T   T
  0.3444662264341899  0.4435521459757981  0.3470234879747262   T   T   T
  0.3615064035699013  0.5844309604825921  0.3932648166474187   T   T   T
  0.4217425606853311  0.4061295180575186  0.3699802678458894   F   F   F
  0.5011311695957161  0.4887203336762909  0.4395023580252015   F   F   F
  0.4044148221271726  0.6101724300038001  0.4624736492929173   F   F   F
  0.4722931245665194  0.5596737886932672  0.5729988711091565   F   F   F
  0.6552684236953183  0.5165424048424470  0.4543399438695133   F   F   F
  0.5967309916701211  0.5535378348504167  0.5056109707055541   F   F   F
  0.5314074673932367  0.5941153005651714  0.5336729985293047   F   F   F
  0.5796732686089143  0.4997731718447866  0.4507473928409595   F   F   F
  0.4615617584027378  0.3311507145456444  0.3446184178312368   T   T   T
  0.3905180950192175  0.5252419063175111  0.4552418453041511   F   F   F
  0.4543679033638771  0.3247470006394415  0.4238421508202824   T   T   T
  0.5074804872141527  0.4592780196109629  0.3501259710292359   F   F   F
  0.6012877811302459  0.4669891268301640  0.5212355700313438   F   F   F
  0.5384608035519776  0.4312182275275163  0.4821288228790692   F   F   F
  0.4713083414346286  0.4805797151798927  0.5807598339419258   F   F   F
  0.3771163837573610  0.4514853175274567  0.4282230665427278   F   F   F
  0.4059018739390154  0.3822235888080883  0.4561785915149272   F   F   F
  0.5357818896390683  0.5680835373033233  0.4543473312664048   F   F   F
  0.4924712632432886  0.6367287407321953  0.4646113344718685   F   F   F
  0.4677327221812249  0.5829886973614862  0.4038343643763724   F   F   F
  0.5280944416629296  0.5063826634733033  0.5194466411805863   F   F   F
  0.6212454441397384  0.5105019604624417  0.3755946010283822   F   F   F
  0.6054499763524817  0.5821019035045651  0.4188664505762958   F   F   F
  0.4050790883739026  0.5245211222763402  0.5434909784116542   F   F   F
  0.3509555810691067  0.4703587230543332  0.5089009756493551   T   T   T
  0.4339088308124079  0.4566735425982217  0.3019242600304959   T   T   T
  0.5387984927788776  0.4231575392194353  0.5691800616744502   T   T   T
  0.3582108405926155  0.3869009063233487  0.5395589302879769   T   T   T
  0.4625951421883201  0.5516617238622956  0.4875128022361963   F   F   F
  0.6060187980214378  0.3749377271173711  0.5099117348908447   T   T   T
  0.4918423785996903  0.4389590391817809  0.6584180239676232   T   T   T
  0.5875263846189092  0.4673709684426585  0.3063417486307470   T   T   T
  0.4900497958562298  0.4037080615820798  0.4151644571778519   F   F   F
  0.4354162312300839  0.6741243067489329  0.4119535343327886   T   T   T
  0.4647638571924244  0.5357640825314882  0.6588122925754197   T   T   T
  0.5397532608265934  0.5319899791087650  0.3771480104995177   F   F   F
  0.6691867200373495  0.6002509608111255  0.4828401440145957   T   T   T
  0.6656872287177444  0.5192254575473501  0.5504814214326815   T   T   T
  0.3748088300650513  0.3346661134884147  0.3851165423325265   T   T   T
  0.6784149734667317  0.4366233928027924  0.4864852819143375   T   T   T
  0.5401564182410760  0.3188985667559819  0.3925209670301263   T   T   T
  0.3020582818239736  0.5022645561521834  0.4366701527596336   T   T   T
  0.3133821284999342  0.3951906629666501  0.4496769562452432   T   T   T
  0.5082488135114942  0.6268504466253694  0.6148583137040196   T   T   T
  0.4494073217195766  0.3760333794930123  0.5861765124282831   T   T   T
  0.3887580243507035  0.5815399761779785  0.6116331845658447   T   T   T
  0.4049555397956136  0.3053531171823937  0.5010163991367508   T   T   T
  0.4027301430339994  0.3710348466264937  0.2871435419425052   T   T   T
  0.3836240772086000  0.5327420295420751  0.2920121872918436   T   T   T
  0.6929823665578498  0.4606312917668515  0.3872685826100190   T   T   T
  0.3371583298477082  0.5718285217316179  0.5123864417438266   T   T   T
  0.5989166721055441  0.5721705242154700  0.3071561063877202   T   T   T
  0.6139416728405824  0.6147873421050741  0.5725560356893918   T   T   T
  0.4397406983123476  0.6143121017981263  0.3233550877233538   T   T   T
  0.5723400519125158  0.5973289695533148  0.6657732718821281   T   T   T
  0.5838639512808034  0.5582381107614163  0.6833234582796243   T   T   T
  0.5854513345157623  0.6376445828892071  0.6874868851900757   T   T   T
  0.6045040359867161  0.6279349307979346  0.7145472455285209   T   T   T
 
  0.00000000E+00  0.00000000E+00  0.00000000E+00
  0.00000000E+00  0.00000000E+00  0.00000000E+00
  0.00000000E+00  0.00000000E+00  0.00000000E+00
  0.00000000E+00  0.00000000E+00  0.00000000E+00
  0.00000000E+00  0.00000000E+00  0.00000000E+00
  0.00000000E+00  0.00000000E+00  0.00000000E+00
  0.00000000E+00  0.00000000E+00  0.00000000E+00
  0.00000000E+00  0.00000000E+00  0.00000000E+00
  0.00000000E+00  0.00000000E+00  0.00000000E+00
  0.00000000E+00  0.00000000E+00  0.00000000E+00
  0.00000000E+00  0.00000000E+00  0.00000000E+00
  0.00000000E+00  0.00000000E+00  0.00000000E+00
  0.00000000E+00  0.00000000E+00  0.00000000E+00
  0.00000000E+00  0.00000000E+00  0.00000000E+00
  0.00000000E+00  0.00000000E+00  0.00000000E+00
  0.00000000E+00  0.00000000E+00  0.00000000E+00
  0.00000000E+00  0.00000000E+00  0.00000000E+00
  0.00000000E+00  0.00000000E+00  0.00000000E+00
  0.00000000E+00  0.00000000E+00  0.00000000E+00
  0.00000000E+00  0.00000000E+00  0.00000000E+00
  0.00000000E+00  0.00000000E+00  0.00000000E+00
  0.00000000E+00  0.00000000E+00  0.00000000E+00
  0.00000000E+00  0.00000000E+00  0.00000000E+00
  0.00000000E+00  0.00000000E+00  0.00000000E+00
  0.00000000E+00  0.00000000E+00  0.00000000E+00
  0.00000000E+00  0.00000000E+00  0.00000000E+00
  0.00000000E+00  0.00000000E+00  0.00000000E+00
  0.00000000E+00  0.00000000E+00  0.00000000E+00
  0.00000000E+00  0.00000000E+00  0.00000000E+00
  0.00000000E+00  0.00000000E+00  0.00000000E+00
  0.00000000E+00  0.00000000E+00  0.00000000E+00
  0.00000000E+00  0.00000000E+00  0.00000000E+00
  0.00000000E+00  0.00000000E+00  0.00000000E+00
  0.00000000E+00  0.00000000E+00  0.00000000E+00
  0.00000000E+00  0.00000000E+00  0.00000000E+00
  0.00000000E+00  0.00000000E+00  0.00000000E+00
  0.00000000E+00  0.00000000E+00  0.00000000E+00
  0.00000000E+00  0.00000000E+00  0.00000000E+00
  0.00000000E+00  0.00000000E+00  0.00000000E+00
  0.00000000E+00  0.00000000E+00  0.00000000E+00
  0.00000000E+00  0.00000000E+00  0.00000000E+00
  0.00000000E+00  0.00000000E+00  0.00000000E+00
  0.00000000E+00  0.00000000E+00  0.00000000E+00
  0.00000000E+00  0.00000000E+00  0.00000000E+00
  0.00000000E+00  0.00000000E+00  0.00000000E+00
  0.00000000E+00  0.00000000E+00  0.00000000E+00
  0.00000000E+00  0.00000000E+00  0.00000000E+00
  0.00000000E+00  0.00000000E+00  0.00000000E+00
  0.00000000E+00  0.00000000E+00  0.00000000E+00
  0.00000000E+00  0.00000000E+00  0.00000000E+00
  0.00000000E+00  0.00000000E+00  0.00000000E+00
  0.00000000E+00  0.00000000E+00  0.00000000E+00
  0.00000000E+00  0.00000000E+00  0.00000000E+00
  0.00000000E+00  0.00000000E+00  0.00000000E+00
  0.00000000E+00  0.00000000E+00  0.00000000E+00
  0.00000000E+00  0.00000000E+00  0.00000000E+00
  0.00000000E+00  0.00000000E+00  0.00000000E+00
  0.00000000E+00  0.00000000E+00  0.00000000E+00
  0.00000000E+00  0.00000000E+00  0.00000000E+00
  0.00000000E+00  0.00000000E+00  0.00000000E+00
  0.00000000E+00  0.00000000E+00  0.00000000E+00
  0.00000000E+00  0.00000000E+00  0.00000000E+00
  0.00000000E+00  0.00000000E+00  0.00000000E+00
  0.00000000E+00  0.00000000E+00  0.00000000E+00
  0.00000000E+00  0.00000000E+00  0.00000000E+00
  0.00000000E+00  0.00000000E+00  0.00000000E+00
  0.00000000E+00  0.00000000E+00  0.00000000E+00
  0.00000000E+00  0.00000000E+00  0.00000000E+00
  0.00000000E+00  0.00000000E+00  0.00000000E+00
  0.00000000E+00  0.00000000E+00  0.00000000E+00
  0.00000000E+00  0.00000000E+00  0.00000000E+00
  0.00000000E+00  0.00000000E+00  0.00000000E+00
