La Co Ni Sn Bi C  O  H                  
   1.00000000000000     
    29.1044006348000011    0.0000000000000000    0.0000000000000000
     0.4451680315000000   28.3694074727000007    0.0000000000000000
     0.0682082826000000    0.3036559964000000   28.5240018092999996
   La   Co   Ni   Sn   Bi   C    O    H 
    14    13    13    14    14     1     2     1
Selective dynamics
Direct
  0.5921705593034603  0.4209640350645460  0.4071481560633175   T   T   T
  0.6850691549712276  0.5714195176051797  0.3809785980196828   T   T   T
  0.4953387666190666  0.5278260675941374  0.2822898518924578   T   T   T
  0.5620995978205788  0.5222952512076293  0.6029071220348362   T   T   T
  0.5091987649375973  0.3868023045972336  0.3059273205808790   T   T   T
  0.5753948092806687  0.6557426349379241  0.4840642752542625   T   T   T
  0.5057938571561356  0.3389454915726935  0.5007558093859091   T   T   T
  0.5351766442157729  0.6376563995821162  0.3754038989185481   T   T   T
  0.4372392984055519  0.6449207384500039  0.5342841510034023   T   T   T
  0.4373551010143757  0.5015757590148624  0.3842817269995109   F   F   F
  0.4437846394494898  0.4460183835780285  0.5005161578087822   F   F   F
  0.3843066938381230  0.4689356285545034  0.6087736344667787   T   T   T
  0.3447070380415701  0.4440263095373375  0.3467857658198211   T   T   T
  0.3619193403400333  0.5854939376351961  0.3937490068165758   T   T   T
  0.4217425606853311  0.4061295180575186  0.3699802678458894   F   F   F
  0.5011311695957161  0.4887203336762909  0.4395023580252015   F   F   F
  0.4044148221271726  0.6101724300038001  0.4624736492929173   F   F   F
  0.4722931245665194  0.5596737886932672  0.5729988711091565   F   F   F
  0.6552684236953183  0.5165424048424470  0.4543399438695133   F   F   F
  0.5967309916701211  0.5535378348504167  0.5056109707055541   F   F   F
  0.5314074673932367  0.5941153005651714  0.5336729985293047   F   F   F
  0.5796732686089143  0.4997731718447866  0.4507473928409595   F   F   F
  0.4618318035325833  0.3313556643817995  0.3440497970741163   T   T   T
  0.3905180950192175  0.5252419063175111  0.4552418453041511   F   F   F
  0.4542915011373538  0.3246382995190101  0.4234081036635868   T   T   T
  0.5074804872141527  0.4592780196109629  0.3501259710292359   F   F   F
  0.6012877811302459  0.4669891268301640  0.5212355700313438   F   F   F
  0.5384608035519776  0.4312182275275163  0.4821288228790692   F   F   F
  0.4713083414346286  0.4805797151798927  0.5807598339419258   F   F   F
  0.3771163837573610  0.4514853175274567  0.4282230665427278   F   F   F
  0.4059018739390154  0.3822235888080883  0.4561785915149272   F   F   F
  0.5357818896390683  0.5680835373033233  0.4543473312664048   F   F   F
  0.4924712632432886  0.6367287407321953  0.4646113344718685   F   F   F
  0.4677327221812249  0.5829886973614862  0.4038343643763724   F   F   F
  0.5280944416629296  0.5063826634733033  0.5194466411805863   F   F   F
  0.6212454441397384  0.5105019604624417  0.3755946010283822   F   F   F
  0.6054499763524817  0.5821019035045651  0.4188664505762958   F   F   F
  0.4050790883739026  0.5245211222763402  0.5434909784116542   F   F   F
  0.3505167837885084  0.4701835567293183  0.5085336196696559   T   T   T
  0.4338696452758289  0.4571927697100404  0.3020864224309160   T   T   T
  0.5383572695472805  0.4224514027544324  0.5686430118715431   T   T   T
  0.3574633806751332  0.3869933812213774  0.5397320397226992   T   T   T
  0.4625951421883201  0.5516617238622956  0.4875128022361963   F   F   F
  0.6048661447445884  0.3736473438114057  0.5084993971879583   T   T   T
  0.4938216618428163  0.4376829874923560  0.6592425100561661   T   T   T
  0.5872229206226486  0.4680028093801662  0.3059083768118511   T   T   T
  0.4900497958562298  0.4037080615820798  0.4151644571778519   F   F   F
  0.4353883833974668  0.6745460337779455  0.4125476902776421   T   T   T
  0.4619309401102163  0.5319332987365272  0.6566409318344192   T   T   T
  0.5397532608265934  0.5319899791087650  0.3771480104995177   F   F   F
  0.6684805747830831  0.6005628597669932  0.4837910831936550   T   T   T
  0.6657512452968194  0.5192159744038454  0.5503759716379467   T   T   T
  0.3750866584117447  0.3345220878174565  0.3848995343684994   T   T   T
  0.6771931369735934  0.4357523087159000  0.4866902365017186   T   T   T
  0.5400916688684074  0.3189232264185500  0.3931927661482317   T   T   T
  0.3022681626960888  0.5026482895658292  0.4362618050854965   T   T   T
  0.3134736754983918  0.3953365451749249  0.4491476508005478   T   T   T
  0.5125493852533213  0.6254110398407188  0.6157171073061884   T   T   T
  0.4477216798682797  0.3777695293650234  0.5880786760386560   T   T   T
  0.3890046204399031  0.5831445663408170  0.6107366624388485   T   T   T
  0.4028515328395448  0.3052551603259737  0.5002959950945939   T   T   T
  0.4027994993680513  0.3713945816867929  0.2870624906467857   T   T   T
  0.3838393198504974  0.5335615604127544  0.2923290961408425   T   T   T
  0.6929704579866175  0.4607189423623950  0.3877940005296640   T   T   T
  0.3374265757937501  0.5719223091175468  0.5124705431046513   T   T   T
  0.5992719975273391  0.5726726854949646  0.3078215302945011   T   T   T
  0.6129132500366934  0.6144035375796214  0.5758640343200686   T   T   T
  0.4400164722893586  0.6152333225760049  0.3236352864160634   T   T   T
  0.4839830382901380  0.5725714699727668  0.7192660206152257   T   T   T
  0.4639545734774730  0.6063750667961252  0.7364346240716897   T   T   T
  0.5229235081789867  0.5523819970353726  0.7391630473788128   T   T   T
  0.5289069889650918  0.5701545499174298  0.7680238143420574   T   T   T
 
  0.00000000E+00  0.00000000E+00  0.00000000E+00
  0.00000000E+00  0.00000000E+00  0.00000000E+00
  0.00000000E+00  0.00000000E+00  0.00000000E+00
  0.00000000E+00  0.00000000E+00  0.00000000E+00
  0.00000000E+00  0.00000000E+00  0.00000000E+00
  0.00000000E+00  0.00000000E+00  0.00000000E+00
  0.00000000E+00  0.00000000E+00  0.00000000E+00
  0.00000000E+00  0.00000000E+00  0.00000000E+00
  0.00000000E+00  0.00000000E+00  0.00000000E+00
  0.00000000E+00  0.00000000E+00  0.00000000E+00
  0.00000000E+00  0.00000000E+00  0.00000000E+00
  0.00000000E+00  0.00000000E+00  0.00000000E+00
  0.00000000E+00  0.00000000E+00  0.00000000E+00
  0.00000000E+00  0.00000000E+00  0.00000000E+00
  0.00000000E+00  0.00000000E+00  0.00000000E+00
  0.00000000E+00  0.00000000E+00  0.00000000E+00
  0.00000000E+00  0.00000000E+00  0.00000000E+00
  0.00000000E+00  0.00000000E+00  0.00000000E+00
  0.00000000E+00  0.00000000E+00  0.00000000E+00
  0.00000000E+00  0.00000000E+00  0.00000000E+00
  0.00000000E+00  0.00000000E+00  0.00000000E+00
  0.00000000E+00  0.00000000E+00  0.00000000E+00
  0.00000000E+00  0.00000000E+00  0.00000000E+00
  0.00000000E+00  0.00000000E+00  0.00000000E+00
  0.00000000E+00  0.00000000E+00  0.00000000E+00
  0.00000000E+00  0.00000000E+00  0.00000000E+00
  0.00000000E+00  0.00000000E+00  0.00000000E+00
  0.00000000E+00  0.00000000E+00  0.00000000E+00
  0.00000000E+00  0.00000000E+00  0.00000000E+00
  0.00000000E+00  0.00000000E+00  0.00000000E+00
  0.00000000E+00  0.00000000E+00  0.00000000E+00
  0.00000000E+00  0.00000000E+00  0.00000000E+00
  0.00000000E+00  0.00000000E+00  0.00000000E+00
  0.00000000E+00  0.00000000E+00  0.00000000E+00
  0.00000000E+00  0.00000000E+00  0.00000000E+00
  0.00000000E+00  0.00000000E+00  0.00000000E+00
  0.00000000E+00  0.00000000E+00  0.00000000E+00
  0.00000000E+00  0.00000000E+00  0.00000000E+00
  0.00000000E+00  0.00000000E+00  0.00000000E+00
  0.00000000E+00  0.00000000E+00  0.00000000E+00
  0.00000000E+00  0.00000000E+00  0.00000000E+00
  0.00000000E+00  0.00000000E+00  0.00000000E+00
  0.00000000E+00  0.00000000E+00  0.00000000E+00
  0.00000000E+00  0.00000000E+00  0.00000000E+00
  0.00000000E+00  0.00000000E+00  0.00000000E+00
  0.00000000E+00  0.00000000E+00  0.00000000E+00
  0.00000000E+00  0.00000000E+00  0.00000000E+00
  0.00000000E+00  0.00000000E+00  0.00000000E+00
  0.00000000E+00  0.00000000E+00  0.00000000E+00
  0.00000000E+00  0.00000000E+00  0.00000000E+00
  0.00000000E+00  0.00000000E+00  0.00000000E+00
  0.00000000E+00  0.00000000E+00  0.00000000E+00
  0.00000000E+00  0.00000000E+00  0.00000000E+00
  0.00000000E+00  0.00000000E+00  0.00000000E+00
  0.00000000E+00  0.00000000E+00  0.00000000E+00
  0.00000000E+00  0.00000000E+00  0.00000000E+00
  0.00000000E+00  0.00000000E+00  0.00000000E+00
  0.00000000E+00  0.00000000E+00  0.00000000E+00
  0.00000000E+00  0.00000000E+00  0.00000000E+00
  0.00000000E+00  0.00000000E+00  0.00000000E+00
  0.00000000E+00  0.00000000E+00  0.00000000E+00
  0.00000000E+00  0.00000000E+00  0.00000000E+00
  0.00000000E+00  0.00000000E+00  0.00000000E+00
  0.00000000E+00  0.00000000E+00  0.00000000E+00
  0.00000000E+00  0.00000000E+00  0.00000000E+00
  0.00000000E+00  0.00000000E+00  0.00000000E+00
  0.00000000E+00  0.00000000E+00  0.00000000E+00
  0.00000000E+00  0.00000000E+00  0.00000000E+00
  0.00000000E+00  0.00000000E+00  0.00000000E+00
  0.00000000E+00  0.00000000E+00  0.00000000E+00
  0.00000000E+00  0.00000000E+00  0.00000000E+00
  0.00000000E+00  0.00000000E+00  0.00000000E+00
