La Co Ni Sn Bi C  O  H                  
   1.00000000000000     
    29.1044006348000011    0.0000000000000000    0.0000000000000000
     0.4451680315000000   28.3694074727000007    0.0000000000000000
     0.0682082826000000    0.3036559964000000   28.5240018092999996
   La   Co   Ni   Sn   Bi   C    O    H 
    14    13    13    14    14     1     2     1
Selective dynamics
Direct
  0.5916816847907045  0.4215579022997555  0.4049244819258118   T   T   T
  0.6847810808711736  0.5717116763888302  0.3806698460404706   T   T   T
  0.4949621824497396  0.5286809665407394  0.2824783961433857   T   T   T
  0.5622193170283464  0.5225321391342362  0.6023600845953838   T   T   T
  0.5090031778633551  0.3872401809399758  0.3057734944227181   T   T   T
  0.5753345673464902  0.6551506677912551  0.4833380966178041   T   T   T
  0.5066763243992951  0.3384001889274194  0.5004556465735120   T   T   T
  0.5350377093855485  0.6378176837631191  0.3751756990324330   T   T   T
  0.4360829848943963  0.6438587939506342  0.5350023739032155   T   T   T
  0.4373551010143757  0.5015757590148624  0.3842817269995109   F   F   F
  0.4437846394494898  0.4460183835780285  0.5005161578087822   F   F   F
  0.3870600718657237  0.4678922835478994  0.6098941135717335   T   T   T
  0.3443067362354913  0.4443133413249105  0.3471417818491851   T   T   T
  0.3617005106294212  0.5854223579399533  0.3939378078707974   T   T   T
  0.4217425606853311  0.4061295180575186  0.3699802678458894   F   F   F
  0.5011311695957161  0.4887203336762909  0.4395023580252015   F   F   F
  0.4044148221271726  0.6101724300038001  0.4624736492929173   F   F   F
  0.4722931245665194  0.5596737886932672  0.5729988711091565   F   F   F
  0.6552684236953183  0.5165424048424470  0.4543399438695133   F   F   F
  0.5967309916701211  0.5535378348504167  0.5056109707055541   F   F   F
  0.5314074673932367  0.5941153005651714  0.5336729985293047   F   F   F
  0.5796732686089143  0.4997731718447866  0.4507473928409595   F   F   F
  0.4610776868375714  0.3314582999621875  0.3437110147555319   T   T   T
  0.3905180950192175  0.5252419063175111  0.4552418453041511   F   F   F
  0.4544582699196479  0.3246862468705387  0.4234760919074248   T   T   T
  0.5074804872141527  0.4592780196109629  0.3501259710292359   F   F   F
  0.6012877811302459  0.4669891268301640  0.5212355700313438   F   F   F
  0.5384608035519776  0.4312182275275163  0.4821288228790692   F   F   F
  0.4713083414346286  0.4805797151798927  0.5807598339419258   F   F   F
  0.3771163837573610  0.4514853175274567  0.4282230665427278   F   F   F
  0.4059018739390154  0.3822235888080883  0.4561785915149272   F   F   F
  0.5357818896390683  0.5680835373033233  0.4543473312664048   F   F   F
  0.4924712632432886  0.6367287407321953  0.4646113344718685   F   F   F
  0.4677327221812249  0.5829886973614862  0.4038343643763724   F   F   F
  0.5280944416629296  0.5063826634733033  0.5194466411805863   F   F   F
  0.6212454441397384  0.5105019604624417  0.3755946010283822   F   F   F
  0.6054499763524817  0.5821019035045651  0.4188664505762958   F   F   F
  0.4050790883739026  0.5245211222763402  0.5434909784116542   F   F   F
  0.3506560270579576  0.4701355671085530  0.5090219564200132   T   T   T
  0.4338757680333660  0.4577237035165109  0.3020498704041820   T   T   T
  0.5388690171804662  0.4233481154307439  0.5686709309838474   T   T   T
  0.3586430355760585  0.3871255350086742  0.5402135107532678   T   T   T
  0.4625951421883201  0.5516617238622956  0.4875128022361963   F   F   F
  0.6073468093654405  0.3762823025875289  0.5004568553685396   T   T   T
  0.4925171282530247  0.4395745073473508  0.6582077137509615   T   T   T
  0.5868839769006938  0.4691642124901700  0.3045776888851592   T   T   T
  0.4900497958562298  0.4037080615820798  0.4151644571778519   F   F   F
  0.4354076144999408  0.6746608838827095  0.4128607945443554   T   T   T
  0.4680574422018961  0.5375485892225963  0.6600307408034968   T   T   T
  0.5397532608265934  0.5319899791087650  0.3771480104995177   F   F   F
  0.6689406994914544  0.5998294760064607  0.4838635255892536   T   T   T
  0.6648293819321307  0.5192940029473562  0.5519135396080310   T   T   T
  0.3748319275132915  0.3346727132277952  0.3851882802626033   T   T   T
  0.6815090825781225  0.4381239254874405  0.4891420486716221   T   T   T
  0.5395796281962745  0.3187738599335536  0.3923199886358217   T   T   T
  0.3023556451694749  0.5028568842973583  0.4369595929140822   T   T   T
  0.3135783901990565  0.3956023392037012  0.4501799111364843   T   T   T
  0.5118872540640137  0.6259392638556291  0.6164305308410809   T   T   T
  0.4493347051678050  0.3760977899090199  0.5867912357241114   T   T   T
  0.3907059013540238  0.5813607327665101  0.6125549228180400   T   T   T
  0.4033912871079854  0.3051391030629671  0.4999483707955776   T   T   T
  0.4025612079058273  0.3724051084955203  0.2869463206239136   T   T   T
  0.3834947301803029  0.5337855823148460  0.2925732677146248   T   T   T
  0.6932296668011463  0.4609669510164500  0.3888463678031671   T   T   T
  0.3375881450190905  0.5721506538786880  0.5128107724077693   T   T   T
  0.5989353441231532  0.5732822279718208  0.3076949109426942   T   T   T
  0.6127091135630824  0.6146955472144914  0.5755485693289948   T   T   T
  0.4396284443357987  0.6157129390043395  0.3239034588893518   T   T   T
  0.6005739824923139  0.3290638599900232  0.5651353873019035   T   T   T
  0.6219255741507872  0.3275021720912390  0.6015702461744918   T   T   T
  0.5663431719760692  0.2938938892415367  0.5566329032103798   T   T   T
  0.5636205596836142  0.2750325774607749  0.5856295365875150   T   T   T
 
  0.00000000E+00  0.00000000E+00  0.00000000E+00
  0.00000000E+00  0.00000000E+00  0.00000000E+00
  0.00000000E+00  0.00000000E+00  0.00000000E+00
  0.00000000E+00  0.00000000E+00  0.00000000E+00
  0.00000000E+00  0.00000000E+00  0.00000000E+00
  0.00000000E+00  0.00000000E+00  0.00000000E+00
  0.00000000E+00  0.00000000E+00  0.00000000E+00
  0.00000000E+00  0.00000000E+00  0.00000000E+00
  0.00000000E+00  0.00000000E+00  0.00000000E+00
  0.00000000E+00  0.00000000E+00  0.00000000E+00
  0.00000000E+00  0.00000000E+00  0.00000000E+00
  0.00000000E+00  0.00000000E+00  0.00000000E+00
  0.00000000E+00  0.00000000E+00  0.00000000E+00
  0.00000000E+00  0.00000000E+00  0.00000000E+00
  0.00000000E+00  0.00000000E+00  0.00000000E+00
  0.00000000E+00  0.00000000E+00  0.00000000E+00
  0.00000000E+00  0.00000000E+00  0.00000000E+00
  0.00000000E+00  0.00000000E+00  0.00000000E+00
  0.00000000E+00  0.00000000E+00  0.00000000E+00
  0.00000000E+00  0.00000000E+00  0.00000000E+00
  0.00000000E+00  0.00000000E+00  0.00000000E+00
  0.00000000E+00  0.00000000E+00  0.00000000E+00
  0.00000000E+00  0.00000000E+00  0.00000000E+00
  0.00000000E+00  0.00000000E+00  0.00000000E+00
  0.00000000E+00  0.00000000E+00  0.00000000E+00
  0.00000000E+00  0.00000000E+00  0.00000000E+00
  0.00000000E+00  0.00000000E+00  0.00000000E+00
  0.00000000E+00  0.00000000E+00  0.00000000E+00
  0.00000000E+00  0.00000000E+00  0.00000000E+00
  0.00000000E+00  0.00000000E+00  0.00000000E+00
  0.00000000E+00  0.00000000E+00  0.00000000E+00
  0.00000000E+00  0.00000000E+00  0.00000000E+00
  0.00000000E+00  0.00000000E+00  0.00000000E+00
  0.00000000E+00  0.00000000E+00  0.00000000E+00
  0.00000000E+00  0.00000000E+00  0.00000000E+00
  0.00000000E+00  0.00000000E+00  0.00000000E+00
  0.00000000E+00  0.00000000E+00  0.00000000E+00
  0.00000000E+00  0.00000000E+00  0.00000000E+00
  0.00000000E+00  0.00000000E+00  0.00000000E+00
  0.00000000E+00  0.00000000E+00  0.00000000E+00
  0.00000000E+00  0.00000000E+00  0.00000000E+00
  0.00000000E+00  0.00000000E+00  0.00000000E+00
  0.00000000E+00  0.00000000E+00  0.00000000E+00
  0.00000000E+00  0.00000000E+00  0.00000000E+00
  0.00000000E+00  0.00000000E+00  0.00000000E+00
  0.00000000E+00  0.00000000E+00  0.00000000E+00
  0.00000000E+00  0.00000000E+00  0.00000000E+00
  0.00000000E+00  0.00000000E+00  0.00000000E+00
  0.00000000E+00  0.00000000E+00  0.00000000E+00
  0.00000000E+00  0.00000000E+00  0.00000000E+00
  0.00000000E+00  0.00000000E+00  0.00000000E+00
  0.00000000E+00  0.00000000E+00  0.00000000E+00
  0.00000000E+00  0.00000000E+00  0.00000000E+00
  0.00000000E+00  0.00000000E+00  0.00000000E+00
  0.00000000E+00  0.00000000E+00  0.00000000E+00
  0.00000000E+00  0.00000000E+00  0.00000000E+00
  0.00000000E+00  0.00000000E+00  0.00000000E+00
  0.00000000E+00  0.00000000E+00  0.00000000E+00
  0.00000000E+00  0.00000000E+00  0.00000000E+00
  0.00000000E+00  0.00000000E+00  0.00000000E+00
  0.00000000E+00  0.00000000E+00  0.00000000E+00
  0.00000000E+00  0.00000000E+00  0.00000000E+00
  0.00000000E+00  0.00000000E+00  0.00000000E+00
  0.00000000E+00  0.00000000E+00  0.00000000E+00
  0.00000000E+00  0.00000000E+00  0.00000000E+00
  0.00000000E+00  0.00000000E+00  0.00000000E+00
  0.00000000E+00  0.00000000E+00  0.00000000E+00
  0.00000000E+00  0.00000000E+00  0.00000000E+00
  0.00000000E+00  0.00000000E+00  0.00000000E+00
  0.00000000E+00  0.00000000E+00  0.00000000E+00
  0.00000000E+00  0.00000000E+00  0.00000000E+00
  0.00000000E+00  0.00000000E+00  0.00000000E+00
