La Co Ni Sn Bi C  O  H                  
   1.00000000000000     
    29.1044006348000011    0.0000000000000000    0.0000000000000000
     0.4451680315000000   28.3694074727000007    0.0000000000000000
     0.0682082826000000    0.3036559964000000   28.5240018092999996
   La   Co   Ni   Sn   Bi   C    O    H 
    14    13    13    14    14     1     2     1
Selective dynamics
Direct
  0.5924095953808364  0.4204874483826148  0.4076183436027371   T   T   T
  0.6848811721241163  0.5718320122587441  0.3809049191589868   T   T   T
  0.4949478580481522  0.5296079088516363  0.2835807092364622   T   T   T
  0.5626456935677447  0.5219493042638917  0.6021071216411013   T   T   T
  0.5084571577358875  0.3866742572882736  0.3054938388350215   T   T   T
  0.5752395496803242  0.6555083321287447  0.4835758060379108   T   T   T
  0.5086301961503098  0.3381117004284161  0.4996058961758571   T   T   T
  0.5355317507280742  0.6377541488598792  0.3754354445233349   T   T   T
  0.4362929591351650  0.6433349585692405  0.5360217026865567   T   T   T
  0.4373551010143757  0.5015757590148624  0.3842817269995109   F   F   F
  0.4437846394494898  0.4460183835780285  0.5005161578087822   F   F   F
  0.3876327724900264  0.4670549307857881  0.6098607008972846   T   T   T
  0.3437641069164564  0.4414741155794634  0.3475698390004088   T   T   T
  0.3615204134286878  0.5868840991129378  0.3947410134592794   T   T   T
  0.4217425606853311  0.4061295180575186  0.3699802678458894   F   F   F
  0.5011311695957161  0.4887203336762909  0.4395023580252015   F   F   F
  0.4044148221271726  0.6101724300038001  0.4624736492929173   F   F   F
  0.4722931245665194  0.5596737886932672  0.5729988711091565   F   F   F
  0.6552684236953183  0.5165424048424470  0.4543399438695133   F   F   F
  0.5967309916701211  0.5535378348504167  0.5056109707055541   F   F   F
  0.5314074673932367  0.5941153005651714  0.5336729985293047   F   F   F
  0.5796732686089143  0.4997731718447866  0.4507473928409595   F   F   F
  0.4611482515312640  0.3310187541372420  0.3443617290709849   T   T   T
  0.3905180950192175  0.5252419063175111  0.4552418453041511   F   F   F
  0.4543618725386697  0.3244872061487025  0.4239581013713627   T   T   T
  0.5074804872141527  0.4592780196109629  0.3501259710292359   F   F   F
  0.6012877811302459  0.4669891268301640  0.5212355700313438   F   F   F
  0.5384608035519776  0.4312182275275163  0.4821288228790692   F   F   F
  0.4713083414346286  0.4805797151798927  0.5807598339419258   F   F   F
  0.3771163837573610  0.4514853175274567  0.4282230665427278   F   F   F
  0.4059018739390154  0.3822235888080883  0.4561785915149272   F   F   F
  0.5357818896390683  0.5680835373033233  0.4543473312664048   F   F   F
  0.4924712632432886  0.6367287407321953  0.4646113344718685   F   F   F
  0.4677327221812249  0.5829886973614862  0.4038343643763724   F   F   F
  0.5280944416629296  0.5063826634733033  0.5194466411805863   F   F   F
  0.6212454441397384  0.5105019604624417  0.3755946010283822   F   F   F
  0.6054499763524817  0.5821019035045651  0.4188664505762958   F   F   F
  0.4050790883739026  0.5245211222763402  0.5434909784116542   F   F   F
  0.3506572931499516  0.4702824041044897  0.5087697468555437   T   T   T
  0.4341929490983540  0.4554989982473840  0.3016381560586339   T   T   T
  0.5382264702988583  0.4220483011319618  0.5689552932987910   T   T   T
  0.3580292501130378  0.3873361815281915  0.5401047598499651   T   T   T
  0.4625951421883201  0.5516617238622956  0.4875128022361963   F   F   F
  0.6064247790349888  0.3751342202625024  0.5105742520242199   T   T   T
  0.4921343904969721  0.4392707347867188  0.6582196926248737   T   T   T
  0.5865395450590692  0.4678991900591822  0.3061541645284199   T   T   T
  0.4900497958562298  0.4037080615820798  0.4151644571778519   F   F   F
  0.4357988070827807  0.6755265062641961  0.4138976125896812   T   T   T
  0.4684281455119395  0.5372527837101168  0.6600356122513126   T   T   T
  0.5397532608265934  0.5319899791087650  0.3771480104995177   F   F   F
  0.6686572846441026  0.6003018883284806  0.4838178540710312   T   T   T
  0.6657819121706143  0.5189518161727597  0.5506458249932656   T   T   T
  0.3751100798058072  0.3345328471008836  0.3852651607531181   T   T   T
  0.6785123802379129  0.4364453597380656  0.4865870912363315   T   T   T
  0.5397700621973759  0.3187359330362139  0.3918682573338383   T   T   T
  0.3026279370299624  0.5029803390211515  0.4362115154553702   T   T   T
  0.3134037486417844  0.3954818034166737  0.4503081572382567   T   T   T
  0.5125998301372156  0.6253853849791718  0.6167723691687182   T   T   T
  0.4493682707738434  0.3747450252918886  0.5858863289906290   T   T   T
  0.3903140524482440  0.5803553928996869  0.6130768682398264   T   T   T
  0.4050732528386969  0.3057147636954808  0.5014086820576242   T   T   T
  0.4019762839000702  0.3703765772968687  0.2868309093306455   T   T   T
  0.3842738101106597  0.5312336065643883  0.2947181056842190   T   T   T
  0.6929317437959268  0.4609474971193079  0.3874472578209888   T   T   T
  0.3376016072224291  0.5720300482674991  0.5127576302152618   T   T   T
  0.5991853939245162  0.5726603051614619  0.3077101636884803   T   T   T
  0.6129694006372213  0.6144860598768668  0.5753809456551022   T   T   T
  0.4393782858716909  0.6182367781951090  0.3252840930351037   T   T   T
  0.3364112258849255  0.5609639867643157  0.2349793141758134   T   T   T
  0.3313237901078101  0.5454258507462045  0.1958056922242843   T   T   T
  0.3125974294726098  0.5997745495165494  0.2515198716559536   T   T   T
  0.2926216054060800  0.6111489059984331  0.2257126326731670   T   T   T
 
  0.00000000E+00  0.00000000E+00  0.00000000E+00
  0.00000000E+00  0.00000000E+00  0.00000000E+00
  0.00000000E+00  0.00000000E+00  0.00000000E+00
  0.00000000E+00  0.00000000E+00  0.00000000E+00
  0.00000000E+00  0.00000000E+00  0.00000000E+00
  0.00000000E+00  0.00000000E+00  0.00000000E+00
  0.00000000E+00  0.00000000E+00  0.00000000E+00
  0.00000000E+00  0.00000000E+00  0.00000000E+00
  0.00000000E+00  0.00000000E+00  0.00000000E+00
  0.00000000E+00  0.00000000E+00  0.00000000E+00
  0.00000000E+00  0.00000000E+00  0.00000000E+00
  0.00000000E+00  0.00000000E+00  0.00000000E+00
  0.00000000E+00  0.00000000E+00  0.00000000E+00
  0.00000000E+00  0.00000000E+00  0.00000000E+00
  0.00000000E+00  0.00000000E+00  0.00000000E+00
  0.00000000E+00  0.00000000E+00  0.00000000E+00
  0.00000000E+00  0.00000000E+00  0.00000000E+00
  0.00000000E+00  0.00000000E+00  0.00000000E+00
  0.00000000E+00  0.00000000E+00  0.00000000E+00
  0.00000000E+00  0.00000000E+00  0.00000000E+00
  0.00000000E+00  0.00000000E+00  0.00000000E+00
  0.00000000E+00  0.00000000E+00  0.00000000E+00
  0.00000000E+00  0.00000000E+00  0.00000000E+00
  0.00000000E+00  0.00000000E+00  0.00000000E+00
  0.00000000E+00  0.00000000E+00  0.00000000E+00
  0.00000000E+00  0.00000000E+00  0.00000000E+00
  0.00000000E+00  0.00000000E+00  0.00000000E+00
  0.00000000E+00  0.00000000E+00  0.00000000E+00
  0.00000000E+00  0.00000000E+00  0.00000000E+00
  0.00000000E+00  0.00000000E+00  0.00000000E+00
  0.00000000E+00  0.00000000E+00  0.00000000E+00
  0.00000000E+00  0.00000000E+00  0.00000000E+00
  0.00000000E+00  0.00000000E+00  0.00000000E+00
  0.00000000E+00  0.00000000E+00  0.00000000E+00
  0.00000000E+00  0.00000000E+00  0.00000000E+00
  0.00000000E+00  0.00000000E+00  0.00000000E+00
  0.00000000E+00  0.00000000E+00  0.00000000E+00
  0.00000000E+00  0.00000000E+00  0.00000000E+00
  0.00000000E+00  0.00000000E+00  0.00000000E+00
  0.00000000E+00  0.00000000E+00  0.00000000E+00
  0.00000000E+00  0.00000000E+00  0.00000000E+00
  0.00000000E+00  0.00000000E+00  0.00000000E+00
  0.00000000E+00  0.00000000E+00  0.00000000E+00
  0.00000000E+00  0.00000000E+00  0.00000000E+00
  0.00000000E+00  0.00000000E+00  0.00000000E+00
  0.00000000E+00  0.00000000E+00  0.00000000E+00
  0.00000000E+00  0.00000000E+00  0.00000000E+00
  0.00000000E+00  0.00000000E+00  0.00000000E+00
  0.00000000E+00  0.00000000E+00  0.00000000E+00
  0.00000000E+00  0.00000000E+00  0.00000000E+00
  0.00000000E+00  0.00000000E+00  0.00000000E+00
  0.00000000E+00  0.00000000E+00  0.00000000E+00
  0.00000000E+00  0.00000000E+00  0.00000000E+00
  0.00000000E+00  0.00000000E+00  0.00000000E+00
  0.00000000E+00  0.00000000E+00  0.00000000E+00
  0.00000000E+00  0.00000000E+00  0.00000000E+00
  0.00000000E+00  0.00000000E+00  0.00000000E+00
  0.00000000E+00  0.00000000E+00  0.00000000E+00
  0.00000000E+00  0.00000000E+00  0.00000000E+00
  0.00000000E+00  0.00000000E+00  0.00000000E+00
  0.00000000E+00  0.00000000E+00  0.00000000E+00
  0.00000000E+00  0.00000000E+00  0.00000000E+00
  0.00000000E+00  0.00000000E+00  0.00000000E+00
  0.00000000E+00  0.00000000E+00  0.00000000E+00
  0.00000000E+00  0.00000000E+00  0.00000000E+00
  0.00000000E+00  0.00000000E+00  0.00000000E+00
  0.00000000E+00  0.00000000E+00  0.00000000E+00
  0.00000000E+00  0.00000000E+00  0.00000000E+00
  0.00000000E+00  0.00000000E+00  0.00000000E+00
  0.00000000E+00  0.00000000E+00  0.00000000E+00
  0.00000000E+00  0.00000000E+00  0.00000000E+00
  0.00000000E+00  0.00000000E+00  0.00000000E+00
