La Co Ni Sn Bi C  O  H                  
   1.00000000000000     
    29.1044006348000011    0.0000000000000000    0.0000000000000000
     0.4451680315000000   28.3694074727000007    0.0000000000000000
     0.0682082826000000    0.3036559964000000   28.5240018092999996
   La   Co   Ni   Sn   Bi   C    O    H 
    14    13    13    14    14     1     2     1
Selective dynamics
Direct
  0.5924382583502109  0.4203069657917450  0.4075895379725084   T   T   T
  0.6846229968246829  0.5716790179951983  0.3803566623598088   T   T   T
  0.4957827590169033  0.5261735317535834  0.2817158020262513   T   T   T
  0.5626511426194980  0.5218990525051287  0.6020808667059867   T   T   T
  0.5083707350907055  0.3871831665515560  0.3052843445316460   T   T   T
  0.5751724970352665  0.6556166484641212  0.4836112466513227   T   T   T
  0.5084974564671629  0.3380797705358540  0.4995341302928867   T   T   T
  0.5372418882416595  0.6371817390920870  0.3746342595948455   T   T   T
  0.4354836618941341  0.6426087286923122  0.5361285883003488   T   T   T
  0.4373551010143757  0.5015757590148624  0.3842817269995109   F   F   F
  0.4437846394494898  0.4460183835780285  0.5005161578087822   F   F   F
  0.3874093080916781  0.4667130622753625  0.6095219363935028   T   T   T
  0.3444619247943309  0.4444105321137786  0.3468739267604648   T   T   T
  0.3624396256642672  0.5851027419007192  0.3927743553078781   T   T   T
  0.4217425606853311  0.4061295180575186  0.3699802678458894   F   F   F
  0.5011311695957161  0.4887203336762909  0.4395023580252015   F   F   F
  0.4044148221271726  0.6101724300038001  0.4624736492929173   F   F   F
  0.4722931245665194  0.5596737886932672  0.5729988711091565   F   F   F
  0.6552684236953183  0.5165424048424470  0.4543399438695133   F   F   F
  0.5967309916701211  0.5535378348504167  0.5056109707055541   F   F   F
  0.5314074673932367  0.5941153005651714  0.5336729985293047   F   F   F
  0.5796732686089143  0.4997731718447866  0.4507473928409595   F   F   F
  0.4611214761239741  0.3316524311574333  0.3441888052698800   T   T   T
  0.3905180950192175  0.5252419063175111  0.4552418453041511   F   F   F
  0.4542098822115322  0.3247719777069455  0.4236225741860599   T   T   T
  0.5074804872141527  0.4592780196109629  0.3501259710292359   F   F   F
  0.6012877811302459  0.4669891268301640  0.5212355700313438   F   F   F
  0.5384608035519776  0.4312182275275163  0.4821288228790692   F   F   F
  0.4713083414346286  0.4805797151798927  0.5807598339419258   F   F   F
  0.3771163837573610  0.4514853175274567  0.4282230665427278   F   F   F
  0.4059018739390154  0.3822235888080883  0.4561785915149272   F   F   F
  0.5357818896390683  0.5680835373033233  0.4543473312664048   F   F   F
  0.4924712632432886  0.6367287407321953  0.4646113344718685   F   F   F
  0.4677327221812249  0.5829886973614862  0.4038343643763724   F   F   F
  0.5280944416629296  0.5063826634733033  0.5194466411805863   F   F   F
  0.6212454441397384  0.5105019604624417  0.3755946010283822   F   F   F
  0.6054499763524817  0.5821019035045651  0.4188664505762958   F   F   F
  0.4050790883739026  0.5245211222763402  0.5434909784116542   F   F   F
  0.3507767564200275  0.4706888571486121  0.5089486292400773   T   T   T
  0.4334654524873519  0.4573818254825409  0.3020511359007405   T   T   T
  0.5380894986210646  0.4218269877529197  0.5689121348125571   T   T   T
  0.3577157832246856  0.3873406385902785  0.5390269210530131   T   T   T
  0.4625951421883201  0.5516617238622956  0.4875128022361963   F   F   F
  0.6062799898166330  0.3750042343856506  0.5100036332284198   T   T   T
  0.4917191816437546  0.4391855697474247  0.6577760263608990   T   T   T
  0.5875766163713897  0.4667918115851375  0.3065394646706738   T   T   T
  0.4900497958562298  0.4037080615820798  0.4151644571778519   F   F   F
  0.4351024244063020  0.6727342995268818  0.4138344452101234   T   T   T
  0.4687132009477901  0.5376215992082278  0.6601257976645919   T   T   T
  0.5397532608265934  0.5319899791087650  0.3771480104995177   F   F   F
  0.6685706353903824  0.6003350800972159  0.4833543139766299   T   T   T
  0.6658477019478938  0.5190305911716123  0.5503194555184064   T   T   T
  0.3748234922579805  0.3344959347141810  0.3847364444164431   T   T   T
  0.6784831379224574  0.4363890172619136  0.4868139508432043   T   T   T
  0.5395188512987752  0.3186184960835775  0.3917007070615480   T   T   T
  0.3024087983640208  0.5030691420334171  0.4365492218003026   T   T   T
  0.3135805335709381  0.3949383766061918  0.4486171557000006   T   T   T
  0.5126618569852197  0.6256692653614067  0.6163319161067436   T   T   T
  0.4488177357181280  0.3743575584267835  0.5855759152602436   T   T   T
  0.3899969689210040  0.5797580384345736  0.6133395086194762   T   T   T
  0.4049973474802386  0.3056237688613673  0.5011614870109268   T   T   T
  0.4020474222142858  0.3717851507160723  0.2869610728959734   T   T   T
  0.3838831758160149  0.5337683839354773  0.2916217679870760   T   T   T
  0.6928815906696152  0.4607991288537486  0.3876204042108106   T   T   T
  0.3376819049864683  0.5723262261913142  0.5123063981463521   T   T   T
  0.5990529344391476  0.5712266566626709  0.3065457668473478   T   T   T
  0.6128179669324575  0.6144945229399582  0.5753508201400145   T   T   T
  0.4424852868309856  0.6138395245685930  0.3230345946449769   T   T   T
  0.4293095564416064  0.7400220589362133  0.3730492023293540   T   T   T
  0.4078176850330822  0.7751019326095315  0.3852473531825072   T   T   T
  0.4544031814622442  0.7390590219912955  0.3316383972319769   T   T   T
  0.4491985980893403  0.7699403506925967  0.3161040844860993   T   T   T
 
  0.00000000E+00  0.00000000E+00  0.00000000E+00
  0.00000000E+00  0.00000000E+00  0.00000000E+00
  0.00000000E+00  0.00000000E+00  0.00000000E+00
  0.00000000E+00  0.00000000E+00  0.00000000E+00
  0.00000000E+00  0.00000000E+00  0.00000000E+00
  0.00000000E+00  0.00000000E+00  0.00000000E+00
  0.00000000E+00  0.00000000E+00  0.00000000E+00
  0.00000000E+00  0.00000000E+00  0.00000000E+00
  0.00000000E+00  0.00000000E+00  0.00000000E+00
  0.00000000E+00  0.00000000E+00  0.00000000E+00
  0.00000000E+00  0.00000000E+00  0.00000000E+00
  0.00000000E+00  0.00000000E+00  0.00000000E+00
  0.00000000E+00  0.00000000E+00  0.00000000E+00
  0.00000000E+00  0.00000000E+00  0.00000000E+00
  0.00000000E+00  0.00000000E+00  0.00000000E+00
  0.00000000E+00  0.00000000E+00  0.00000000E+00
  0.00000000E+00  0.00000000E+00  0.00000000E+00
  0.00000000E+00  0.00000000E+00  0.00000000E+00
  0.00000000E+00  0.00000000E+00  0.00000000E+00
  0.00000000E+00  0.00000000E+00  0.00000000E+00
  0.00000000E+00  0.00000000E+00  0.00000000E+00
  0.00000000E+00  0.00000000E+00  0.00000000E+00
  0.00000000E+00  0.00000000E+00  0.00000000E+00
  0.00000000E+00  0.00000000E+00  0.00000000E+00
  0.00000000E+00  0.00000000E+00  0.00000000E+00
  0.00000000E+00  0.00000000E+00  0.00000000E+00
  0.00000000E+00  0.00000000E+00  0.00000000E+00
  0.00000000E+00  0.00000000E+00  0.00000000E+00
  0.00000000E+00  0.00000000E+00  0.00000000E+00
  0.00000000E+00  0.00000000E+00  0.00000000E+00
  0.00000000E+00  0.00000000E+00  0.00000000E+00
  0.00000000E+00  0.00000000E+00  0.00000000E+00
  0.00000000E+00  0.00000000E+00  0.00000000E+00
  0.00000000E+00  0.00000000E+00  0.00000000E+00
  0.00000000E+00  0.00000000E+00  0.00000000E+00
  0.00000000E+00  0.00000000E+00  0.00000000E+00
  0.00000000E+00  0.00000000E+00  0.00000000E+00
  0.00000000E+00  0.00000000E+00  0.00000000E+00
  0.00000000E+00  0.00000000E+00  0.00000000E+00
  0.00000000E+00  0.00000000E+00  0.00000000E+00
  0.00000000E+00  0.00000000E+00  0.00000000E+00
  0.00000000E+00  0.00000000E+00  0.00000000E+00
  0.00000000E+00  0.00000000E+00  0.00000000E+00
  0.00000000E+00  0.00000000E+00  0.00000000E+00
  0.00000000E+00  0.00000000E+00  0.00000000E+00
  0.00000000E+00  0.00000000E+00  0.00000000E+00
  0.00000000E+00  0.00000000E+00  0.00000000E+00
  0.00000000E+00  0.00000000E+00  0.00000000E+00
  0.00000000E+00  0.00000000E+00  0.00000000E+00
  0.00000000E+00  0.00000000E+00  0.00000000E+00
  0.00000000E+00  0.00000000E+00  0.00000000E+00
  0.00000000E+00  0.00000000E+00  0.00000000E+00
  0.00000000E+00  0.00000000E+00  0.00000000E+00
  0.00000000E+00  0.00000000E+00  0.00000000E+00
  0.00000000E+00  0.00000000E+00  0.00000000E+00
  0.00000000E+00  0.00000000E+00  0.00000000E+00
  0.00000000E+00  0.00000000E+00  0.00000000E+00
  0.00000000E+00  0.00000000E+00  0.00000000E+00
  0.00000000E+00  0.00000000E+00  0.00000000E+00
  0.00000000E+00  0.00000000E+00  0.00000000E+00
  0.00000000E+00  0.00000000E+00  0.00000000E+00
  0.00000000E+00  0.00000000E+00  0.00000000E+00
  0.00000000E+00  0.00000000E+00  0.00000000E+00
  0.00000000E+00  0.00000000E+00  0.00000000E+00
  0.00000000E+00  0.00000000E+00  0.00000000E+00
  0.00000000E+00  0.00000000E+00  0.00000000E+00
  0.00000000E+00  0.00000000E+00  0.00000000E+00
  0.00000000E+00  0.00000000E+00  0.00000000E+00
  0.00000000E+00  0.00000000E+00  0.00000000E+00
  0.00000000E+00  0.00000000E+00  0.00000000E+00
  0.00000000E+00  0.00000000E+00  0.00000000E+00
  0.00000000E+00  0.00000000E+00  0.00000000E+00
