La Co Ni Sn Bi C  O  H                  
   1.00000000000000     
    29.1044006348000011    0.0000000000000000    0.0000000000000000
     0.4451680315000000   28.3694074727000007    0.0000000000000000
     0.0682082826000000    0.3036559964000000   28.5240018092999996
   La   Co   Ni   Sn   Bi   C    O    H 
    14    13    13    14    14     1     2     1
Selective dynamics
Direct
  0.5924972892703205  0.4206253106074400  0.4081882345637637   T   T   T
  0.6849508493599499  0.5713282479027547  0.3805339811557559   T   T   T
  0.4954434760873336  0.5269587839544903  0.2823524158949511   T   T   T
  0.5622550257109702  0.5217587767964816  0.6021733661977805   T   T   T
  0.5085294648896043  0.3872256568839371  0.3051161953620969   T   T   T
  0.5753485058929182  0.6556239562389594  0.4834067113578022   T   T   T
  0.5104603847152980  0.3378706625829078  0.4994739087766344   T   T   T
  0.5350525211983137  0.6375380011850000  0.3749857254471614   T   T   T
  0.4353254442501490  0.6427796498360248  0.5358860708366970   T   T   T
  0.4373551010143757  0.5015757590148624  0.3842817269995109   F   F   F
  0.4437846394494898  0.4460183835780285  0.5005161578087822   F   F   F
  0.3868805817024371  0.4660578071949642  0.6084400046217252   T   T   T
  0.3438944794842388  0.4442985918098960  0.3472066159750564   T   T   T
  0.3621687710405827  0.5856531519118708  0.3934554404853264   T   T   T
  0.4217425606853311  0.4061295180575186  0.3699802678458894   F   F   F
  0.5011311695957161  0.4887203336762909  0.4395023580252015   F   F   F
  0.4044148221271726  0.6101724300038001  0.4624736492929173   F   F   F
  0.4722931245665194  0.5596737886932672  0.5729988711091565   F   F   F
  0.6552684236953183  0.5165424048424470  0.4543399438695133   F   F   F
  0.5967309916701211  0.5535378348504167  0.5056109707055541   F   F   F
  0.5314074673932367  0.5941153005651714  0.5336729985293047   F   F   F
  0.5796732686089143  0.4997731718447866  0.4507473928409595   F   F   F
  0.4611202510650776  0.3312282326955848  0.3449486672095685   T   T   T
  0.3905180950192175  0.5252419063175111  0.4552418453041511   F   F   F
  0.4548328403145351  0.3244882695113535  0.4248171544069608   T   T   T
  0.5074804872141527  0.4592780196109629  0.3501259710292359   F   F   F
  0.6012877811302459  0.4669891268301640  0.5212355700313438   F   F   F
  0.5384608035519776  0.4312182275275163  0.4821288228790692   F   F   F
  0.4713083414346286  0.4805797151798927  0.5807598339419258   F   F   F
  0.3771163837573610  0.4514853175274567  0.4282230665427278   F   F   F
  0.4059018739390154  0.3822235888080883  0.4561785915149272   F   F   F
  0.5357818896390683  0.5680835373033233  0.4543473312664048   F   F   F
  0.4924712632432886  0.6367287407321953  0.4646113344718685   F   F   F
  0.4677327221812249  0.5829886973614862  0.4038343643763724   F   F   F
  0.5280944416629296  0.5063826634733033  0.5194466411805863   F   F   F
  0.6212454441397384  0.5105019604624417  0.3755946010283822   F   F   F
  0.6054499763524817  0.5821019035045651  0.4188664505762958   F   F   F
  0.4050790883739026  0.5245211222763402  0.5434909784116542   F   F   F
  0.3504795247712106  0.4702001378952015  0.5084685565493751   T   T   T
  0.4338216773124699  0.4570264368555290  0.3022703076237794   T   T   T
  0.5377410621672972  0.4217580150860844  0.5691078580763983   T   T   T
  0.3561932471168680  0.3869707329190663  0.5374743561677242   T   T   T
  0.4625951421883201  0.5516617238622956  0.4875128022361963   F   F   F
  0.6075091885685656  0.3760827608358690  0.5115786328055202   T   T   T
  0.4908618612371676  0.4385309921800775  0.6577603425328843   T   T   T
  0.5874792984337814  0.4671607641392493  0.3064656388428331   T   T   T
  0.4900497958562298  0.4037080615820798  0.4151644571778519   F   F   F
  0.4355215459124242  0.6745122999908657  0.4126460193116636   T   T   T
  0.4683436783965735  0.5368064013878151  0.6603510762513658   T   T   T
  0.5397532608265934  0.5319899791087650  0.3771480104995177   F   F   F
  0.6685160033964936  0.6003699153591542  0.4835224808941891   T   T   T
  0.6657494739257441  0.5192857014929986  0.5505914543867111   T   T   T
  0.3756059723223848  0.3344755921590389  0.3844912377472183   T   T   T
  0.6795825706244519  0.4370606135653330  0.4868166472512155   T   T   T
  0.5398718469651934  0.3188538073749843  0.3916126799838752   T   T   T
  0.3026040536372436  0.5036165296845442  0.4365493936710867   T   T   T
  0.3097491689308763  0.3956716897128972  0.4473386159515556   T   T   T
  0.5122931044214233  0.6251745903806841  0.6168208587180701   T   T   T
  0.4484425259267997  0.3740986879143366  0.5844185418677199   T   T   T
  0.3902143782886480  0.5795173241179034  0.6135068927682742   T   T   T
  0.4069017151873170  0.3060659780012943  0.5023141565589127   T   T   T
  0.4023218312804086  0.3717300902370786  0.2869376845619207   T   T   T
  0.3837078551583192  0.5333117719676306  0.2920260939242441   T   T   T
  0.6928124414693140  0.4605007197516285  0.3871089771987171   T   T   T
  0.3373333535025512  0.5718429330029801  0.5125662171175180   T   T   T
  0.5990421144867830  0.5722401610537162  0.3073983056089147   T   T   T
  0.6126821748079843  0.6142400665330382  0.5754874353280580   T   T   T
  0.4403015405588891  0.6146101990766504  0.3234586581979568   T   T   T
  0.2310668739099525  0.4175580251042529  0.4694775970262473   T   T   T
  0.2014140301534807  0.4299162535963399  0.4413965602079637   T   T   T
  0.2208939193543927  0.4061168043852825  0.5153580245425158   T   T   T
  0.1872763581920702  0.4100690493731758  0.5190158770150781   T   T   T
 
  0.00000000E+00  0.00000000E+00  0.00000000E+00
  0.00000000E+00  0.00000000E+00  0.00000000E+00
  0.00000000E+00  0.00000000E+00  0.00000000E+00
  0.00000000E+00  0.00000000E+00  0.00000000E+00
  0.00000000E+00  0.00000000E+00  0.00000000E+00
  0.00000000E+00  0.00000000E+00  0.00000000E+00
  0.00000000E+00  0.00000000E+00  0.00000000E+00
  0.00000000E+00  0.00000000E+00  0.00000000E+00
  0.00000000E+00  0.00000000E+00  0.00000000E+00
  0.00000000E+00  0.00000000E+00  0.00000000E+00
  0.00000000E+00  0.00000000E+00  0.00000000E+00
  0.00000000E+00  0.00000000E+00  0.00000000E+00
  0.00000000E+00  0.00000000E+00  0.00000000E+00
  0.00000000E+00  0.00000000E+00  0.00000000E+00
  0.00000000E+00  0.00000000E+00  0.00000000E+00
  0.00000000E+00  0.00000000E+00  0.00000000E+00
  0.00000000E+00  0.00000000E+00  0.00000000E+00
  0.00000000E+00  0.00000000E+00  0.00000000E+00
  0.00000000E+00  0.00000000E+00  0.00000000E+00
  0.00000000E+00  0.00000000E+00  0.00000000E+00
  0.00000000E+00  0.00000000E+00  0.00000000E+00
  0.00000000E+00  0.00000000E+00  0.00000000E+00
  0.00000000E+00  0.00000000E+00  0.00000000E+00
  0.00000000E+00  0.00000000E+00  0.00000000E+00
  0.00000000E+00  0.00000000E+00  0.00000000E+00
  0.00000000E+00  0.00000000E+00  0.00000000E+00
  0.00000000E+00  0.00000000E+00  0.00000000E+00
  0.00000000E+00  0.00000000E+00  0.00000000E+00
  0.00000000E+00  0.00000000E+00  0.00000000E+00
  0.00000000E+00  0.00000000E+00  0.00000000E+00
  0.00000000E+00  0.00000000E+00  0.00000000E+00
  0.00000000E+00  0.00000000E+00  0.00000000E+00
  0.00000000E+00  0.00000000E+00  0.00000000E+00
  0.00000000E+00  0.00000000E+00  0.00000000E+00
  0.00000000E+00  0.00000000E+00  0.00000000E+00
  0.00000000E+00  0.00000000E+00  0.00000000E+00
  0.00000000E+00  0.00000000E+00  0.00000000E+00
  0.00000000E+00  0.00000000E+00  0.00000000E+00
  0.00000000E+00  0.00000000E+00  0.00000000E+00
  0.00000000E+00  0.00000000E+00  0.00000000E+00
  0.00000000E+00  0.00000000E+00  0.00000000E+00
  0.00000000E+00  0.00000000E+00  0.00000000E+00
  0.00000000E+00  0.00000000E+00  0.00000000E+00
  0.00000000E+00  0.00000000E+00  0.00000000E+00
  0.00000000E+00  0.00000000E+00  0.00000000E+00
  0.00000000E+00  0.00000000E+00  0.00000000E+00
  0.00000000E+00  0.00000000E+00  0.00000000E+00
  0.00000000E+00  0.00000000E+00  0.00000000E+00
  0.00000000E+00  0.00000000E+00  0.00000000E+00
  0.00000000E+00  0.00000000E+00  0.00000000E+00
  0.00000000E+00  0.00000000E+00  0.00000000E+00
  0.00000000E+00  0.00000000E+00  0.00000000E+00
  0.00000000E+00  0.00000000E+00  0.00000000E+00
  0.00000000E+00  0.00000000E+00  0.00000000E+00
  0.00000000E+00  0.00000000E+00  0.00000000E+00
  0.00000000E+00  0.00000000E+00  0.00000000E+00
  0.00000000E+00  0.00000000E+00  0.00000000E+00
  0.00000000E+00  0.00000000E+00  0.00000000E+00
  0.00000000E+00  0.00000000E+00  0.00000000E+00
  0.00000000E+00  0.00000000E+00  0.00000000E+00
  0.00000000E+00  0.00000000E+00  0.00000000E+00
  0.00000000E+00  0.00000000E+00  0.00000000E+00
  0.00000000E+00  0.00000000E+00  0.00000000E+00
  0.00000000E+00  0.00000000E+00  0.00000000E+00
  0.00000000E+00  0.00000000E+00  0.00000000E+00
  0.00000000E+00  0.00000000E+00  0.00000000E+00
  0.00000000E+00  0.00000000E+00  0.00000000E+00
  0.00000000E+00  0.00000000E+00  0.00000000E+00
  0.00000000E+00  0.00000000E+00  0.00000000E+00
  0.00000000E+00  0.00000000E+00  0.00000000E+00
  0.00000000E+00  0.00000000E+00  0.00000000E+00
  0.00000000E+00  0.00000000E+00  0.00000000E+00
