La Co Ni Sn Bi C  O  H                  
   1.00000000000000     
    29.1044006348000011    0.0000000000000000    0.0000000000000000
     0.4451680315000000   28.3694074727000007    0.0000000000000000
     0.0682082826000000    0.3036559964000000   28.5240018092999996
   La   Co   Ni   Sn   Bi   C    O    H 
    14    13    13    14    14     1     2     1
Selective dynamics
Direct
  0.5930585889864052  0.4211842153956285  0.4079352123457596   T   T   T
  0.6847801826410288  0.5717865871894430  0.3804931886430546   T   T   T
  0.4956859124600937  0.5264711984543031  0.2818955054757604   T   T   T
  0.5622956586344648  0.5218464350484626  0.6021270523096162   T   T   T
  0.5107751046469103  0.3857283542169173  0.3063295266539848   T   T   T
  0.5753466426453833  0.6553317642674427  0.4833562426914282   T   T   T
  0.5087247501588492  0.3378217445946542  0.5000577187451178   T   T   T
  0.5351180609252995  0.6376858370045420  0.3749840317279899   T   T   T
  0.4362660749313892  0.6435607653341214  0.5355037781315793   T   T   T
  0.4373551010143757  0.5015757590148624  0.3842817269995109   F   F   F
  0.4437846394494898  0.4460183835780285  0.5005161578087822   F   F   F
  0.3873327376313861  0.4673329673371814  0.6095218035077140   T   T   T
  0.3454396039154721  0.4423908365166676  0.3463569101255162   T   T   T
  0.3618929593278127  0.5852410590603330  0.3933709346203108   T   T   T
  0.4217425606853311  0.4061295180575186  0.3699802678458894   F   F   F
  0.5011311695957161  0.4887203336762909  0.4395023580252015   F   F   F
  0.4044148221271726  0.6101724300038001  0.4624736492929173   F   F   F
  0.4722931245665194  0.5596737886932672  0.5729988711091565   F   F   F
  0.6552684236953183  0.5165424048424470  0.4543399438695133   F   F   F
  0.5967309916701211  0.5535378348504167  0.5056109707055541   F   F   F
  0.5314074673932367  0.5941153005651714  0.5336729985293047   F   F   F
  0.5796732686089143  0.4997731718447866  0.4507473928409595   F   F   F
  0.4645024726240510  0.3315326340988054  0.3472850141090215   T   T   T
  0.3905180950192175  0.5252419063175111  0.4552418453041511   F   F   F
  0.4568292530506134  0.3247675157906214  0.4266585612238716   T   T   T
  0.5074804872141527  0.4592780196109629  0.3501259710292359   F   F   F
  0.6012877811302459  0.4669891268301640  0.5212355700313438   F   F   F
  0.5384608035519776  0.4312182275275163  0.4821288228790692   F   F   F
  0.4713083414346286  0.4805797151798927  0.5807598339419258   F   F   F
  0.3771163837573610  0.4514853175274567  0.4282230665427278   F   F   F
  0.4059018739390154  0.3822235888080883  0.4561785915149272   F   F   F
  0.5357818896390683  0.5680835373033233  0.4543473312664048   F   F   F
  0.4924712632432886  0.6367287407321953  0.4646113344718685   F   F   F
  0.4677327221812249  0.5829886973614862  0.4038343643763724   F   F   F
  0.5280944416629296  0.5063826634733033  0.5194466411805863   F   F   F
  0.6212454441397384  0.5105019604624417  0.3755946010283822   F   F   F
  0.6054499763524817  0.5821019035045651  0.4188664505762958   F   F   F
  0.4050790883739026  0.5245211222763402  0.5434909784116542   F   F   F
  0.3506483591700479  0.4700851737104930  0.5084287538871876   T   T   T
  0.4345787841089302  0.4564308759529940  0.3015026023255168   T   T   T
  0.5380959384528606  0.4218462414779735  0.5689865761186169   T   T   T
  0.3574035623275071  0.3872792431077829  0.5399874245177879   T   T   T
  0.4625951421883201  0.5516617238622956  0.4875128022361963   F   F   F
  0.6065881407039743  0.3750068368624470  0.5100845465396447   T   T   T
  0.4917129550301574  0.4388322468034765  0.6578761062207592   T   T   T
  0.5877726708687915  0.4675450293639985  0.3062838629374807   T   T   T
  0.4900497958562298  0.4037080615820798  0.4151644571778519   F   F   F
  0.4353894489567646  0.6741942190405805  0.4123609990958298   T   T   T
  0.4683496446572470  0.5371529808538544  0.6602142614177244   T   T   T
  0.5397532608265934  0.5319899791087650  0.3771480104995177   F   F   F
  0.6685893248884579  0.6002163490694787  0.4835752558754898   T   T   T
  0.6656745602377426  0.5190470369587559  0.5506153770368404   T   T   T
  0.3777548318878037  0.3325702184901782  0.3856649022046161   T   T   T
  0.6787332205309683  0.4366980473862344  0.4867223191761090   T   T   T
  0.5442078192912733  0.3183466132512853  0.3946718964449912   T   T   T
  0.3025361295555872  0.5022256449706245  0.4355351020208255   T   T   T
  0.3142160437510350  0.3946513677239482  0.4491227286043333   T   T   T
  0.5123107827105435  0.6254194112279466  0.6168710368764094   T   T   T
  0.4486206039068221  0.3745884057781352  0.5855639226288464   T   T   T
  0.3908387049093878  0.5808725498861254  0.6128268909182684   T   T   T
  0.4045301032959599  0.3055646954399868  0.5012108940256743   T   T   T
  0.4049146133063558  0.3696027330967221  0.2879447892273053   T   T   T
  0.3839223413370337  0.5325058275305471  0.2922365454618522   T   T   T
  0.6933722251933405  0.4611877764128628  0.3873583136537052   T   T   T
  0.3374561715655760  0.5716182411187348  0.5124651079753242   T   T   T
  0.5989375349570376  0.5724046037446384  0.3074607241925887   T   T   T
  0.6125904057976074  0.6143529934612187  0.5755280788278654   T   T   T
  0.4405290913440263  0.6140089560942679  0.3234113522396854   T   T   T
  0.5900259662115173  0.2558925521909085  0.3642206786647304   T   T   T
  0.5808546332643275  0.2181639070433639  0.3470254697707792   T   T   T
  0.6348197661898155  0.2702508622658528  0.3710690384661068   T   T   T
  0.6551613128352295  0.2443541873456128  0.3605064818998013   T   T   T
 
  0.00000000E+00  0.00000000E+00  0.00000000E+00
  0.00000000E+00  0.00000000E+00  0.00000000E+00
  0.00000000E+00  0.00000000E+00  0.00000000E+00
  0.00000000E+00  0.00000000E+00  0.00000000E+00
  0.00000000E+00  0.00000000E+00  0.00000000E+00
  0.00000000E+00  0.00000000E+00  0.00000000E+00
  0.00000000E+00  0.00000000E+00  0.00000000E+00
  0.00000000E+00  0.00000000E+00  0.00000000E+00
  0.00000000E+00  0.00000000E+00  0.00000000E+00
  0.00000000E+00  0.00000000E+00  0.00000000E+00
  0.00000000E+00  0.00000000E+00  0.00000000E+00
  0.00000000E+00  0.00000000E+00  0.00000000E+00
  0.00000000E+00  0.00000000E+00  0.00000000E+00
  0.00000000E+00  0.00000000E+00  0.00000000E+00
  0.00000000E+00  0.00000000E+00  0.00000000E+00
  0.00000000E+00  0.00000000E+00  0.00000000E+00
  0.00000000E+00  0.00000000E+00  0.00000000E+00
  0.00000000E+00  0.00000000E+00  0.00000000E+00
  0.00000000E+00  0.00000000E+00  0.00000000E+00
  0.00000000E+00  0.00000000E+00  0.00000000E+00
  0.00000000E+00  0.00000000E+00  0.00000000E+00
  0.00000000E+00  0.00000000E+00  0.00000000E+00
  0.00000000E+00  0.00000000E+00  0.00000000E+00
  0.00000000E+00  0.00000000E+00  0.00000000E+00
  0.00000000E+00  0.00000000E+00  0.00000000E+00
  0.00000000E+00  0.00000000E+00  0.00000000E+00
  0.00000000E+00  0.00000000E+00  0.00000000E+00
  0.00000000E+00  0.00000000E+00  0.00000000E+00
  0.00000000E+00  0.00000000E+00  0.00000000E+00
  0.00000000E+00  0.00000000E+00  0.00000000E+00
  0.00000000E+00  0.00000000E+00  0.00000000E+00
  0.00000000E+00  0.00000000E+00  0.00000000E+00
  0.00000000E+00  0.00000000E+00  0.00000000E+00
  0.00000000E+00  0.00000000E+00  0.00000000E+00
  0.00000000E+00  0.00000000E+00  0.00000000E+00
  0.00000000E+00  0.00000000E+00  0.00000000E+00
  0.00000000E+00  0.00000000E+00  0.00000000E+00
  0.00000000E+00  0.00000000E+00  0.00000000E+00
  0.00000000E+00  0.00000000E+00  0.00000000E+00
  0.00000000E+00  0.00000000E+00  0.00000000E+00
  0.00000000E+00  0.00000000E+00  0.00000000E+00
  0.00000000E+00  0.00000000E+00  0.00000000E+00
  0.00000000E+00  0.00000000E+00  0.00000000E+00
  0.00000000E+00  0.00000000E+00  0.00000000E+00
  0.00000000E+00  0.00000000E+00  0.00000000E+00
  0.00000000E+00  0.00000000E+00  0.00000000E+00
  0.00000000E+00  0.00000000E+00  0.00000000E+00
  0.00000000E+00  0.00000000E+00  0.00000000E+00
  0.00000000E+00  0.00000000E+00  0.00000000E+00
  0.00000000E+00  0.00000000E+00  0.00000000E+00
  0.00000000E+00  0.00000000E+00  0.00000000E+00
  0.00000000E+00  0.00000000E+00  0.00000000E+00
  0.00000000E+00  0.00000000E+00  0.00000000E+00
  0.00000000E+00  0.00000000E+00  0.00000000E+00
  0.00000000E+00  0.00000000E+00  0.00000000E+00
  0.00000000E+00  0.00000000E+00  0.00000000E+00
  0.00000000E+00  0.00000000E+00  0.00000000E+00
  0.00000000E+00  0.00000000E+00  0.00000000E+00
  0.00000000E+00  0.00000000E+00  0.00000000E+00
  0.00000000E+00  0.00000000E+00  0.00000000E+00
  0.00000000E+00  0.00000000E+00  0.00000000E+00
  0.00000000E+00  0.00000000E+00  0.00000000E+00
  0.00000000E+00  0.00000000E+00  0.00000000E+00
  0.00000000E+00  0.00000000E+00  0.00000000E+00
  0.00000000E+00  0.00000000E+00  0.00000000E+00
  0.00000000E+00  0.00000000E+00  0.00000000E+00
  0.00000000E+00  0.00000000E+00  0.00000000E+00
  0.00000000E+00  0.00000000E+00  0.00000000E+00
  0.00000000E+00  0.00000000E+00  0.00000000E+00
  0.00000000E+00  0.00000000E+00  0.00000000E+00
  0.00000000E+00  0.00000000E+00  0.00000000E+00
  0.00000000E+00  0.00000000E+00  0.00000000E+00
