La Co Ni Sn Bi C  O  H                  
   1.00000000000000     
    29.1044006348000011    0.0000000000000000    0.0000000000000000
     0.4451680315000000   28.3694074727000007    0.0000000000000000
     0.0682082826000000    0.3036559964000000   28.5240018092999996
   La   Co   Ni   Sn   Bi   C    O    H 
    14    13    13    14    14     1     2     1
Selective dynamics
Direct
  0.5920580877473054  0.4216979069201560  0.4067764140930266   T   T   T
  0.6853081524186165  0.5713448226621972  0.3813380179297030   T   T   T
  0.4953617144895310  0.5276052295009401  0.2821445844870624   T   T   T
  0.5626233165944217  0.5223760663353216  0.6020437161479741   T   T   T
  0.5142338609872551  0.3858687322709387  0.3048126972651570   T   T   T
  0.5751594057678378  0.6556105827310859  0.4834221883432778   T   T   T
  0.5066382001644102  0.3387221572729281  0.5009750000744678   T   T   T
  0.5345537287050218  0.6377087064348003  0.3752702020443660   T   T   T
  0.4356320998838646  0.6435401400300452  0.5351734091247016   T   T   T
  0.4373551010143757  0.5015757590148624  0.3842817269995109   F   F   F
  0.4437846394494898  0.4460183835780285  0.5005161578087822   F   F   F
  0.3873890221899394  0.4682313370910415  0.6104922517229707   T   T   T
  0.3454943091787812  0.4425079706393820  0.3470562701298737   T   T   T
  0.3613631896870063  0.5844925646504533  0.3937951793073228   T   T   T
  0.4217425606853311  0.4061295180575186  0.3699802678458894   F   F   F
  0.5011311695957161  0.4887203336762909  0.4395023580252015   F   F   F
  0.4044148221271726  0.6101724300038001  0.4624736492929173   F   F   F
  0.4722931245665194  0.5596737886932672  0.5729988711091565   F   F   F
  0.6552684236953183  0.5165424048424470  0.4543399438695133   F   F   F
  0.5967309916701211  0.5535378348504167  0.5056109707055541   F   F   F
  0.5314074673932367  0.5941153005651714  0.5336729985293047   F   F   F
  0.5796732686089143  0.4997731718447866  0.4507473928409595   F   F   F
  0.4631956773575975  0.3297375044441940  0.3444743111445094   T   T   T
  0.3905180950192175  0.5252419063175111  0.4552418453041511   F   F   F
  0.4552383589104397  0.3246234350944368  0.4244878533276051   T   T   T
  0.5074804872141527  0.4592780196109629  0.3501259710292359   F   F   F
  0.6012877811302459  0.4669891268301640  0.5212355700313438   F   F   F
  0.5384608035519776  0.4312182275275163  0.4821288228790692   F   F   F
  0.4713083414346286  0.4805797151798927  0.5807598339419258   F   F   F
  0.3771163837573610  0.4514853175274567  0.4282230665427278   F   F   F
  0.4059018739390154  0.3822235888080883  0.4561785915149272   F   F   F
  0.5357818896390683  0.5680835373033233  0.4543473312664048   F   F   F
  0.4924712632432886  0.6367287407321953  0.4646113344718685   F   F   F
  0.4677327221812249  0.5829886973614862  0.4038343643763724   F   F   F
  0.5280944416629296  0.5063826634733033  0.5194466411805863   F   F   F
  0.6212454441397384  0.5105019604624417  0.3755946010283822   F   F   F
  0.6054499763524817  0.5821019035045651  0.4188664505762958   F   F   F
  0.4050790883739026  0.5245211222763402  0.5434909784116542   F   F   F
  0.3511365532101160  0.4702464765009653  0.5092465410988748   T   T   T
  0.4356378989440399  0.4573541994459162  0.3014072176230012   T   T   T
  0.5391834418742231  0.4221778907995712  0.5691356145190969   T   T   T
  0.3581647174978055  0.3874645356180980  0.5409817769769558   T   T   T
  0.4625951421883201  0.5516617238622956  0.4875128022361963   F   F   F
  0.6051883732504749  0.3736460332970322  0.5076425844047026   T   T   T
  0.4930047280999950  0.4404429322865179  0.6584017977892832   T   T   T
  0.5880965059273715  0.4692361046881514  0.3055596392805423   T   T   T
  0.4900497958562298  0.4037080615820798  0.4151644571778519   F   F   F
  0.4351624272653375  0.6742446117448133  0.4125566919923307   T   T   T
  0.4683996912805081  0.5383588448575912  0.6601659205604968   T   T   T
  0.5397532608265934  0.5319899791087650  0.3771480104995177   F   F   F
  0.6684649038126330  0.6005443916580013  0.4839919654460975   T   T   T
  0.6659105494052185  0.5191035367577082  0.5501935357540805   T   T   T
  0.3758880743498332  0.3337752901004585  0.3857992102073642   T   T   T
  0.6773984414430758  0.4357471658989436  0.4865609094608534   T   T   T
  0.5414176521854278  0.3191394791894679  0.3950044662966073   T   T   T
  0.3023690384794157  0.5015811680326856  0.4367441657472514   T   T   T
  0.3140797714025303  0.3942736563552025  0.4500120648023095   T   T   T
  0.5120036948852105  0.6261415178101767  0.6162390267016421   T   T   T
  0.4492663416781666  0.3764782390577924  0.5870989767741901   T   T   T
  0.3902762621496737  0.5811554320132767  0.6127360310132615   T   T   T
  0.4026862791448341  0.3057282967673522  0.5004574273467342   T   T   T
  0.4067879285579313  0.3714139368743610  0.2878437355972518   T   T   T
  0.3836411326081744  0.5324803610166202  0.2922613557428569   T   T   T
  0.6931956052119248  0.4607769147774695  0.3879160927091554   T   T   T
  0.3375658494770054  0.5719625584883047  0.5125804214945922   T   T   T
  0.5995174344953421  0.5734962831260957  0.3082921823218062   T   T   T
  0.6127294052286347  0.6147656174478254  0.5753661269555781   T   T   T
  0.4393880878245143  0.6145347967810947  0.3237031354852820   T   T   T
  0.4918429625534302  0.2919695197568956  0.2993877708816833   T   T   T
  0.5202346940202044  0.3060633642086401  0.2682568160056185   T   T   T
  0.4820398527594218  0.2449930038667464  0.2999699159230307   T   T   T
  0.5000972010682800  0.2306925862302641  0.2743815133221617   T   T   T
 
  0.00000000E+00  0.00000000E+00  0.00000000E+00
  0.00000000E+00  0.00000000E+00  0.00000000E+00
  0.00000000E+00  0.00000000E+00  0.00000000E+00
  0.00000000E+00  0.00000000E+00  0.00000000E+00
  0.00000000E+00  0.00000000E+00  0.00000000E+00
  0.00000000E+00  0.00000000E+00  0.00000000E+00
  0.00000000E+00  0.00000000E+00  0.00000000E+00
  0.00000000E+00  0.00000000E+00  0.00000000E+00
  0.00000000E+00  0.00000000E+00  0.00000000E+00
  0.00000000E+00  0.00000000E+00  0.00000000E+00
  0.00000000E+00  0.00000000E+00  0.00000000E+00
  0.00000000E+00  0.00000000E+00  0.00000000E+00
  0.00000000E+00  0.00000000E+00  0.00000000E+00
  0.00000000E+00  0.00000000E+00  0.00000000E+00
  0.00000000E+00  0.00000000E+00  0.00000000E+00
  0.00000000E+00  0.00000000E+00  0.00000000E+00
  0.00000000E+00  0.00000000E+00  0.00000000E+00
  0.00000000E+00  0.00000000E+00  0.00000000E+00
  0.00000000E+00  0.00000000E+00  0.00000000E+00
  0.00000000E+00  0.00000000E+00  0.00000000E+00
  0.00000000E+00  0.00000000E+00  0.00000000E+00
  0.00000000E+00  0.00000000E+00  0.00000000E+00
  0.00000000E+00  0.00000000E+00  0.00000000E+00
  0.00000000E+00  0.00000000E+00  0.00000000E+00
  0.00000000E+00  0.00000000E+00  0.00000000E+00
  0.00000000E+00  0.00000000E+00  0.00000000E+00
  0.00000000E+00  0.00000000E+00  0.00000000E+00
  0.00000000E+00  0.00000000E+00  0.00000000E+00
  0.00000000E+00  0.00000000E+00  0.00000000E+00
  0.00000000E+00  0.00000000E+00  0.00000000E+00
  0.00000000E+00  0.00000000E+00  0.00000000E+00
  0.00000000E+00  0.00000000E+00  0.00000000E+00
  0.00000000E+00  0.00000000E+00  0.00000000E+00
  0.00000000E+00  0.00000000E+00  0.00000000E+00
  0.00000000E+00  0.00000000E+00  0.00000000E+00
  0.00000000E+00  0.00000000E+00  0.00000000E+00
  0.00000000E+00  0.00000000E+00  0.00000000E+00
  0.00000000E+00  0.00000000E+00  0.00000000E+00
  0.00000000E+00  0.00000000E+00  0.00000000E+00
  0.00000000E+00  0.00000000E+00  0.00000000E+00
  0.00000000E+00  0.00000000E+00  0.00000000E+00
  0.00000000E+00  0.00000000E+00  0.00000000E+00
  0.00000000E+00  0.00000000E+00  0.00000000E+00
  0.00000000E+00  0.00000000E+00  0.00000000E+00
  0.00000000E+00  0.00000000E+00  0.00000000E+00
  0.00000000E+00  0.00000000E+00  0.00000000E+00
  0.00000000E+00  0.00000000E+00  0.00000000E+00
  0.00000000E+00  0.00000000E+00  0.00000000E+00
  0.00000000E+00  0.00000000E+00  0.00000000E+00
  0.00000000E+00  0.00000000E+00  0.00000000E+00
  0.00000000E+00  0.00000000E+00  0.00000000E+00
  0.00000000E+00  0.00000000E+00  0.00000000E+00
  0.00000000E+00  0.00000000E+00  0.00000000E+00
  0.00000000E+00  0.00000000E+00  0.00000000E+00
  0.00000000E+00  0.00000000E+00  0.00000000E+00
  0.00000000E+00  0.00000000E+00  0.00000000E+00
  0.00000000E+00  0.00000000E+00  0.00000000E+00
  0.00000000E+00  0.00000000E+00  0.00000000E+00
  0.00000000E+00  0.00000000E+00  0.00000000E+00
  0.00000000E+00  0.00000000E+00  0.00000000E+00
  0.00000000E+00  0.00000000E+00  0.00000000E+00
  0.00000000E+00  0.00000000E+00  0.00000000E+00
  0.00000000E+00  0.00000000E+00  0.00000000E+00
  0.00000000E+00  0.00000000E+00  0.00000000E+00
  0.00000000E+00  0.00000000E+00  0.00000000E+00
  0.00000000E+00  0.00000000E+00  0.00000000E+00
  0.00000000E+00  0.00000000E+00  0.00000000E+00
  0.00000000E+00  0.00000000E+00  0.00000000E+00
  0.00000000E+00  0.00000000E+00  0.00000000E+00
  0.00000000E+00  0.00000000E+00  0.00000000E+00
  0.00000000E+00  0.00000000E+00  0.00000000E+00
  0.00000000E+00  0.00000000E+00  0.00000000E+00
