La Co Ni Sn Bi C  O  H                  
   1.00000000000000     
    29.1044006348000011    0.0000000000000000    0.0000000000000000
     0.4451680315000000   28.3694074727000007    0.0000000000000000
     0.0682082826000000    0.3036559964000000   28.5240018092999996
   La   Co   Ni   Sn   Bi   C    O    H 
    14    13    13    14    14     1     2     1
Selective dynamics
Direct
  0.5913259406569400  0.4207617691871579  0.4074923089412098   T   T   T
  0.6863033706695979  0.5735624261351009  0.3813472926400533   T   T   T
  0.4953666865875483  0.5279593669515251  0.2822552840578880   T   T   T
  0.5621996187204256  0.5217015039222036  0.6021901442161637   T   T   T
  0.5083553467551524  0.3872125874781785  0.3053413222202253   T   T   T
  0.5755703103367130  0.6553696829273079  0.4831459043780806   T   T   T
  0.5099081511730723  0.3379472413869327  0.4990915080685380   T   T   T
  0.5350292368212939  0.6376942000325607  0.3751472717049277   T   T   T
  0.4359735268070313  0.6431987495606478  0.5358477780893754   T   T   T
  0.4373551010143757  0.5015757590148624  0.3842817269995109   F   F   F
  0.4437846394494898  0.4460183835780285  0.5005161578087822   F   F   F
  0.3875585516092012  0.4666799092004379  0.6093813961453431   T   T   T
  0.3446974723163552  0.4444176497525700  0.3467874691075327   T   T   T
  0.3619305092742203  0.5855862065945048  0.3938487062430114   T   T   T
  0.4217425606853311  0.4061295180575186  0.3699802678458894   F   F   F
  0.5011311695957161  0.4887203336762909  0.4395023580252015   F   F   F
  0.4044148221271726  0.6101724300038001  0.4624736492929173   F   F   F
  0.4722931245665194  0.5596737886932672  0.5729988711091565   F   F   F
  0.6552684236953183  0.5165424048424470  0.4543399438695133   F   F   F
  0.5967309916701211  0.5535378348504167  0.5056109707055541   F   F   F
  0.5314074673932367  0.5941153005651714  0.5336729985293047   F   F   F
  0.5796732686089143  0.4997731718447866  0.4507473928409595   F   F   F
  0.4603226943892664  0.3303602050360855  0.3449789267902100   T   T   T
  0.3905180950192175  0.5252419063175111  0.4552418453041511   F   F   F
  0.4549114010929524  0.3246372969246160  0.4248442992768654   T   T   T
  0.5074804872141527  0.4592780196109629  0.3501259710292359   F   F   F
  0.6012877811302459  0.4669891268301640  0.5212355700313438   F   F   F
  0.5384608035519776  0.4312182275275163  0.4821288228790692   F   F   F
  0.4713083414346286  0.4805797151798927  0.5807598339419258   F   F   F
  0.3771163837573610  0.4514853175274567  0.4282230665427278   F   F   F
  0.4059018739390154  0.3822235888080883  0.4561785915149272   F   F   F
  0.5357818896390683  0.5680835373033233  0.4543473312664048   F   F   F
  0.4924712632432886  0.6367287407321953  0.4646113344718685   F   F   F
  0.4677327221812249  0.5829886973614862  0.4038343643763724   F   F   F
  0.5280944416629296  0.5063826634733033  0.5194466411805863   F   F   F
  0.6212454441397384  0.5105019604624417  0.3755946010283822   F   F   F
  0.6054499763524817  0.5821019035045651  0.4188664505762958   F   F   F
  0.4050790883739026  0.5245211222763402  0.5434909784116542   F   F   F
  0.3507793288770876  0.4701441768692579  0.5087602689678681   T   T   T
  0.4336786147233881  0.4573501684150893  0.3020974160651906   T   T   T
  0.5380463358430350  0.4216494793484769  0.5687431933721629   T   T   T
  0.3574509641066355  0.3869238534648090  0.5395124104638280   T   T   T
  0.4625951421883201  0.5516617238622956  0.4875128022361963   F   F   F
  0.6077777319715891  0.3761516795524698  0.5100406322618796   T   T   T
  0.4919268446058623  0.4383023698055072  0.6577375983765841   T   T   T
  0.5860963351948418  0.4676823320658028  0.3061487649928202   T   T   T
  0.4900497958562298  0.4037080615820798  0.4151644571778519   F   F   F
  0.4354298043695435  0.6748356227266803  0.4129086248531245   T   T   T
  0.4683541209299283  0.5366622661500652  0.6600563237113445   T   T   T
  0.5397532608265934  0.5319899791087650  0.3771480104995177   F   F   F
  0.6686471323027139  0.6002514134395203  0.4846679728634797   T   T   T
  0.6652117399992160  0.5203307713431334  0.5522243664932396   T   T   T
  0.3752445450524856  0.3344634330390788  0.3847360415882489   T   T   T
  0.6814333901287448  0.4381052166654215  0.4916428420263071   T   T   T
  0.5396906472516525  0.3185907331285460  0.3912227042244706   T   T   T
  0.3024688712956488  0.5030492088972139  0.4366749788337489   T   T   T
  0.3136186306412300  0.3954763200114090  0.4490693508596194   T   T   T
  0.5123077894143624  0.6253085086545694  0.6169938647084706   T   T   T
  0.4489868049369359  0.3741722103375352  0.5849444793965062   T   T   T
  0.3903782571576155  0.5800834821116185  0.6132215886407170   T   T   T
  0.4058482178505133  0.3056131632362769  0.5012394979269317   T   T   T
  0.4022167939328594  0.3715524906250311  0.2869459602812037   T   T   T
  0.3837357433845411  0.5338836441311168  0.2922456059730031   T   T   T
  0.6904419801539043  0.4577374822670696  0.3889097435985983   T   T   T
  0.3376912055919071  0.5722344564200926  0.5127989306066079   T   T   T
  0.6000069819747819  0.5730659585088974  0.3086388795797141   T   T   T
  0.6121638439077853  0.6147595258906545  0.5759303088970482   T   T   T
  0.4399451174012963  0.6153624650138663  0.3238615111377424   T   T   T
  0.7626805973526883  0.4930577827777636  0.3771342019180158   T   T   T
  0.7680485756852621  0.5364250270938760  0.3711186148066823   T   T   T
  0.7987724433101863  0.4627430907125856  0.3741093668684901   T   T   T
  0.8267679740157383  0.4810000781321885  0.3674401747935083   T   T   T
 
  0.00000000E+00  0.00000000E+00  0.00000000E+00
  0.00000000E+00  0.00000000E+00  0.00000000E+00
  0.00000000E+00  0.00000000E+00  0.00000000E+00
  0.00000000E+00  0.00000000E+00  0.00000000E+00
  0.00000000E+00  0.00000000E+00  0.00000000E+00
  0.00000000E+00  0.00000000E+00  0.00000000E+00
  0.00000000E+00  0.00000000E+00  0.00000000E+00
  0.00000000E+00  0.00000000E+00  0.00000000E+00
  0.00000000E+00  0.00000000E+00  0.00000000E+00
  0.00000000E+00  0.00000000E+00  0.00000000E+00
  0.00000000E+00  0.00000000E+00  0.00000000E+00
  0.00000000E+00  0.00000000E+00  0.00000000E+00
  0.00000000E+00  0.00000000E+00  0.00000000E+00
  0.00000000E+00  0.00000000E+00  0.00000000E+00
  0.00000000E+00  0.00000000E+00  0.00000000E+00
  0.00000000E+00  0.00000000E+00  0.00000000E+00
  0.00000000E+00  0.00000000E+00  0.00000000E+00
  0.00000000E+00  0.00000000E+00  0.00000000E+00
  0.00000000E+00  0.00000000E+00  0.00000000E+00
  0.00000000E+00  0.00000000E+00  0.00000000E+00
  0.00000000E+00  0.00000000E+00  0.00000000E+00
  0.00000000E+00  0.00000000E+00  0.00000000E+00
  0.00000000E+00  0.00000000E+00  0.00000000E+00
  0.00000000E+00  0.00000000E+00  0.00000000E+00
  0.00000000E+00  0.00000000E+00  0.00000000E+00
  0.00000000E+00  0.00000000E+00  0.00000000E+00
  0.00000000E+00  0.00000000E+00  0.00000000E+00
  0.00000000E+00  0.00000000E+00  0.00000000E+00
  0.00000000E+00  0.00000000E+00  0.00000000E+00
  0.00000000E+00  0.00000000E+00  0.00000000E+00
  0.00000000E+00  0.00000000E+00  0.00000000E+00
  0.00000000E+00  0.00000000E+00  0.00000000E+00
  0.00000000E+00  0.00000000E+00  0.00000000E+00
  0.00000000E+00  0.00000000E+00  0.00000000E+00
  0.00000000E+00  0.00000000E+00  0.00000000E+00
  0.00000000E+00  0.00000000E+00  0.00000000E+00
  0.00000000E+00  0.00000000E+00  0.00000000E+00
  0.00000000E+00  0.00000000E+00  0.00000000E+00
  0.00000000E+00  0.00000000E+00  0.00000000E+00
  0.00000000E+00  0.00000000E+00  0.00000000E+00
  0.00000000E+00  0.00000000E+00  0.00000000E+00
  0.00000000E+00  0.00000000E+00  0.00000000E+00
  0.00000000E+00  0.00000000E+00  0.00000000E+00
  0.00000000E+00  0.00000000E+00  0.00000000E+00
  0.00000000E+00  0.00000000E+00  0.00000000E+00
  0.00000000E+00  0.00000000E+00  0.00000000E+00
  0.00000000E+00  0.00000000E+00  0.00000000E+00
  0.00000000E+00  0.00000000E+00  0.00000000E+00
  0.00000000E+00  0.00000000E+00  0.00000000E+00
  0.00000000E+00  0.00000000E+00  0.00000000E+00
  0.00000000E+00  0.00000000E+00  0.00000000E+00
  0.00000000E+00  0.00000000E+00  0.00000000E+00
  0.00000000E+00  0.00000000E+00  0.00000000E+00
  0.00000000E+00  0.00000000E+00  0.00000000E+00
  0.00000000E+00  0.00000000E+00  0.00000000E+00
  0.00000000E+00  0.00000000E+00  0.00000000E+00
  0.00000000E+00  0.00000000E+00  0.00000000E+00
  0.00000000E+00  0.00000000E+00  0.00000000E+00
  0.00000000E+00  0.00000000E+00  0.00000000E+00
  0.00000000E+00  0.00000000E+00  0.00000000E+00
  0.00000000E+00  0.00000000E+00  0.00000000E+00
  0.00000000E+00  0.00000000E+00  0.00000000E+00
  0.00000000E+00  0.00000000E+00  0.00000000E+00
  0.00000000E+00  0.00000000E+00  0.00000000E+00
  0.00000000E+00  0.00000000E+00  0.00000000E+00
  0.00000000E+00  0.00000000E+00  0.00000000E+00
  0.00000000E+00  0.00000000E+00  0.00000000E+00
  0.00000000E+00  0.00000000E+00  0.00000000E+00
  0.00000000E+00  0.00000000E+00  0.00000000E+00
  0.00000000E+00  0.00000000E+00  0.00000000E+00
  0.00000000E+00  0.00000000E+00  0.00000000E+00
  0.00000000E+00  0.00000000E+00  0.00000000E+00
