La Co Ni Sn Bi C  O  H                  
   1.00000000000000     
    29.1044006348000011    0.0000000000000000    0.0000000000000000
     0.4451680315000000   28.3694074727000007    0.0000000000000000
     0.0682082826000000    0.3036559964000000   28.5240018092999996
   La   Co   Ni   Sn   Bi   C    O    H 
    14    13    13    14    14     1     2     1
Selective dynamics
Direct
  0.5924754662807941  0.4203056072887266  0.4078253130554495   T   T   T
  0.6845644437478026  0.5719136533110031  0.3799666735460221   T   T   T
  0.4952937020816875  0.5272451998298416  0.2822053278396666   T   T   T
  0.5619246712613462  0.5224867920563401  0.6019124696947041   T   T   T
  0.5085581800481771  0.3868244711286443  0.3055295996184168   T   T   T
  0.5740676926795167  0.6562492545931700  0.4832278650968996   T   T   T
  0.5089919868666273  0.3380757078087537  0.4997024301098983   T   T   T
  0.5356383046651362  0.6375409689426786  0.3750353948547875   T   T   T
  0.4359058272342349  0.6436485151902962  0.5351650822890864   T   T   T
  0.4373551010143757  0.5015757590148624  0.3842817269995109   F   F   F
  0.4437846394494898  0.4460183835780285  0.5005161578087822   F   F   F
  0.3874935019851735  0.4673333892521958  0.6096898742960908   T   T   T
  0.3446271084044925  0.4440040133868548  0.3469002490289404   T   T   T
  0.3619133295452820  0.5849421470402292  0.3935794851124111   T   T   T
  0.4217425606853311  0.4061295180575186  0.3699802678458894   F   F   F
  0.5011311695957161  0.4887203336762909  0.4395023580252015   F   F   F
  0.4044148221271726  0.6101724300038001  0.4624736492929173   F   F   F
  0.4722931245665194  0.5596737886932672  0.5729988711091565   F   F   F
  0.6552684236953183  0.5165424048424470  0.4543399438695133   F   F   F
  0.5967309916701211  0.5535378348504167  0.5056109707055541   F   F   F
  0.5314074673932367  0.5941153005651714  0.5336729985293047   F   F   F
  0.5796732686089143  0.4997731718447866  0.4507473928409595   F   F   F
  0.4610647057248045  0.3310278108056628  0.3450528410813040   T   T   T
  0.3905180950192175  0.5252419063175111  0.4552418453041511   F   F   F
  0.4547982278848101  0.3246550104063682  0.4248729390207797   T   T   T
  0.5074804872141527  0.4592780196109629  0.3501259710292359   F   F   F
  0.6012877811302459  0.4669891268301640  0.5212355700313438   F   F   F
  0.5384608035519776  0.4312182275275163  0.4821288228790692   F   F   F
  0.4713083414346286  0.4805797151798927  0.5807598339419258   F   F   F
  0.3771163837573610  0.4514853175274567  0.4282230665427278   F   F   F
  0.4059018739390154  0.3822235888080883  0.4561785915149272   F   F   F
  0.5357818896390683  0.5680835373033233  0.4543473312664048   F   F   F
  0.4924712632432886  0.6367287407321953  0.4646113344718685   F   F   F
  0.4677327221812249  0.5829886973614862  0.4038343643763724   F   F   F
  0.5280944416629296  0.5063826634733033  0.5194466411805863   F   F   F
  0.6212454441397384  0.5105019604624417  0.3755946010283822   F   F   F
  0.6054499763524817  0.5821019035045651  0.4188664505762958   F   F   F
  0.4050790883739026  0.5245211222763402  0.5434909784116542   F   F   F
  0.3507471589141138  0.4703430066502663  0.5088419338703629   T   T   T
  0.4338665919688635  0.4569219456460586  0.3019700837974712   T   T   T
  0.5379774880396004  0.4222710201846923  0.5689802283745427   T   T   T
  0.3576244116203972  0.3874302625977591  0.5399353466592722   T   T   T
  0.4625951421883201  0.5516617238622956  0.4875128022361963   F   F   F
  0.6064048703203115  0.3755434390639816  0.5107159725669816   T   T   T
  0.4919733620640413  0.4393314108781351  0.6581873669061360   T   T   T
  0.5872260412683747  0.4673725005807335  0.3063566803672743   T   T   T
  0.4900497958562298  0.4037080615820798  0.4151644571778519   F   F   F
  0.4355478688014531  0.6743918985596953  0.4124417857806987   T   T   T
  0.4683672489006686  0.5374742386986284  0.6601679248009100   T   T   T
  0.5397532608265934  0.5319899791087650  0.3771480104995177   F   F   F
  0.6675948644602597  0.6021576737751495  0.4817510000036404   T   T   T
  0.6635455805180454  0.5174066036210365  0.5459117134575989   T   T   T
  0.3753825185609518  0.3343666389910785  0.3850504571433847   T   T   T
  0.6794056062625113  0.4349494826492589  0.4857048129461321   T   T   T
  0.5399184924785120  0.3185791111881505  0.3920347521066841   T   T   T
  0.3022870877031990  0.5026272694786675  0.4368549611482732   T   T   T
  0.3136747770219382  0.3951550900815306  0.4494185541487735   T   T   T
  0.5117508455995011  0.6258737489942834  0.6165118867592458   T   T   T
  0.4489512707645987  0.3747556909334757  0.5856868332683115   T   T   T
  0.3908811196817916  0.5809335155852373  0.6128322141604047   T   T   T
  0.4051430124232665  0.3059235291004633  0.5016477167880260   T   T   T
  0.4023091791919514  0.3713749641874678  0.2870371783884778   T   T   T
  0.3838779784043039  0.5332557563061521  0.2919345428817205   T   T   T
  0.6928782962332157  0.4611531952250851  0.3870746161486888   T   T   T
  0.3376229227185786  0.5721237133650431  0.5126076582924478   T   T   T
  0.5987930679503634  0.5720986639930095  0.3070868028988815   T   T   T
  0.6125556288909214  0.6148265021620747  0.5746107747776297   T   T   T
  0.4402684917221732  0.6148320732498855  0.3236868819803664   T   T   T
  0.7176382536085730  0.5343441766301349  0.5973583145559085   T   T   T
  0.7583400135756584  0.5412467568653697  0.5911533137787298   T   T   T
  0.6971895080867967  0.5356486250902787  0.6411363511003831   T   T   T
  0.7212907018914564  0.5436497128855102  0.6637564178661809   T   T   T
 
  0.00000000E+00  0.00000000E+00  0.00000000E+00
  0.00000000E+00  0.00000000E+00  0.00000000E+00
  0.00000000E+00  0.00000000E+00  0.00000000E+00
  0.00000000E+00  0.00000000E+00  0.00000000E+00
  0.00000000E+00  0.00000000E+00  0.00000000E+00
  0.00000000E+00  0.00000000E+00  0.00000000E+00
  0.00000000E+00  0.00000000E+00  0.00000000E+00
  0.00000000E+00  0.00000000E+00  0.00000000E+00
  0.00000000E+00  0.00000000E+00  0.00000000E+00
  0.00000000E+00  0.00000000E+00  0.00000000E+00
  0.00000000E+00  0.00000000E+00  0.00000000E+00
  0.00000000E+00  0.00000000E+00  0.00000000E+00
  0.00000000E+00  0.00000000E+00  0.00000000E+00
  0.00000000E+00  0.00000000E+00  0.00000000E+00
  0.00000000E+00  0.00000000E+00  0.00000000E+00
  0.00000000E+00  0.00000000E+00  0.00000000E+00
  0.00000000E+00  0.00000000E+00  0.00000000E+00
  0.00000000E+00  0.00000000E+00  0.00000000E+00
  0.00000000E+00  0.00000000E+00  0.00000000E+00
  0.00000000E+00  0.00000000E+00  0.00000000E+00
  0.00000000E+00  0.00000000E+00  0.00000000E+00
  0.00000000E+00  0.00000000E+00  0.00000000E+00
  0.00000000E+00  0.00000000E+00  0.00000000E+00
  0.00000000E+00  0.00000000E+00  0.00000000E+00
  0.00000000E+00  0.00000000E+00  0.00000000E+00
  0.00000000E+00  0.00000000E+00  0.00000000E+00
  0.00000000E+00  0.00000000E+00  0.00000000E+00
  0.00000000E+00  0.00000000E+00  0.00000000E+00
  0.00000000E+00  0.00000000E+00  0.00000000E+00
  0.00000000E+00  0.00000000E+00  0.00000000E+00
  0.00000000E+00  0.00000000E+00  0.00000000E+00
  0.00000000E+00  0.00000000E+00  0.00000000E+00
  0.00000000E+00  0.00000000E+00  0.00000000E+00
  0.00000000E+00  0.00000000E+00  0.00000000E+00
  0.00000000E+00  0.00000000E+00  0.00000000E+00
  0.00000000E+00  0.00000000E+00  0.00000000E+00
  0.00000000E+00  0.00000000E+00  0.00000000E+00
  0.00000000E+00  0.00000000E+00  0.00000000E+00
  0.00000000E+00  0.00000000E+00  0.00000000E+00
  0.00000000E+00  0.00000000E+00  0.00000000E+00
  0.00000000E+00  0.00000000E+00  0.00000000E+00
  0.00000000E+00  0.00000000E+00  0.00000000E+00
  0.00000000E+00  0.00000000E+00  0.00000000E+00
  0.00000000E+00  0.00000000E+00  0.00000000E+00
  0.00000000E+00  0.00000000E+00  0.00000000E+00
  0.00000000E+00  0.00000000E+00  0.00000000E+00
  0.00000000E+00  0.00000000E+00  0.00000000E+00
  0.00000000E+00  0.00000000E+00  0.00000000E+00
  0.00000000E+00  0.00000000E+00  0.00000000E+00
  0.00000000E+00  0.00000000E+00  0.00000000E+00
  0.00000000E+00  0.00000000E+00  0.00000000E+00
  0.00000000E+00  0.00000000E+00  0.00000000E+00
  0.00000000E+00  0.00000000E+00  0.00000000E+00
  0.00000000E+00  0.00000000E+00  0.00000000E+00
  0.00000000E+00  0.00000000E+00  0.00000000E+00
  0.00000000E+00  0.00000000E+00  0.00000000E+00
  0.00000000E+00  0.00000000E+00  0.00000000E+00
  0.00000000E+00  0.00000000E+00  0.00000000E+00
  0.00000000E+00  0.00000000E+00  0.00000000E+00
  0.00000000E+00  0.00000000E+00  0.00000000E+00
  0.00000000E+00  0.00000000E+00  0.00000000E+00
  0.00000000E+00  0.00000000E+00  0.00000000E+00
  0.00000000E+00  0.00000000E+00  0.00000000E+00
  0.00000000E+00  0.00000000E+00  0.00000000E+00
  0.00000000E+00  0.00000000E+00  0.00000000E+00
  0.00000000E+00  0.00000000E+00  0.00000000E+00
  0.00000000E+00  0.00000000E+00  0.00000000E+00
  0.00000000E+00  0.00000000E+00  0.00000000E+00
  0.00000000E+00  0.00000000E+00  0.00000000E+00
  0.00000000E+00  0.00000000E+00  0.00000000E+00
  0.00000000E+00  0.00000000E+00  0.00000000E+00
  0.00000000E+00  0.00000000E+00  0.00000000E+00
