La Co Ni Sn Bi C  O  H                  
   1.00000000000000     
    29.1044006348000011    0.0000000000000000    0.0000000000000000
     0.4451680315000000   28.3694074727000007    0.0000000000000000
     0.0682082826000000    0.3036559964000000   28.5240018092999996
   La   Co   Ni   Sn   Bi   C    O    H 
    14    13    13    14    14     1     2     1
Selective dynamics
Direct
  0.5925305119031689  0.4204633279388784  0.4072899182353980   T   T   T
  0.6848166518015871  0.5720740329437833  0.3816724777085510   T   T   T
  0.4952410662546415  0.5281933943429521  0.2825366146292156   T   T   T
  0.5620882885647116  0.5213106780002055  0.6020889196378401   T   T   T
  0.5085002033013967  0.3874042295000606  0.3052943502557383   T   T   T
  0.5748467721140479  0.6541387177318244  0.4868778664995634   T   T   T
  0.5085836156297049  0.3378679907789339  0.4993347240546961   T   T   T
  0.5352858533713241  0.6377953581138757  0.3759202142112465   T   T   T
  0.4366657448346963  0.6434983252509966  0.5357214884668492   T   T   T
  0.4373551010143757  0.5015757590148624  0.3842817269995109   F   F   F
  0.4437846394494898  0.4460183835780285  0.5005161578087822   F   F   F
  0.3879326946448685  0.4670076795112382  0.6095777006654227   T   T   T
  0.3444127744627041  0.4445038544922655  0.3469115992663946   T   T   T
  0.3618807112283990  0.5857594125863927  0.3939223819244050   T   T   T
  0.4217425606853311  0.4061295180575186  0.3699802678458894   F   F   F
  0.5011311695957161  0.4887203336762909  0.4395023580252015   F   F   F
  0.4044148221271726  0.6101724300038001  0.4624736492929173   F   F   F
  0.4722931245665194  0.5596737886932672  0.5729988711091565   F   F   F
  0.6552684236953183  0.5165424048424470  0.4543399438695133   F   F   F
  0.5967309916701211  0.5535378348504167  0.5056109707055541   F   F   F
  0.5314074673932367  0.5941153005651714  0.5336729985293047   F   F   F
  0.5796732686089143  0.4997731718447866  0.4507473928409595   F   F   F
  0.4607106940131054  0.3310400303445410  0.3443581809652304   T   T   T
  0.3905180950192175  0.5252419063175111  0.4552418453041511   F   F   F
  0.4542231070105092  0.3246443727882105  0.4238432420344361   T   T   T
  0.5074804872141527  0.4592780196109629  0.3501259710292359   F   F   F
  0.6012877811302459  0.4669891268301640  0.5212355700313438   F   F   F
  0.5384608035519776  0.4312182275275163  0.4821288228790692   F   F   F
  0.4713083414346286  0.4805797151798927  0.5807598339419258   F   F   F
  0.3771163837573610  0.4514853175274567  0.4282230665427278   F   F   F
  0.4059018739390154  0.3822235888080883  0.4561785915149272   F   F   F
  0.5357818896390683  0.5680835373033233  0.4543473312664048   F   F   F
  0.4924712632432886  0.6367287407321953  0.4646113344718685   F   F   F
  0.4677327221812249  0.5829886973614862  0.4038343643763724   F   F   F
  0.5280944416629296  0.5063826634733033  0.5194466411805863   F   F   F
  0.6212454441397384  0.5105019604624417  0.3755946010283822   F   F   F
  0.6054499763524817  0.5821019035045651  0.4188664505762958   F   F   F
  0.4050790883739026  0.5245211222763402  0.5434909784116542   F   F   F
  0.3508431590256709  0.4703957458615484  0.5088915971816723   T   T   T
  0.4337207767512443  0.4575234064194844  0.3021283993947684   T   T   T
  0.5376612621824385  0.4214927448286643  0.5687035304085630   T   T   T
  0.3575236181591811  0.3872789167038160  0.5396572400795958   T   T   T
  0.4625951421883201  0.5516617238622956  0.4875128022361963   F   F   F
  0.6063637114006950  0.3751457202256985  0.5098134893034545   T   T   T
  0.4918154684101709  0.4384970825591220  0.6579126798324383   T   T   T
  0.5871726001174818  0.4679371624331463  0.3061617962622994   T   T   T
  0.4900497958562298  0.4037080615820798  0.4151644571778519   F   F   F
  0.4354083501262168  0.6749288808976444  0.4131395204504114   T   T   T
  0.4686090919543955  0.5369782590772967  0.6607779113339142   T   T   T
  0.5397532608265934  0.5319899791087650  0.3771480104995177   F   F   F
  0.6685320719858776  0.6005119038179283  0.4853048241670266   T   T   T
  0.6660043620147280  0.5179492490655486  0.5505488938017610   T   T   T
  0.3745793653534685  0.3348679298050881  0.3848549087620394   T   T   T
  0.6784622896485131  0.4360801827537762  0.4862050329785322   T   T   T
  0.5395568086776976  0.3187164744094288  0.3914739130142023   T   T   T
  0.3024975964067982  0.5031839899637834  0.4367301064953453   T   T   T
  0.3133267958605612  0.3958072461589622  0.4493998593306323   T   T   T
  0.5127857513159851  0.6245637132848683  0.6179517673867135   T   T   T
  0.4486239159540196  0.3739238640565071  0.5853534923120084   T   T   T
  0.3913516847909838  0.5806071498198757  0.6132832319783549   T   T   T
  0.4047505686386164  0.3055836802119695  0.5009644898369712   T   T   T
  0.4021894142099413  0.3719637376093667  0.2870100582917972   T   T   T
  0.3836613688102369  0.5339527246437292  0.2924480688464126   T   T   T
  0.6931255867810393  0.4612418266943230  0.3873587573374214   T   T   T
  0.3377646518351662  0.5723043686111955  0.5129430933283757   T   T   T
  0.5992281303779490  0.5727071667187199  0.3078038063090544   T   T   T
  0.6139929801523325  0.6132524968563762  0.5797376970168774   T   T   T
  0.4400282205923225  0.6155556644238855  0.3239782775124245   T   T   T
  0.6559015219914117  0.6659730607984549  0.6322911145318054   T   T   T
  0.6920360016531142  0.6861133965184397  0.6259479333327862   T   T   T
  0.6325958131352479  0.6665902229576873  0.6743819781108494   T   T   T
  0.6506637496951493  0.6857268725873050  0.6962846360143367   T   T   T
 
  0.00000000E+00  0.00000000E+00  0.00000000E+00
  0.00000000E+00  0.00000000E+00  0.00000000E+00
  0.00000000E+00  0.00000000E+00  0.00000000E+00
  0.00000000E+00  0.00000000E+00  0.00000000E+00
  0.00000000E+00  0.00000000E+00  0.00000000E+00
  0.00000000E+00  0.00000000E+00  0.00000000E+00
  0.00000000E+00  0.00000000E+00  0.00000000E+00
  0.00000000E+00  0.00000000E+00  0.00000000E+00
  0.00000000E+00  0.00000000E+00  0.00000000E+00
  0.00000000E+00  0.00000000E+00  0.00000000E+00
  0.00000000E+00  0.00000000E+00  0.00000000E+00
  0.00000000E+00  0.00000000E+00  0.00000000E+00
  0.00000000E+00  0.00000000E+00  0.00000000E+00
  0.00000000E+00  0.00000000E+00  0.00000000E+00
  0.00000000E+00  0.00000000E+00  0.00000000E+00
  0.00000000E+00  0.00000000E+00  0.00000000E+00
  0.00000000E+00  0.00000000E+00  0.00000000E+00
  0.00000000E+00  0.00000000E+00  0.00000000E+00
  0.00000000E+00  0.00000000E+00  0.00000000E+00
  0.00000000E+00  0.00000000E+00  0.00000000E+00
  0.00000000E+00  0.00000000E+00  0.00000000E+00
  0.00000000E+00  0.00000000E+00  0.00000000E+00
  0.00000000E+00  0.00000000E+00  0.00000000E+00
  0.00000000E+00  0.00000000E+00  0.00000000E+00
  0.00000000E+00  0.00000000E+00  0.00000000E+00
  0.00000000E+00  0.00000000E+00  0.00000000E+00
  0.00000000E+00  0.00000000E+00  0.00000000E+00
  0.00000000E+00  0.00000000E+00  0.00000000E+00
  0.00000000E+00  0.00000000E+00  0.00000000E+00
  0.00000000E+00  0.00000000E+00  0.00000000E+00
  0.00000000E+00  0.00000000E+00  0.00000000E+00
  0.00000000E+00  0.00000000E+00  0.00000000E+00
  0.00000000E+00  0.00000000E+00  0.00000000E+00
  0.00000000E+00  0.00000000E+00  0.00000000E+00
  0.00000000E+00  0.00000000E+00  0.00000000E+00
  0.00000000E+00  0.00000000E+00  0.00000000E+00
  0.00000000E+00  0.00000000E+00  0.00000000E+00
  0.00000000E+00  0.00000000E+00  0.00000000E+00
  0.00000000E+00  0.00000000E+00  0.00000000E+00
  0.00000000E+00  0.00000000E+00  0.00000000E+00
  0.00000000E+00  0.00000000E+00  0.00000000E+00
  0.00000000E+00  0.00000000E+00  0.00000000E+00
  0.00000000E+00  0.00000000E+00  0.00000000E+00
  0.00000000E+00  0.00000000E+00  0.00000000E+00
  0.00000000E+00  0.00000000E+00  0.00000000E+00
  0.00000000E+00  0.00000000E+00  0.00000000E+00
  0.00000000E+00  0.00000000E+00  0.00000000E+00
  0.00000000E+00  0.00000000E+00  0.00000000E+00
  0.00000000E+00  0.00000000E+00  0.00000000E+00
  0.00000000E+00  0.00000000E+00  0.00000000E+00
  0.00000000E+00  0.00000000E+00  0.00000000E+00
  0.00000000E+00  0.00000000E+00  0.00000000E+00
  0.00000000E+00  0.00000000E+00  0.00000000E+00
  0.00000000E+00  0.00000000E+00  0.00000000E+00
  0.00000000E+00  0.00000000E+00  0.00000000E+00
  0.00000000E+00  0.00000000E+00  0.00000000E+00
  0.00000000E+00  0.00000000E+00  0.00000000E+00
  0.00000000E+00  0.00000000E+00  0.00000000E+00
  0.00000000E+00  0.00000000E+00  0.00000000E+00
  0.00000000E+00  0.00000000E+00  0.00000000E+00
  0.00000000E+00  0.00000000E+00  0.00000000E+00
  0.00000000E+00  0.00000000E+00  0.00000000E+00
  0.00000000E+00  0.00000000E+00  0.00000000E+00
  0.00000000E+00  0.00000000E+00  0.00000000E+00
  0.00000000E+00  0.00000000E+00  0.00000000E+00
  0.00000000E+00  0.00000000E+00  0.00000000E+00
  0.00000000E+00  0.00000000E+00  0.00000000E+00
  0.00000000E+00  0.00000000E+00  0.00000000E+00
  0.00000000E+00  0.00000000E+00  0.00000000E+00
  0.00000000E+00  0.00000000E+00  0.00000000E+00
  0.00000000E+00  0.00000000E+00  0.00000000E+00
  0.00000000E+00  0.00000000E+00  0.00000000E+00
