La Co Ni Sn Bi C  O  H                  
   1.00000000000000     
    29.1044006348000011    0.0000000000000000    0.0000000000000000
     0.4451680315000000   28.3694074727000007    0.0000000000000000
     0.0682082826000000    0.3036559964000000   28.5240018092999996
   La   Co   Ni   Sn   Bi   C    O    H 
    14    13    13    14    14     1     2     1
Selective dynamics
Direct
  0.5921617319668683  0.4216787178353291  0.4071540608186408   T   T   T
  0.6849029441005864  0.5717743234126262  0.3808542826686238   T   T   T
  0.4950481279142638  0.5284438188894972  0.2823703801992680   T   T   T
  0.5625470587915821  0.5213361873921104  0.6020697455546458   T   T   T
  0.5078881126358217  0.3889152754607428  0.3043991536030738   T   T   T
  0.5751976659164907  0.6554724187071040  0.4837785519468307   T   T   T
  0.5077512118921704  0.3357778277478268  0.4993641806018586   T   T   T
  0.5351041742796158  0.6376645586637215  0.3753012876294541   T   T   T
  0.4364299555256799  0.6435409010289156  0.5357417046993589   T   T   T
  0.4373551010143757  0.5015757590148624  0.3842817269995109   F   F   F
  0.4437846394494898  0.4460183835780285  0.5005161578087822   F   F   F
  0.3875456356766225  0.4674736469444945  0.6099168255405674   T   T   T
  0.3443962526580410  0.4446172458541343  0.3467547642422903   T   T   T
  0.3618539406698019  0.5856813772713564  0.3940445277582005   T   T   T
  0.4217425606853311  0.4061295180575186  0.3699802678458894   F   F   F
  0.5011311695957161  0.4887203336762909  0.4395023580252015   F   F   F
  0.4044148221271726  0.6101724300038001  0.4624736492929173   F   F   F
  0.4722931245665194  0.5596737886932672  0.5729988711091565   F   F   F
  0.6552684236953183  0.5165424048424470  0.4543399438695133   F   F   F
  0.5967309916701211  0.5535378348504167  0.5056109707055541   F   F   F
  0.5314074673932367  0.5941153005651714  0.5336729985293047   F   F   F
  0.5796732686089143  0.4997731718447866  0.4507473928409595   F   F   F
  0.4605914805411140  0.3315433357827394  0.3455456103597579   T   T   T
  0.3905180950192175  0.5252419063175111  0.4552418453041511   F   F   F
  0.4560775751110044  0.3216164137170375  0.4266333464112775   T   T   T
  0.5074804872141527  0.4592780196109629  0.3501259710292359   F   F   F
  0.6012877811302459  0.4669891268301640  0.5212355700313438   F   F   F
  0.5384608035519776  0.4312182275275163  0.4821288228790692   F   F   F
  0.4713083414346286  0.4805797151798927  0.5807598339419258   F   F   F
  0.3771163837573610  0.4514853175274567  0.4282230665427278   F   F   F
  0.4059018739390154  0.3822235888080883  0.4561785915149272   F   F   F
  0.5357818896390683  0.5680835373033233  0.4543473312664048   F   F   F
  0.4924712632432886  0.6367287407321953  0.4646113344718685   F   F   F
  0.4677327221812249  0.5829886973614862  0.4038343643763724   F   F   F
  0.5280944416629296  0.5063826634733033  0.5194466411805863   F   F   F
  0.6212454441397384  0.5105019604624417  0.3755946010283822   F   F   F
  0.6054499763524817  0.5821019035045651  0.4188664505762958   F   F   F
  0.4050790883739026  0.5245211222763402  0.5434909784116542   F   F   F
  0.3504518414740068  0.4710533405240633  0.5085620028369150   T   T   T
  0.4334932099616075  0.4575612587433884  0.3020046274827829   T   T   T
  0.5378863920297355  0.4212942825940666  0.5685031467157557   T   T   T
  0.3570956427356452  0.3886998970505997  0.5401934364485342   T   T   T
  0.4625951421883201  0.5516617238622956  0.4875128022361963   F   F   F
  0.6057209940705934  0.3743973110152055  0.5090713958669850   T   T   T
  0.4923120892420387  0.4380413201246687  0.6574872055394106   T   T   T
  0.5871335204656803  0.4682492945729412  0.3058883401325118   T   T   T
  0.4900497958562298  0.4037080615820798  0.4151644571778519   F   F   F
  0.4354231687053005  0.6747340678518685  0.4129074065749526   T   T   T
  0.4686362769807044  0.5364802897880186  0.6601098791725447   T   T   T
  0.5397532608265934  0.5319899791087650  0.3771480104995177   F   F   F
  0.6686113882272106  0.6003658892766071  0.4838479431928976   T   T   T
  0.6659125275916377  0.5190120415607937  0.5504890085335925   T   T   T
  0.3759001731849638  0.3342971315031522  0.3859843245497163   T   T   T
  0.6782294493590061  0.4359603682296798  0.4868129971956559   T   T   T
  0.5411801563450430  0.3211294494482209  0.3897955024903132   T   T   T
  0.3023771335164235  0.5029476543253200  0.4362320839486699   T   T   T
  0.3136230744111269  0.3956321123024106  0.4494916810456114   T   T   T
  0.5124186051264379  0.6251152066508264  0.6169744142715421   T   T   T
  0.4483978786515050  0.3741752216228858  0.5851771168080713   T   T   T
  0.3910072657455675  0.5807684215592124  0.6131689939700419   T   T   T
  0.4015194726579597  0.3062438515042871  0.5008396470141415   T   T   T
  0.4020547461379753  0.3718797631579575  0.2872260664288787   T   T   T
  0.3836281460125115  0.5341672247061093  0.2921317258178433   T   T   T
  0.6933210289181787  0.4611093550500698  0.3880168873614048   T   T   T
  0.3377471675882927  0.5721714534303673  0.5130756073298240   T   T   T
  0.5990617588036014  0.5727169076704978  0.3076067369269372   T   T   T
  0.6126402604462600  0.6141382278090719  0.5756045394349485   T   T   T
  0.4396876747142941  0.6156280194114289  0.3239583343810204   T   T   T
  0.4707080804746392  0.2581741952985849  0.4378820129540008   T   T   T
  0.4566358469133618  0.2235843024866571  0.4174648117573246   T   T   T
  0.5021323739401387  0.2479998520053285  0.4774663094334008   T   T   T
  0.5056073542397931  0.2136628330967855  0.4790304596850279   T   T   T
 
  0.00000000E+00  0.00000000E+00  0.00000000E+00
  0.00000000E+00  0.00000000E+00  0.00000000E+00
  0.00000000E+00  0.00000000E+00  0.00000000E+00
  0.00000000E+00  0.00000000E+00  0.00000000E+00
  0.00000000E+00  0.00000000E+00  0.00000000E+00
  0.00000000E+00  0.00000000E+00  0.00000000E+00
  0.00000000E+00  0.00000000E+00  0.00000000E+00
  0.00000000E+00  0.00000000E+00  0.00000000E+00
  0.00000000E+00  0.00000000E+00  0.00000000E+00
  0.00000000E+00  0.00000000E+00  0.00000000E+00
  0.00000000E+00  0.00000000E+00  0.00000000E+00
  0.00000000E+00  0.00000000E+00  0.00000000E+00
  0.00000000E+00  0.00000000E+00  0.00000000E+00
  0.00000000E+00  0.00000000E+00  0.00000000E+00
  0.00000000E+00  0.00000000E+00  0.00000000E+00
  0.00000000E+00  0.00000000E+00  0.00000000E+00
  0.00000000E+00  0.00000000E+00  0.00000000E+00
  0.00000000E+00  0.00000000E+00  0.00000000E+00
  0.00000000E+00  0.00000000E+00  0.00000000E+00
  0.00000000E+00  0.00000000E+00  0.00000000E+00
  0.00000000E+00  0.00000000E+00  0.00000000E+00
  0.00000000E+00  0.00000000E+00  0.00000000E+00
  0.00000000E+00  0.00000000E+00  0.00000000E+00
  0.00000000E+00  0.00000000E+00  0.00000000E+00
  0.00000000E+00  0.00000000E+00  0.00000000E+00
  0.00000000E+00  0.00000000E+00  0.00000000E+00
  0.00000000E+00  0.00000000E+00  0.00000000E+00
  0.00000000E+00  0.00000000E+00  0.00000000E+00
  0.00000000E+00  0.00000000E+00  0.00000000E+00
  0.00000000E+00  0.00000000E+00  0.00000000E+00
  0.00000000E+00  0.00000000E+00  0.00000000E+00
  0.00000000E+00  0.00000000E+00  0.00000000E+00
  0.00000000E+00  0.00000000E+00  0.00000000E+00
  0.00000000E+00  0.00000000E+00  0.00000000E+00
  0.00000000E+00  0.00000000E+00  0.00000000E+00
  0.00000000E+00  0.00000000E+00  0.00000000E+00
  0.00000000E+00  0.00000000E+00  0.00000000E+00
  0.00000000E+00  0.00000000E+00  0.00000000E+00
  0.00000000E+00  0.00000000E+00  0.00000000E+00
  0.00000000E+00  0.00000000E+00  0.00000000E+00
  0.00000000E+00  0.00000000E+00  0.00000000E+00
  0.00000000E+00  0.00000000E+00  0.00000000E+00
  0.00000000E+00  0.00000000E+00  0.00000000E+00
  0.00000000E+00  0.00000000E+00  0.00000000E+00
  0.00000000E+00  0.00000000E+00  0.00000000E+00
  0.00000000E+00  0.00000000E+00  0.00000000E+00
  0.00000000E+00  0.00000000E+00  0.00000000E+00
  0.00000000E+00  0.00000000E+00  0.00000000E+00
  0.00000000E+00  0.00000000E+00  0.00000000E+00
  0.00000000E+00  0.00000000E+00  0.00000000E+00
  0.00000000E+00  0.00000000E+00  0.00000000E+00
  0.00000000E+00  0.00000000E+00  0.00000000E+00
  0.00000000E+00  0.00000000E+00  0.00000000E+00
  0.00000000E+00  0.00000000E+00  0.00000000E+00
  0.00000000E+00  0.00000000E+00  0.00000000E+00
  0.00000000E+00  0.00000000E+00  0.00000000E+00
  0.00000000E+00  0.00000000E+00  0.00000000E+00
  0.00000000E+00  0.00000000E+00  0.00000000E+00
  0.00000000E+00  0.00000000E+00  0.00000000E+00
  0.00000000E+00  0.00000000E+00  0.00000000E+00
  0.00000000E+00  0.00000000E+00  0.00000000E+00
  0.00000000E+00  0.00000000E+00  0.00000000E+00
  0.00000000E+00  0.00000000E+00  0.00000000E+00
  0.00000000E+00  0.00000000E+00  0.00000000E+00
  0.00000000E+00  0.00000000E+00  0.00000000E+00
  0.00000000E+00  0.00000000E+00  0.00000000E+00
  0.00000000E+00  0.00000000E+00  0.00000000E+00
  0.00000000E+00  0.00000000E+00  0.00000000E+00
  0.00000000E+00  0.00000000E+00  0.00000000E+00
  0.00000000E+00  0.00000000E+00  0.00000000E+00
  0.00000000E+00  0.00000000E+00  0.00000000E+00
  0.00000000E+00  0.00000000E+00  0.00000000E+00
